[Molden Format]
[Title]
[Atoms] AU
O      1     8  0.17125265059148E+01  0.83714867320686E-01 -0.19823227047268E-01
H      2     1  0.35247927566870E+01  0.55387872712625E-01 -0.39325200653351E-01
H      3     1  0.11408843532171E+01 -0.13329939110460E+01 -0.99533764709883E+00
[GTO]
           1 0
 s           4   1.0000000000000000     
   69.137961906196551      -0.20478756370077797     
   11.906129132707308      -0.24997023136827334     
  0.95670827744340703       0.40025880240639616     
  0.36462520496073686       0.15952206667693555     
 p           4   1.0000000000000000     
   8.2124193257781641        1.1321556799186829     
   2.1293576997098116        1.0476840782254817     
  0.75066448202360914       0.54956508217158984     
  0.29885246543283073        8.2908486592766617E-002

           2 0
 s           3   1.0000000000000000     
   3.3702276975336001       0.27359110588908298     
  0.61389118221497996       0.26460540653860526     
  0.16614291148415999        8.2465947534082318E-002

           3 0
 s           3   1.0000000000000000     
   3.3702276975336001       0.27359110588908298     
  0.61389118221497996       0.26460540653860526     
  0.16614291148415999        8.2465947534082318E-002

[MO]
Sym=     1a
Ene=  -0.68005203967907246     
Spin= Alpha
Occup=     2.00000000
           1  0.26953035530817093     
           2  0.62306619006873287     
           3  -2.6705018825875882E-002
           4  -1.8393347710174909E-002
           5  0.45488616380681884     
           6  -4.7496237133052274E-002
Sym=     2a
Ene=  -0.56835692871828669     
Spin= Alpha
Occup=     2.00000000
           1 -0.26953296301750335     
           2  0.17711187151601862     
           3  0.49272725882149099     
           4  0.33927763204983152     
           5   4.7497766165002647E-002
           6 -0.45488387961105253     
Sym=     3a
Ene=  -0.51077051742798751     
Spin= Alpha
Occup=     2.00000000
           1 -0.58583510263141358     
           2  0.24794763879958243     
           3  0.11222841954606505     
           4 -0.78125543178124601     
           5   5.8625621635549595E-002
           6   5.8621495862459384E-002
Sym=     4a
Ene=  -0.44635860087669715     
Spin= Alpha
Occup=     2.00000000
           1  0.58582904689410686     
           2 -0.24793520553436418     
           3  0.68981039758845897     
           4 -0.38353370616733329     
           5  -5.8619936344944223E-002
           6  -5.8620308818076422E-002
Sym=     5a
Ene=    8.2333332389546807E-002
Spin= Alpha
Occup=     0.00000000
           1  0.84123800933048343     
           2  0.40774779126887051     
           3 -0.47490729203685611     
           4 -0.32700957985411805     
           5 -0.77135654821815924     
           6 -0.77132417011705834     
Sym=     6a
Ene=   0.25179093267159175     
Spin= Alpha
Occup=     0.00000000
           1  -1.9793105887822790E-005
           2  0.79185563097233436     
           3  0.46119030255681770     
           4  0.31756659048195995     
           5 -0.90263094105154684     
           6  0.90266333534733356     
