[Molden Format]
[Title]
 Molden file created by orca_2mkl for BaseName=no2

[Atoms] AU
N    1   7         -3.6408172553         5.2756647386        -0.1561167392 
O    2   8         -2.0009957551         6.7136417673         0.4065728147 
O    3   8         -3.9508563645         3.8093066408        -1.8375236719 
[GTO]
  1 0
s   5 1.0 
     1712.8415853000        -1.0337585405
      257.6481267700        -1.8620740805
       58.4582458530        -2.7290401880
       16.1983679050        -2.6956734544
        5.0052600809        -1.0640914367
s   1 1.0 
        0.5873185657         0.4781513534
s   1 1.0 
        0.1876459225         0.2031956662
p   3 1.0 
       13.5714702330        -2.1850243557
        2.9257372874        -1.7466999024
        0.7992775075        -0.8114650516
p   1 1.0 
        0.2195434803         0.2142105067
d   1 1.0 
        1.0000000000         2.8508218814

  2 0
s   5 1.0 
     2266.1767785000        -1.2615859742
      340.8701019100        -2.2748500410
       77.3631351670        -3.3479623295
       21.4796449400        -3.3299980531
        6.6589433124        -1.3203828288
s   1 1.0 
        0.8097597567         0.6083832301
s   1 1.0 
        0.2553077223         0.2559811911
p   3 1.0 
       17.7215043170         3.2460107647
        3.8635505440         2.5734959178
        1.0480920883         1.1208372892
p   1 1.0 
        0.2764154441         0.2856886381
d   1 1.0 
        1.2000000000         3.9222679946

  3 0
s   5 1.0 
     2266.1767785000        -1.2615859742
      340.8701019100        -2.2748500410
       77.3631351670        -3.3479623295
       21.4796449400        -3.3299980531
        6.6589433124        -1.3203828288
s   1 1.0 
        0.8097597567         0.6083832301
s   1 1.0 
        0.2553077223         0.2559811911
p   3 1.0 
       17.7215043170         3.2460107647
        3.8635505440         2.5734959178
        1.0480920883         1.1208372892
p   1 1.0 
        0.2764154441         0.2856886381
d   1 1.0 
        1.2000000000         3.9222679946

[5D]
[7F]
[9G]
[MO]
 Sym=     1a
 Ene= -1.92414852074210E+01
 Spin= Alpha
 Occup= 1.000000
  1       0.000149644498
  2       0.000479067331
  3      -0.005335747992
  4       0.000650155392
  5       0.001234322511
  6       0.001099475163
  7       0.004902164945
  8       0.009242237100
  9       0.008202273149
 10       0.000809785462
 11       0.000069180320
 12       0.000972848570
 13      -0.000637192682
 14      -0.000449091968
 15      -0.498644293713
 16       0.020476072721
 17      -0.015708248007
 18      -0.001145874068
 19      -0.001029723625
 20      -0.000425704870
 21       0.004454511813
 22       0.002786284291
 23       0.000051066147
 24       0.000104354311
 25       0.000275574852
 26       0.000214448834
 27      -0.000266086617
 28      -0.000030529454
 29       0.853834681607
 30      -0.035133706903
 31       0.026381529001
 32      -0.000383633379
 33      -0.001770624375
 34      -0.002022981781
 35       0.000436069391
 36       0.005211911258
 37       0.006517120419
 38       0.000020925876
 39      -0.000146476673
 40      -0.000147443445
 41       0.000080705781
 42      -0.000131780927
 Sym=     1a
 Ene= -1.92414802181313E+01
 Spin= Alpha
 Occup= 1.000000
  1       0.000569936148
  2       0.001824460726
  3      -0.020308047956
  4      -0.000889290572
  5      -0.000309224794
  6       0.000315780160
  7      -0.006516782718
  8      -0.002314254542
  9       0.002248950490
 10      -0.000343609900
 11       0.000897119647
 12       0.001093929059
 13      -0.000317785397
 14       0.001290978681
 15       0.853828645095
 16      -0.035206414096
 17       0.025839141771
 18       0.001980400766
 19       0.001709870320
 20       0.000643907646
 21      -0.005277824069
 22      -0.005403515353
 23      -0.002833485237
 24       0.000228192125
 25       0.000188788504
 26       0.000078800478
 27      -0.000306790061
 28      -0.000320315469
 29       0.498633843859
 30      -0.020602711138
 31       0.014790572325
 32      -0.000172436737
 33      -0.001004393049
 34      -0.001184048934
 35       0.002077393043
 36       0.003345985960
 37       0.002721783476
 38      -0.000351185083
 39       0.000411151775
 40      -0.000283636857
 41      -0.000028329279
 42       0.000231703245
 Sym=     1a
 Ene= -1.45657789108467E+01
 Spin= Alpha
 Occup= 1.000000
  1      -0.988780351417
  2       0.040105073918
  3      -0.005693316905
  4      -0.001807624535
  5       0.000038405505
  6       0.001520199560
  7       0.001300117303
  8      -0.000027543738
  9      -0.001093328721
 10      -0.000123608969
 11       0.000863041649
 12       0.002208361814
 13      -0.000417239194
 14       0.001892041698
 15      -0.000274651007
 16      -0.000743644730
 17      -0.003712379764
 18       0.001341725600
 19       0.001137625102
 20       0.000409312957
 21       0.003166136845
 22       0.002880184048
 23       0.001223032450
 24       0.001036754857
 25      -0.000662409575
 26      -0.000578912481
 27      -0.000364899212
 28      -0.001973243111
 29      -0.000274605761
 30      -0.000743447740
 31      -0.003711765319
 32      -0.000202182701
 33      -0.001161880880
 34      -0.001367672508
 35      -0.000735779483
 36      -0.002931720992
 37      -0.003267421846
 38      -0.000898366060
 39      -0.000305042741
 40      -0.002053237376
 41       0.000825798836
 42      -0.000278516512
 Sym=     1a
 Ene= -1.27652124251395E+00
 Spin= Alpha
 Occup= 1.000000
  1      -0.212020400400
  2      -0.443395318273
  3      -0.084681278684
  4       0.085847468130
  5      -0.001824903392
  6      -0.072214252625
  7      -0.010779041550
  8       0.000223389747
  9       0.009056021816
 10       0.000721510204
 11      -0.005025333891
 12      -0.016931043393
 13       0.002256342460
 14      -0.014438956494
 15      -0.151358109657
 16      -0.304664125061
 17      -0.134486985225
 18       0.097998470824
 19       0.090947117382
 20       0.040240160590
 21       0.023029725423
 22       0.022362939908
 23       0.010757662221
 24       0.005163724222
 25      -0.004831931430
 26      -0.004715061347
 27      -0.000815951001
 28      -0.011093695543
 29      -0.151348207890
 30      -0.304641336342
 31      -0.134496238720
 32      -0.025162027780
 33      -0.092497645243
 34      -0.101504384131
 35      -0.007221462859
 36      -0.022703975068
 37      -0.024063292540
 38      -0.004024438801
 39      -0.003134628443
 40      -0.011715574464
 41       0.004837537476
 42      -0.003048452693
 Sym=     1a
 Ene= -1.13038379728737E+00
 Spin= Alpha
 Occup= 1.000000
  1      -0.000005273736
  2      -0.000012654637
  3       0.000002325011
  4      -0.156527630124
  5      -0.233150619743
  6      -0.180147507543
  7       0.020498307989
  8       0.030537206073
  9       0.023594030549
 10      -0.015496393459
 11       0.002861381968
 12      -0.011806058165
 13       0.009534393671
 14       0.013566230379
 15       0.189015110814
 16       0.388018515584
 17       0.199368248991
 18      -0.109622748673
 19      -0.083922001953
 20      -0.021526766519
 21      -0.030302009276
 22      -0.024296850969
 23      -0.007392965175
 24      -0.006002290851
 25       0.001644174205
 26       0.001151624332
 27       0.003560549471
 28       0.009965066824
 29      -0.189022231966
 30      -0.388031586853
 31      -0.199381142362
 32      -0.004568668035
 33      -0.086170215865
 34      -0.109905699874
 35      -0.002714301869
 36      -0.024886420839
 37      -0.030608093571
 38      -0.005842877727
 39       0.000543761211
 40      -0.010176988689
 41       0.003727935992
 42       0.000405979459
 Sym=     1a
 Ene= -6.59321942339498E-01
 Spin= Alpha
 Occup= 1.000000
  1      -0.185566879768
  2      -0.443848343938
  3      -0.217056976611
  4      -0.109973181683
  5       0.002345364237
  6       0.092519937617
  7       0.061944811700
  8      -0.001316129872
  9      -0.052094529621
 10       0.000586014590
 11      -0.004111445569
 12      -0.000240779437
 13       0.002429576281
 14      -0.000382059200
 15       0.147035150743
 16       0.305770897927
 17       0.296391582945
 18       0.197397313293
 19       0.116707633961
 20      -0.006626428408
 21       0.089898077611
 22       0.052241451210
 23      -0.004216471903
 24       0.006716630962
 25      -0.002617747983
 26      -0.000013564327
 27      -0.003379736022
 28      -0.009942037542
 29       0.147033477689
 30       0.305763560441
 31       0.296412479950
 32       0.037326844878
 33      -0.121710954976
 34      -0.190840780423
 35       0.018201092813
 36      -0.054535628077
 37      -0.086716755553
 38      -0.006309813882
 39      -0.000213074339
 40      -0.009936189189
 41       0.004633608359
 42       0.001460545989
 Sym=     1a
 Ene= -5.79691799505423E-01
 Spin= Alpha
 Occup= 1.000000
  1      -0.009792159839
  2      -0.008644739503
  3      -0.051184467365
  4      -0.349364356322
  5       0.007369125648
  6       0.293953036427
  7       0.168228025335
  8      -0.003556214377
  9      -0.141558681018
 10       0.002898601908
 11      -0.020326207061
 12      -0.004460446342
 13       0.011865622116
 14      -0.004622459974
 15      -0.053740277086
 16      -0.107424997607
 17      -0.147650603510
 18       0.039295603002
 19      -0.175011694212
 20      -0.262814892164
 21       0.030024784610
 22      -0.081776271498
 23      -0.132291812755
 24       0.004091549290
 25       0.012253582958
 26       0.015058424175
 27      -0.011160097744
 28       0.004139682013
 29      -0.053718551176
 30      -0.107385475539
 31      -0.147591032047
 32       0.269907749399
 33       0.168444371268
 34       0.002533707035
 35       0.137457773730
 36       0.078225823921
 37      -0.008682287907
 38      -0.007905693224
 39       0.014463633238
 40       0.005921903141
 41      -0.003787896799
 42       0.014637788403
 Sym=     1a
 Ene= -5.71619703233633E-01
 Spin= Alpha
 Occup= 1.000000
  1       0.000001604823
  2       0.000003291676
  3       0.000003618829
  4       0.206590845201
  5      -0.334961223040
  6       0.253944375340
  7      -0.108039920226
  8       0.175156775590
  9      -0.132798496786
 10       0.012323656069
 11      -0.002669155547
 12      -0.009201313003
 13      -0.006642813766
 14       0.011300394707
 15      -0.000000457456
 16       0.000002731555
 17      -0.000004898604
 18      -0.136346718418
 19       0.221050344280
 20      -0.167586781781
 21      -0.071720145320
 22       0.116279654611
 23      -0.088154460491
 24       0.006411891172
 25       0.012846571656
 26       0.003988922519
 27       0.019703021108
 28      -0.005755692093
 29       0.000019351084
 30       0.000036307724
 31       0.000058899260
 32      -0.136344211324
 33       0.220977462338
 34      -0.167651330274
 35      -0.071714971697
 36       0.116245394975
 37      -0.088184301272
 38      -0.017558366343
 39      -0.010432121274
 40       0.004327304031
 41      -0.013693714290
 42      -0.004467208584
 Sym=     1a
 Ene= -5.67052727212768E-01
 Spin= Alpha
 Occup= 1.000000
  1       0.000000823443
  2       0.000003841099
  3       0.000011497724
  4       0.165970781290
  5       0.247205954195
  6       0.191082169850
  7      -0.039798437705
  8      -0.059273084796
  9      -0.045841050399
 10       0.003937253239
 11      -0.000729196815
 12       0.002997328263
 13      -0.002421264908
 14      -0.003444087520
 15       0.107305724119
 16       0.213098667864
 17       0.270144341399
 18       0.306243489315
 19       0.199773992677
 20       0.014344463197
 21       0.150583585807
 22       0.093894931487
 23       0.001334383500
 24       0.008839901741
 25      -0.003577163573
 26      -0.001606219691
 27      -0.004420761912
 28      -0.014394246929
 29      -0.107318881610
 30      -0.213121086498
 31      -0.270195684717
 32      -0.033137280644
 33       0.207050755852
 34       0.299906321614
 35      -0.022033540390
 36       0.097588614701
 37       0.146569891486
 38       0.008261240631
 39       0.000421665772
 40       0.014636664453
 41      -0.006101495545
 42      -0.000575685318
 Sym=     1a
 Ene= -3.82444103987283E-01
 Spin= Alpha
 Occup= 1.000000
  1       0.000001522911
  2       0.000000010559
  3      -0.000004660834
  4       0.025117392667
  5       0.037415579877
  6       0.028900820706
  7       0.048791853430
  8       0.072682917013
  9       0.056169929069
 10       0.024697661163
 11      -0.004550232898
 12       0.018808047840
 13      -0.015177406521
 14      -0.021615943915
 15       0.003906600557
 16       0.008602297979
 17      -0.051157854229
 18      -0.172497982611
 19       0.206686034400
 20       0.413105000554
 21      -0.091239020720
 22       0.151145563307
 23       0.273698625704
 24      -0.003879171466
 25      -0.009432682130
 26      -0.010668243563
 27       0.009192286727
 28      -0.001284619110
 29      -0.003908846783
 30      -0.008617015186
 31       0.051183453299
 32       0.441396926754
 33       0.193816507461
 34      -0.103655720929
 35       0.288866296738
 36       0.143211073235
 37      -0.046272056281
 38      -0.006853231708
 39       0.011408354693
 40       0.002501539867
 41      -0.002604196232
 42       0.010674430801
 Sym=     1a
 Ene= -3.77488290417945E-01
 Spin= Alpha
 Occup= 1.000000
  1      -0.000001538865
  2      -0.000000934056
  3      -0.000001037684
  4      -0.000004146694
  5       0.000021646376
  6       0.000009649044
  7       0.000029620137
  8       0.000019836625
  9       0.000025191780
 10      -0.025324612153
 11      -0.024601515110
 12       0.000363547081
 13      -0.035297050187
 14       0.001357888759
 15       0.000002599698
 16       0.000011630134
 17      -0.000034044921
 18      -0.210746904863
 19       0.341706069407
 20      -0.258949491542
 21      -0.147101503971
 22       0.238548317105
 23      -0.180770271992
 24       0.004176627425
 25       0.009648863597
 26       0.003386219702
 27       0.014921492380
 28      -0.004799207792
 29      -0.000000635157
 30      -0.000002307881
 31       0.000021557072
 32       0.210833962233
 33      -0.341572176968
 34       0.259063410142
 35       0.147166758458
 36      -0.238440004641
 37       0.180856189462
 38       0.013596375368
 39       0.007611245625
 40      -0.003640881599
 41       0.009842020669
 42       0.003845357871
 Sym=     1a
 Ene= -2.81452642570931E-01
 Spin= Alpha
 Occup= 1.000000
  1      -0.086197733835
  2      -0.170327616381
  3      -0.522856807256
  4      -0.313909692377
  5       0.006694084670
  6       0.264085748907
  7       0.162493935615
  8      -0.003447137085
  9      -0.136677491658
 10      -0.003267962884
 11       0.022916837949
 12       0.023562593036
 13      -0.012583919149
 14       0.020777216198
 15       0.025349247586
 16       0.069895507580
 17       0.097013351192
 18      -0.339359206756
 19      -0.023896439497
 20       0.244451573474
 21      -0.265890078907
 22      -0.021750925119
 23       0.187540317154
 24      -0.002922154166
 25       0.001925968398
 26       0.000576066460
 27       0.000940555704
 28       0.004661246187
 29       0.025349995413
 30       0.069901699181
 31       0.097037441764
 32      -0.298138734057
 33       0.037513654138
 34       0.291878721424
 35      -0.229589591090
 36       0.032331772383
 37       0.229320963335
 38       0.002514257460
 39       0.000920413475
 40       0.004714365532
 41      -0.002402443418
 42      -0.000096369804
 Sym=     1a
 Ene= -8.52227574071257E-02
 Spin= Alpha
 Occup= 0.000000
  1      -0.000000758197
  2       0.000003945271
  3      -0.000032672577
  4      -0.248128882230
  5       0.402373533196
  6      -0.305158069836
  7       0.212624756406
  8      -0.344808784866
  9       0.261501114478
 10       0.006253692909
 11      -0.001354888749
 12      -0.004669174226
 13      -0.003368285359
 14       0.005735474439
 15       0.000002259319
 16       0.000009584752
 17       0.000007407075
 18      -0.171245210212
 19       0.277674360724
 20      -0.210594981404
 21      -0.160714920513
 22       0.260601237599
 23      -0.197646164857
 24      -0.001130862174
 25      -0.004576852473
 26      -0.002130700823
 27      -0.007233525071
 28       0.002902251296
 29       0.000000825824
 30       0.000004229182
 31       0.000006347675
 32      -0.171244825989
 33       0.277689270722
 34      -0.210591092090
 35      -0.160706962594
 36       0.260615426961
 37      -0.197640031167
 38       0.006986605354
 39       0.003309271286
 40      -0.002243274919
 41       0.004079138750
 42       0.002464157690
 Sym=     1a
 Ene= 2.24357811018127E-01
 Spin= Alpha
 Occup= 0.000000
  1      -0.126429519131
  2      -0.212381689599
  3      -2.243460838322
  4       0.327379487531
  5      -0.006998314262
  6      -0.275417222079
  7      -0.682727521966
  8       0.014601651704
  9       0.574387664164
 10      -0.001968828216
 11       0.013734096329
 12       0.042911131676
 13      -0.006310075221
 14       0.036631155102
 15       0.110524331139
 16       0.264883556464
 17       0.996043785846
 18      -0.161819611587
 19      -0.259215025828
 20      -0.210211930283
 21      -0.388632295951
 22      -0.538230892269
 23      -0.393664561242
 24      -0.005188772242
 25      -0.011246828226
 26      -0.006944018969
 27       0.011658906505
 28       0.004195138973
 29       0.110526264472
 30       0.264882107185
 31       0.996100387718
 32       0.185883566672
 33       0.258701138181
 34       0.189979235928
 35       0.334827756316
 36       0.539389676054
 37       0.438979747970
 38       0.008760389032
 39      -0.013824365814
 40       0.003685651317
 41       0.003073797336
 42      -0.008018414526
 Sym=     1a
 Ene= 4.06960253867031E-01
 Spin= Alpha
 Occup= 0.000000
  1       0.000004776007
  2       0.000035891373
  3      -0.000133404841
  4       0.275687897901
  5       0.410624612851
  6       0.317279477421
  7      -1.172901487090
  8      -1.747030704097
  9      -1.349865883462
 10      -0.026176617210
 11       0.004831985558
 12      -0.019943264257
 13       0.016105521012
 14       0.022919367319
 15       0.114471916786
 16       0.273169659250
 17       1.664358497905
 18      -0.254557854253
 19      -0.117270374075
 20       0.052350317278
 21      -0.879088805147
 22      -0.603819262133
 23      -0.081343974130
 24       0.008475735286
 25       0.008717453101
 26       0.006089943880
 27      -0.012465849849
 28      -0.009551708407
 29      -0.114464295751
 30      -0.273149723070
 31      -1.664266758152
 32       0.092129934028
 33      -0.124673519664
 34      -0.239296148246
 35       0.054954486095
 36      -0.623707657789
 37      -0.867107959914
 38       0.011482918779
 39      -0.012398379308
 40       0.009119052477
 41       0.000185715516
 42      -0.007920152595
 Sym=     1a
 Ene= 4.79126878705846E-01
 Spin= Alpha
 Occup= 0.000000
  1       0.299603686920
  2       1.640286377785
  3      -2.351912472884
  4       0.018586376747
  5      -0.000391279311
  6      -0.015684483124
  7      -0.171199652397
  8       0.003726376710
  9       0.144031985995
 10       0.001990912623
 11      -0.013936421250
 12      -0.020592744701
 13       0.007382180209
 14      -0.017895148741
 15       0.022037363201
 16       0.103929968350
 17       0.519841749886
 18       0.156157963782
 19       0.127497915299
 20       0.041149280032
 21      -0.112484791709
 22      -0.124463536312
 23      -0.072629128837
 24      -0.023901436798
 25       0.016662872724
 26       0.016463154326
 27       0.007558477937
 28       0.047858974909
 29       0.022045758640
 30       0.103956764841
 31       0.519906055574
 32      -0.017044798720
 33      -0.130467407318
 34      -0.158165116385
 35       0.055449371725
 36       0.125706724755
 37       0.120686071498
 38       0.020297986698
 39       0.008503683890
 40       0.050136220286
 41      -0.019634968012
 42       0.009161459987
 Sym=     1a
 Ene= 6.48051097738821E-01
 Spin= Alpha
 Occup= 0.000000
  1      -0.000001227903
  2      -0.000091933795
  3       0.000838239158
  4      -0.386668901683
  5       0.628588294511
  6      -0.477257132457
  7      -0.511503057752
  8       0.832231225127
  9      -0.631843421880
 10      -0.021852884191
 11       0.004796120179
 12       0.016315483636
 13       0.011737915581
 14      -0.020007564179
 15      -0.000046787049
 16      -0.000240790908
 17      -0.000603213128
 18       0.103997025158
 19      -0.169076069519
 20       0.128387266539
 21       0.016196663064
 22      -0.025772359555
 23       0.019828924843
 24      -0.008023152772
 25      -0.015141031678
 26      -0.004425088343
 27      -0.023068589184
 28       0.006355870842
 29      -0.000042934196
 30      -0.000216351925
 31      -0.000166076805
 32       0.103979253254
 33      -0.169084884427
 34       0.128395745612
 35       0.015910597273
 36      -0.026101640319
 37       0.019629266581
 38       0.020341269196
 39       0.012418753444
 40      -0.004817832987
 41       0.016459882855
 42       0.004849242520
 Sym=     1a
 Ene= 6.50698151690049E-01
 Spin= Alpha
 Occup= 0.000000
  1       0.007075856159
  2      -0.030539384852
  3       0.659896307721
  4       0.647701910287
  5      -0.014695468756
  6      -0.543959729202
  7       1.052964558863
  8      -0.023758032276
  9      -0.884783537865
 10      -0.006252994493
 11       0.044094225590
 12       0.011451812383
 13      -0.025688209878
 14       0.011564376728
 15      -0.032093261100
 16      -0.154852250130
 17      -0.339325272474
 18      -0.182411606982
 19       0.013171092340
 20       0.165112557445
 21       0.099593519276
 22       0.136175087116
 23       0.098513166795
 24       0.005823843687
 25      -0.019694412881
 26      -0.025466848650
 27       0.008299703834
 28      -0.026899985402
 29      -0.032093542034
 30      -0.154844521800
 31      -0.339711236087
 32      -0.194353921712
 33      -0.004652853193
 34       0.151341534718
 35      -0.083455668126
 36      -0.136549829208
 37      -0.112274071977
 38      -0.000381436055
 39      -0.018597009866
 40      -0.030181854292
 41       0.012049326309
 42      -0.021501452057
 Sym=     1a
 Ene= 6.69651397709284E-01
 Spin= Alpha
 Occup= 0.000000
  1      -0.000001943298
  2      -0.000004174298
  3      -0.000083126040
  4      -0.417266452704
  5      -0.621195626538
  6      -0.480083509828
  7      -1.061704179734
  8      -1.580966260418
  9      -1.221671311252
 10       0.019400728780
 11      -0.003586603434
 12       0.014782018123
 13      -0.011931067578
 14      -0.016995279470
 15       0.026410382622
 16       0.167518233216
 17       1.012145559428
 18       0.079915096229
 19       0.178889286468
 20       0.170984384546
 21      -0.299871548552
 22      -0.211540707974
 23      -0.035103796426
 24      -0.038119610452
 25       0.024812471582
 26       0.017017258755
 27       0.012895426164
 28       0.068881897040
 29      -0.026403036180
 30      -0.167485935140
 31      -1.012048328361
 32       0.159288186866
 33       0.177194019847
 34       0.104222477206
 35       0.011371124889
 36      -0.218144161365
 37      -0.296911250942
 38      -0.032887225451
 39      -0.011696763982
 40      -0.071108391818
 41       0.030788393425
 42      -0.006706091913
 Sym=     1a
 Ene= 8.41988349258806E-01
 Spin= Alpha
 Occup= 0.000000
  1       0.035335120866
  2       0.447057987100
  3       0.701844372686
  4      -0.019963818721
  5       0.000418909756
  6       0.016793672996
  7       0.217492821352
  8      -0.004688835296
  9      -0.183050111295
 10      -0.004888278463
 11       0.034147027694
 12       0.081474120782
 13      -0.016767379538
 14       0.069906245476
 15      -0.096448001223
 16      -0.402139198297
 17      -0.030084680152
 18      -0.287809508124
 19      -0.389681712094
 20      -0.279844643928
 21       0.577368679854
 22       0.666919740178
 23       0.409969798132
 24      -0.008318227107
 25       0.001053253838
 26      -0.005393862925
 27       0.005498957321
 28       0.008161964188
 29      -0.096446750492
 30      -0.402128167139
 31      -0.030182728130
 32       0.236146990156
 33       0.390788632620
 34       0.323252090662
 35      -0.321743754761
 36      -0.672395969866
 37      -0.624966016453
 38       0.008461355281
 39      -0.002048670479
 40       0.007389595438
 41      -0.004824826276
 42      -0.006528751638
 Sym=     1a
 Ene= 8.62073728972933E-01
 Spin= Alpha
 Occup= 0.000000
  1       0.000003083760
  2       0.000019739003
  3      -0.000026423951
  4       0.022531483621
  5       0.033573820185
  6       0.025942849415
  7       0.154364155519
  8       0.230015293671
  9       0.177723700694
 10       0.044017155385
 11      -0.008124299192
 12       0.033536844089
 13      -0.027080231375
 14      -0.038533065637
 15       0.114489006442
 16       0.571371227367
 17      -0.709566895207
 18       0.488443114447
 19       0.269032891910
 20      -0.042402497285
 21      -0.516200433070
 22      -0.319644194426
 23      -0.001753350516
 24       0.002790397677
 25      -0.010668495849
 26      -0.006467768692
 27       0.005066631395
 28      -0.007854343666
 29      -0.114490465634
 30      -0.571374947466
 31       0.709594853550
 32      -0.118580156118
 33       0.282025787246
 34       0.468174434166
 35       0.078602743671
 36      -0.332381938201
 37      -0.502026215865
 38      -0.000186093256
 39       0.010182588248
 40       0.008450343801
 41      -0.006667723185
 42       0.005579350295
 Sym=     1a
 Ene= 9.12504873730740E-01
 Spin= Alpha
 Occup= 0.000000
  1       0.000011084535
  2       0.000184372230
  3      -0.000771910626
  4      -0.000174691044
  5       0.000001242436
  6       0.000143946158
  7      -0.000844859557
  8      -0.000071805079
  9       0.000590456462
 10       0.024516917958
 11       0.023817587790
 12      -0.000300085419
 13       0.034164264420
 14      -0.001280477503
 15      -0.000024600597
 16      -0.000152991734
 17       0.000679529931
 18       0.292995695265
 19      -0.475620160302
 20       0.361111763398
 21      -0.353823023192
 22       0.574169858651
 23      -0.436300775956
 24      -0.008856269850
 25      -0.010597182784
 26      -0.001096497081
 27      -0.015550671118
 28       0.002129731281
 29      -0.000010244215
 30      -0.000061143010
 31       0.000420588948
 32      -0.293755771430
 33       0.475600790761
 34      -0.360525675703
 35       0.354985173723
 36      -0.574195146641
 37       0.435329107678
 38      -0.012192818007
 39      -0.009869229054
 40       0.001421457261
 41      -0.013751699153
 42      -0.000983085234
 Sym=     1a
 Ene= 9.23456115991928E-01
 Spin= Alpha
 Occup= 0.000000
  1      -0.013258404877
  2      -0.219037791674
  3       0.757634504755
  4       0.215002312930
  5      -0.004632215007
  6      -0.180865708335
  7       0.908811710683
  8      -0.019645224364
  9      -0.764657782534
 10       0.001114060363
 11      -0.007565727273
 12      -0.059112822853
 13       0.002001785398
 14      -0.049963715061
 15       0.014195083628
 16       0.077128669803
 17      -0.529187473845
 18       0.382985826115
 19      -0.098833981718
 20      -0.440589307072
 21      -0.534908623407
 22       0.271847376231
 23       0.791949644554
 24       0.011207329612
 25       0.014128716586
 26      -0.001603337736
 27      -0.018754000372
 28      -0.021190810075
 29       0.014191220478
 30       0.077120348207
 31      -0.529447194474
 32       0.501739206593
 33       0.079804244533
 34      -0.303639097992
 35      -0.878048548255
 36      -0.241502502604
 37       0.396533476205
 38      -0.015946064102
 39       0.019139900838
 40      -0.022288342789
 41      -0.002040535867
 42       0.002566491408
 Sym=     1a
 Ene= 9.71382364190702E-01
 Spin= Alpha
 Occup= 0.000000
  1      -0.000003673766
  2      -0.000043749440
  3       0.000037990387
  4      -0.127930354640
  5       0.207400630627
  6      -0.157367009690
  7      -0.456203770243
  8       0.739479533076
  9      -0.561204489763
 10      -0.014073639188
 11       0.003049140205
 12       0.010464476034
 13       0.007584261661
 14      -0.012877117889
 15      -0.000001241555
 16      -0.000002312490
 17       0.000123652818
 18      -0.271619884277
 19       0.440511954020
 20      -0.334311239452
 21       0.453488731531
 22      -0.735544984858
 23       0.558179365906
 24      -0.002317846451
 25       0.013830487501
 26       0.009951368285
 27       0.022891852734
 28      -0.013010959398
 29       0.000004141117
 30       0.000007429905
 31      -0.000175536636
 32      -0.271772426282
 33       0.440514190742
 34      -0.334176873759
 35       0.453767550081
 36      -0.735556355923
 37       0.557926450710
 38      -0.024738735300
 39      -0.007953012826
 40       0.010252485587
 41      -0.008319052355
 42      -0.011818003684
 Sym=     1a
 Ene= 9.96658971975042E-01
 Spin= Alpha
 Occup= 0.000000
  1       0.000000704719
  2      -0.000007091775
  3       0.000110439599
  4       0.076137888562
  5       0.113452440134
  6       0.087555830088
  7       0.631195674798
  8       0.940303000859
  9       0.726146576193
 10       0.069951273254
 11      -0.012912117191
 12       0.053293469605
 13      -0.043039036766
 14      -0.061253099793
 15       0.007896211167
 16       0.048814110652
 17      -0.789277755247
 18      -0.201292179993
 19       0.261391814644
 20       0.508077324831
 21       0.531226447534
 22      -0.243184005493
 23      -0.752169571277
 24      -0.011101314870
 25      -0.032337428051
 26      -0.043374858923
 27       0.029552270306
 28      -0.013517259132
 29      -0.007900120877
 30      -0.048831554078
 31       0.789148126552
 32       0.541543723163
 33       0.245624393947
 34      -0.116782643946
 35      -0.837988004380
 36      -0.214112659345
 37       0.399571106755
 38      -0.021182597164
 39       0.038305711048
 40       0.018796812906
 41      -0.009698606128
 42       0.041757945794
 Sym=     1a
 Ene= 1.25400465021667E+00
 Spin= Alpha
 Occup= 0.000000
  1      -0.020626217656
  2      -0.056515920504
  3       5.270227713433
  4       0.050689950393
  5      -0.001062621842
  6      -0.042649387122
  7       1.350306042891
  8      -0.028267855758
  9      -1.135307033722
 10      -0.020058764415
 11       0.140518528131
 12       0.094722804600
 13      -0.079282461050
 14       0.085656123310
 15       0.185606758925
 16       1.367487154633
 17      -3.832292490237
 18      -0.147762840186
 19      -0.134890106760
 20      -0.057678748538
 21       1.128466337884
 22       1.234109887326
 23       0.709656308026
 24      -0.020033862494
 25       0.035119001117
 26      -0.016014187941
 27      -0.009814090429
 28       0.011343655424
 29       0.185541027601
 30       1.367010012783
 31      -3.830729967713
 32       0.034948896024
 33       0.137226709485
 34       0.152488504565
 35      -0.537079324377
 36      -1.246295521482
 37      -1.206564939397
 38       0.010841413714
 39       0.029423761554
 40       0.007504053370
 41      -0.028819738250
 42      -0.015711943557
 Sym=     1a
 Ene= 1.30547191825153E+00
 Spin= Alpha
 Occup= 0.000000
  1      -0.000005164793
  2      -0.000023797011
  3       0.000898159239
  4      -0.035855129062
  5      -0.053385306928
  6      -0.041260589630
  7      -1.830380144641
  8      -2.726642388716
  9      -2.107003348167
 10       0.088881851068
 11      -0.016378676271
 12       0.067736603254
 13      -0.054698967578
 14      -0.077805747781
 15      -0.182410065803
 16      -1.295657503547
 17       4.098799901376
 18       0.277894720599
 19       0.202702313914
 20       0.041274488406
 21      -1.645564346455
 22      -1.149678911898
 23      -0.177827384465
 24       0.019108469799
 25       0.013279486655
 26      -0.015071378588
 27      -0.024858802559
 28      -0.044580421757
 29       0.182480045127
 30       1.296156193040
 31      -4.100114351623
 32      -0.001738513221
 33       0.208702066584
 34       0.276599322848
 35       0.077060746158
 36      -1.186852689945
 37      -1.627597955846
 38       0.024015575130
 39      -0.021229024897
 40       0.047937045269
 41      -0.001691729815
 42       0.006805392020
 Sym=     1a
 Ene= 1.74343303809778E+00
 Spin= Alpha
 Occup= 0.000000
  1       0.000000631339
  2       0.000001203632
  3       0.000031399938
  4       0.000007976302
  5       0.000001534763
  6       0.000000671189
  7       0.000028060092
  8       0.000018753845
  9       0.000007953543
 10       0.378967732249
 11       0.367990740676
 12      -0.005331161536
 13       0.527944777044
 14      -0.020406406278
 15       0.000003899286
 16       0.000024368025
 17      -0.000059778407
 18      -0.046735988066
 19       0.075774827935
 20      -0.057470633686
 21      -0.044069548804
 22       0.071511099762
 23      -0.054212639607
 24      -0.038537912632
 25      -0.161336048093
 26      -0.075863291373
 27      -0.255200054572
 28       0.103331909005
 29      -0.000001794822
 30      -0.000008548173
 31       0.000012130008
 32       0.046727669870
 33      -0.075781701125
 34       0.057466042721
 35       0.044083869547
 36      -0.071492776892
 37       0.054228406210
 38      -0.247157555791
 39      -0.116102947321
 40       0.079887284226
 41      -0.142820070351
 42      -0.087931185890
 Sym=     1a
 Ene= 1.86087075972498E+00
 Spin= Alpha
 Occup= 0.000000
  1       0.008482334476
  2       0.008572697487
  3      -0.680579103570
  4      -0.104511294441
  5       0.002248031891
  6       0.087905605246
  7      -0.262386207260
  8       0.005609732255
  9       0.220711150761
 10      -0.097670209325
 11       0.687069153496
 12      -0.164665548982
 13      -0.414654146190
 14      -0.108380256813
 15      -0.031506679926
 16      -0.205404182258
 17       0.504964128319
 18       0.092757909573
 19       0.045664776459
 20      -0.015200564350
 21      -0.112809426458
 22      -0.205022509742
 23      -0.178575451949
 24      -0.127344989248
 25      -0.020493179252
 26      -0.231048650877
 27       0.103689169005
 28       0.006855603353
 29      -0.031513093486
 30      -0.205435923332
 31       0.504981500217
 32       0.029673602455
 33      -0.048304737311
 34      -0.087801623996
 35       0.161771218168
 36       0.203963317920
 37       0.137437048559
 38       0.140309680656
 39      -0.069970509243
 40      -0.027089721872
 41      -0.061101800429
 42      -0.227513651920
 Sym=     1a
 Ene= 1.86569763499822E+00
 Spin= Alpha
 Occup= 0.000000
  1       0.000003326618
  2       0.000005251782
  3      -0.000158622942
  4       0.049654795033
  5      -0.080551898396
  6       0.061113760818
  7       0.057884336401
  8      -0.093937621235
  9       0.071304647438
 10      -0.528833695880
 11       0.114819318813
 12       0.394807828971
 13       0.284805529666
 14      -0.484856059356
 15      -0.000006121577
 16      -0.000040256586
 17       0.000098047552
 18      -0.013614671865
 19       0.022124116369
 20      -0.016778955282
 21      -0.045229182703
 22       0.073267107258
 23      -0.055631602682
 24      -0.176918901226
 25      -0.109533427811
 26       0.040827348930
 27      -0.145166491915
 28      -0.041332840363
 29      -0.000010527628
 30      -0.000063390417
 31       0.000137910049
 32      -0.013628554478
 33       0.022090826020
 34      -0.016791289747
 35      -0.045169825369
 36       0.073364277343
 37      -0.055558225327
 38       0.072102002138
 39       0.132220689572
 40       0.037370942846
 41       0.201631296265
 42      -0.054800698438
 Sym=     1a
 Ene= 2.18454699609489E+00
 Spin= Alpha
 Occup= 0.000000
  1      -0.000001943845
  2      -0.000009367694
  3      -0.000007124289
  4      -0.001907718627
  5      -0.002841417939
  6      -0.002201919216
  7      -0.825506854661
  8      -1.229586490796
  9      -0.950060907022
 10       0.452162610566
 11      -0.083495514814
 12       0.344481347559
 13      -0.278188439182
 14      -0.395851783163
 15       0.035887076834
 16       0.081180503467
 17       1.195328241890
 18      -0.118472567819
 19      -0.214930739652
 20      -0.187064075599
 21      -0.408730789531
 22      -0.178617995263
 23       0.096829431978
 24      -0.076177273837
 25      -0.267921996743
 26      -0.180694258101
 27       0.240144151892
 28       0.013664954436
 29      -0.035883907859
 30      -0.081164364847
 31      -1.195322630394
 32      -0.169396193163
 33      -0.213841070698
 34      -0.144222060944
 35       0.160745775228
 36      -0.190766620841
 37      -0.382250505587
 38      -0.158717477878
 39       0.311309734745
 40       0.001755419550
 41      -0.095636072467
 42       0.191981091462
 Sym=     1a
 Ene= 2.36122572257383E+00
 Spin= Alpha
 Occup= 0.000000
  1       0.012417201941
  2       0.303653299277
  3      -1.384616512182
  4       0.002525775942
  5      -0.000055027799
  6      -0.002121404926
  7      -0.521322460716
  8       0.011127672293
  9       0.438600557053
 10       0.008980006157
 11      -0.061934442134
 12      -0.588083750909
 13       0.011584461905
 14      -0.496581517099
 15       0.040273773516
 16       0.113612022498
 17       0.689490307843
 18      -0.249687010709
 19      -0.154728107468
 20      -0.000980558179
 21      -0.033313687788
 22      -0.185986822483
 23      -0.218169844351
 24       0.055070731610
 25       0.278418949854
 26      -0.084515230871
 27      -0.242399628684
 28      -0.205484826036
 29       0.040273789778
 30       0.113607731918
 31       0.689513609932
 32      -0.037813059745
 33       0.160855776398
 34       0.242858636290
 35       0.213834660926
 36       0.182154923738
 37       0.066292107861
 38      -0.139389620934
 39       0.314332632537
 40      -0.232669742974
 41      -0.122773183001
 42      -0.035260865511
 Sym=     1a
 Ene= 2.53036905654806E+00
 Spin= Alpha
 Occup= 0.000000
  1       0.000000798018
  2       0.000008943923
  3      -0.000048050554
  4       0.000005666452
  5      -0.000000848619
  6       0.000011485495
  7      -0.000029227257
  8      -0.000004430429
  9      -0.000000329967
 10       0.002193703947
 11       0.002161383632
 12      -0.000008946607
 13       0.003075593199
 14      -0.000169085580
 15       0.000005116544
 16       0.000027045549
 17       0.000006053468
 18       0.006374087361
 19      -0.010375857023
 20       0.007841699531
 21      -0.008452398966
 22       0.013725848350
 23      -0.010389269928
 24       0.550098593212
 25       0.095693483228
 26      -0.278564828889
 27       0.052897867996
 28       0.328867706452
 29      -0.000008797114
 30      -0.000046315767
 31       0.000058176815
 32      -0.006406192503
 33       0.010342239710
 34      -0.007863093805
 35       0.008490825539
 36      -0.013688814123
 37       0.010418607255
 38      -0.188480619801
 39       0.255486502726
 40       0.273219519725
 41       0.451011966923
 42      -0.348019283303
 Sym=     1a
 Ene= 2.53762418267748E+00
 Spin= Alpha
 Occup= 0.000000
  1       0.000001498278
  2       0.000019773618
  3       0.000001802913
  4       0.008994075253
  5       0.013411129905
  6       0.010355074177
  7      -0.021909395164
  8      -0.032645381163
  9      -0.025200057073
 10       0.017962154179
 11      -0.003303159187
 12       0.013624038843
 13      -0.011046854328
 14      -0.015728361384
 15       0.009127761737
 16       0.050319538695
 17      -0.022187118135
 18      -0.009071288078
 19      -0.030797604237
 20      -0.033223577865
 21      -0.000660668424
 22       0.034303575957
 23       0.045749769576
 24      -0.262888026714
 25       0.395217394919
 26      -0.506635799446
 27      -0.095595282632
 28      -0.089271620275
 29      -0.009117173163
 30      -0.050266219446
 31       0.022147707590
 32      -0.031942306693
 33      -0.030290837237
 34      -0.013951935770
 35       0.046033167112
 36       0.033290552613
 37       0.006439094099
 38      -0.161320142419
 39      -0.317125921429
 40       0.183780470478
 41       0.356273940122
 42       0.460328240709
 Sym=     1a
 Ene= 2.56736908104160E+00
 Spin= Alpha
 Occup= 0.000000
  1       0.000001092979
  2       0.000009419601
  3      -0.000017897733
  4      -0.027053287631
  5       0.043864488894
  6      -0.033262880171
  7       0.054185976645
  8      -0.087823768688
  9       0.066641128306
 10       0.083763265669
 11      -0.018169270126
 12      -0.062568768766
 13      -0.045132803646
 14       0.076811519697
 15      -0.000001222924
 16      -0.000005341843
 17      -0.000010642432
 18       0.018677727483
 19      -0.030279639671
 20       0.022965100204
 21      -0.038495219383
 22       0.062430087172
 23      -0.047344461010
 24      -0.421960064040
 25       0.096168597519
 26       0.318078809114
 27       0.235086767874
 28      -0.390764646106
 29      -0.000001624342
 30      -0.000004755948
 31       0.000034205708
 32       0.018679736485
 33      -0.030276907217
 34       0.022974995995
 35      -0.038505231235
 36       0.062433510766
 37      -0.047341414937
 38      -0.430051882655
 39       0.088608742018
 40       0.318192887472
 41       0.224058908068
 42      -0.390541801411
 Sym=     1a
 Ene= 2.66088322583998E+00
 Spin= Alpha
 Occup= 0.000000
  1       0.014056518523
  2       0.188830261597
  3      -0.128080151471
  4      -0.026757235864
  5       0.000566701591
  6       0.022514726507
  7      -0.092137326371
  8       0.001952435504
  9       0.077470480403
 10      -0.023112562908
 11       0.163168388837
 12      -0.372583531475
 13      -0.112738771452
 14      -0.305852764598
 15       0.032107425944
 16       0.171918213751
 17      -0.053327847195
 18      -0.120398851982
 19      -0.096511656860
 20      -0.029369553343
 21       0.097036104372
 22       0.054137919513
 23      -0.007494149544
 24       0.245072084903
 25      -0.428965330699
 26       0.367115154777
 27       0.126947434927
 28       0.004805230550
 29       0.032110057940
 30       0.171931417137
 31      -0.053393589016
 32       0.010771060359
 33       0.098855411386
 34       0.121580589564
 35       0.022604952319
 36      -0.056727439569
 37      -0.093160099325
 38      -0.132924454591
 39      -0.359115737607
 40       0.079034157199
 41       0.359520388854
 42       0.335751922856
 Sym=     1a
 Ene= 2.94467103508235E+00
 Spin= Alpha
 Occup= 0.000000
  1      -0.000003588605
  2      -0.000017778047
  3      -0.000031792477
  4       0.047735445540
  5      -0.077381568982
  6       0.058695092336
  7      -0.173570461472
  8       0.281405334164
  9      -0.213436425782
 10       0.320113119020
 11      -0.069411986052
 12      -0.239023386658
 13      -0.172451493430
 14       0.293499451871
 15      -0.000000011871
 16      -0.000010382557
 17       0.000053802459
 18      -0.023454358086
 19       0.038038731305
 20      -0.028847975036
 21       0.118499810634
 22      -0.192223968939
 23       0.145760590899
 24      -0.330726200117
 25      -0.351072493987
 26      -0.013811553775
 27      -0.509395616703
 28       0.042298003366
 29       0.000001040138
 30       0.000004794351
 31      -0.000004944358
 32      -0.023456322833
 33       0.038038912524
 34      -0.028841617098
 35       0.118534915578
 36      -0.192200328839
 37       0.145758323951
 38       0.381082389908
 39       0.340200277472
 40      -0.023815026206
 41       0.482268893892
 42       0.003907864687
 Sym=     1a
 Ene= 3.11131063791383E+00
 Spin= Alpha
 Occup= 0.000000
  1      -0.000002201310
  2      -0.000012554480
  3      -0.000019862439
  4       0.165499690249
  5       0.246515850093
  6       0.190472306481
  7      -0.359133702558
  8      -0.534936085041
  9      -0.413315662314
 10      -0.336572461076
 11       0.062124815107
 12      -0.256404631181
 13       0.207043846299
 14       0.294615772516
 15      -0.051061810540
 16      -0.391512175579
 17       0.976224736298
 18       0.131786876421
 19       0.109678526486
 20       0.037455493673
 21      -0.526087091979
 22      -0.318009195757
 23       0.008465253190
 24      -0.315828412636
 25      -0.203647443194
 26      -0.168258292159
 27       0.381795169272
 28       0.383682115926
 29       0.051065873421
 30       0.391523617695
 31      -0.976201559821
 32       0.017122224843
 33       0.112130246534
 34       0.133931970627
 35       0.090258472188
 36      -0.331140687469
 37      -0.510051723747
 38      -0.392438149982
 39       0.334384172738
 40      -0.371321341692
 41       0.053936373258
 42       0.236402852134
 Sym=     1a
 Ene= 3.26830781299956E+00
 Spin= Alpha
 Occup= 0.000000
  1       0.075431998439
  2       0.423761190682
  3       1.883262431404
  4      -0.172431647907
  5       0.003691529300
  6       0.145078371127
  7       0.720080186442
  8      -0.015397556428
  9      -0.605839706066
 10       0.060835088972
 11      -0.426877032480
 12      -0.002397334811
 13       0.253132095522
 14      -0.020510944981
 15       0.042350290125
 16       0.417103774249
 17      -1.434429780217
 18      -0.062979972084
 19      -0.064453518853
 20      -0.033772873833
 21       0.393716364043
 22       0.595775474956
 23       0.465418569457
 24      -0.055884091260
 25      -0.377769638564
 26      -0.505370861277
 27       0.287894652061
 28      -0.270785865868
 29       0.042348725949
 30       0.417108954442
 31      -1.434520499904
 32       0.024119266523
 33       0.065275851681
 34       0.066459171893
 35      -0.406053656724
 36      -0.595546773558
 37      -0.455075436382
 38       0.169689351964
 39      -0.419417172936
 40      -0.333572070748
 41       0.149130040684
 42      -0.468247055821
 Sym=     1a
 Ene= 3.35099744943942E+00
 Spin= Alpha
 Occup= 0.000000
  1       0.000001824422
  2       0.000011986391
  3       0.000085786673
  4      -0.000004176830
  5       0.000001573860
  6       0.000010024173
  7       0.000028696012
  8      -0.000002108880
  9      -0.000036107109
 10      -0.428194453873
 11      -0.415889347138
 12       0.006038770467
 13      -0.596597207761
 14       0.023048634785
 15       0.000006065634
 16       0.000037848621
 17      -0.000068411339
 18       0.012372314146
 19      -0.020097527232
 20       0.015226739388
 21       0.074993574001
 22      -0.121548621373
 23       0.092220586125
 24      -0.099533843861
 25      -0.341435154961
 26      -0.149567423922
 27      -0.536745248834
 28       0.205376406025
 29      -0.000001122029
 30       0.000004594061
 31      -0.000061148704
 32      -0.012386757732
 33       0.020079698723
 34      -0.015235454736
 35      -0.074994959331
 36       0.121545254458
 37      -0.092212715599
 38      -0.511610089041
 39      -0.252124670157
 40       0.158130643663
 41      -0.314712383219
 42      -0.172477492988
 Sym=     1a
 Ene= 3.57720203045404E+00
 Spin= Alpha
 Occup= 0.000000
  1      -0.000006830131
  2      -0.000040732005
  3      -0.000092885487
  4       0.339613685596
  5       0.505841208235
  6       0.390837196044
  7      -0.717149423742
  8      -1.068158143112
  9      -0.825313358074
 10       0.519800744096
 11      -0.095964010740
 12       0.395992539246
 13      -0.319789514986
 14      -0.455075824170
 15       0.012958623473
 16      -0.178834548278
 17       1.634713857289
 18      -0.098930617845
 19      -0.113665740485
 20      -0.069441678089
 21      -0.694771119779
 22      -0.573517720305
 23      -0.191286855299
 24      -0.234020766402
 25       0.387122823997
 26       0.352798352814
 27      -0.075472451188
 28       0.589742165926
 29      -0.012957483761
 30       0.178819004223
 31      -1.634575063933
 32      -0.054330999367
 33      -0.114612492509
 34      -0.106944199202
 35      -0.084032674781
 36      -0.586498013127
 37      -0.705009920026
 38      -0.133108646694
 39      -0.319293608339
 40      -0.632469702090
 41       0.301362413633
 42      -0.268292891984
 Sym=     1a
 Ene= 3.75164317823107E+00
 Spin= Alpha
 Occup= 0.000000
  1      -0.172682858507
  2      -0.803521099295
  3      -1.957856382894
  4       0.207037125027
  5      -0.004424702577
  6      -0.174183743964
  7      -0.370722247416
  8       0.007948362460
  9       0.311939363497
 10       0.063187917955
 11      -0.442320213972
 12      -0.709482449846
 13       0.232025057092
 14      -0.614977617688
 15       0.030287091167
 16      -0.101825028542
 17       1.395484872263
 18      -0.202702708017
 19      -0.151462160239
 20      -0.034896384544
 21      -0.607732075752
 22      -0.527791892105
 23      -0.201769840580
 24      -0.424123951127
 25       0.100431737093
 26       0.034478515020
 27       0.260610325455
 28       0.667563158093
 29       0.030283477478
 30      -0.101858624020
 31       1.395604022000
 32       0.003528425690
 33       0.155711882972
 34       0.202450761744
 35       0.108108764258
 36       0.538495601136
 37       0.622137468169
 38       0.417462298920
 39      -0.054951188483
 40       0.675676159500
 41      -0.257200157454
 42      -0.069210272570
 Sym=     1a
 Ene= -1.92323990366964E+01
 Spin=Beta
 Occup= 1.000000
  1       0.000043624631
  2       0.000139674436
  3      -0.001554485747
  4       0.000788129848
  5       0.001254362211
  6       0.001013629700
  7       0.005912889992
  8       0.009368105623
  9       0.007546103494
 10       0.000872940750
 11      -0.000098920245
 12       0.000767634574
 13      -0.000576696813
 14      -0.000689283380
 15      -0.644434412152
 16       0.026128777430
 17      -0.019810165412
 18      -0.001430347655
 19      -0.001309851680
 20      -0.000563694742
 21       0.005237861605
 22       0.003652203115
 23       0.000555905772
 24       0.000059102495
 25       0.000351944000
 26       0.000209984845
 27      -0.000284878071
 28       0.000022210130
 29       0.750124429886
 30      -0.030425961819
 31       0.022925775619
 32      -0.000389726537
 33      -0.001543821465
 34      -0.001718969725
 35       0.000056566456
 36       0.004442634368
 37       0.005811537618
 38       0.000122254596
 39      -0.000360153235
 40      -0.000081943827
 41       0.000155105850
 42      -0.000195608273
 Sym=     1a
 Ene= -1.92323817641663E+01
 Spin=Beta
 Occup= 1.000000
  1       0.000576095835
  2       0.001844133655
  3      -0.020480153618
  4      -0.000772981286
  5      -0.000080241309
  6       0.000523248628
  7      -0.005381890418
  8      -0.000603286080
  9       0.003582503134
 10      -0.000188054870
 11       0.000859453107
 12       0.001212143919
 13      -0.000407238996
 14       0.001156106180
 15       0.750121455469
 16      -0.030487668091
 17       0.022152417718
 18       0.001665544564
 19       0.001472993811
 20       0.000587643607
 21      -0.004285634841
 22      -0.004698498537
 23      -0.002710783879
 24       0.000234645766
 25       0.000092540988
 26       0.000093904097
 27      -0.000243435191
 28      -0.000300624354
 29       0.644430851289
 30      -0.026202345635
 31       0.018918856337
 32      -0.000275548215
 33      -0.001283381507
 34      -0.001468094064
 35       0.002069707295
 36       0.004125835068
 37       0.003756208888
 38      -0.000296052880
 39       0.000244105279
 40      -0.000284032592
 41       0.000046402950
 42       0.000175343873
 Sym=     1a
 Ene= -1.45545607743071E+01
 Spin=Beta
 Occup= 1.000000
  1       0.988948313090
  2      -0.039512801812
  3       0.005569694983
  4       0.002063473608
  5      -0.000043850568
  6      -0.001735419989
  7      -0.001202660837
  8       0.000025441663
  9       0.001011315850
 10       0.000162979808
 11      -0.001139411455
 12      -0.002242522448
 13       0.000579712868
 14      -0.001932669061
 15       0.000274975680
 16       0.000782730711
 17       0.003643544977
 18      -0.001369869106
 19      -0.001151944368
 20      -0.000405312867
 21      -0.003146029233
 22      -0.002827188157
 23      -0.001169502980
 24      -0.001047692263
 25       0.000661069167
 26       0.000555287097
 27       0.000373345054
 28       0.001970572770
 29       0.000274932191
 30       0.000782549429
 31       0.003642872735
 32       0.000193790352
 33       0.001176983100
 34       0.001394407421
 35       0.000685176933
 36       0.002879359046
 37       0.003239531284
 38       0.000910289123
 39       0.000299479909
 40       0.002047024656
 41      -0.000831417484
 42       0.000255831437
 Sym=     1a
 Ene= -1.25823840525329E+00
 Spin=Beta
 Occup= 1.000000
  1      -0.210628895945
  2      -0.437578890696
  3      -0.086751019251
  4       0.095411409043
  5      -0.002028299972
  6      -0.080259949274
  7      -0.014773845768
  8       0.000309529488
  9       0.012418128433
 10       0.001159139938
 11      -0.008097564693
 12      -0.018015096847
 13       0.004032227075
 14      -0.015481753806
 15      -0.149747896473
 16      -0.298352132108
 17      -0.136705684625
 18       0.091989062354
 19       0.092284735226
 20       0.046890457367
 21       0.023957868273
 22       0.023544774877
 23       0.011561366207
 24       0.004919099412
 25      -0.007280975760
 26      -0.005140650800
 27       0.001079913172
 28      -0.010638904062
 29      -0.149738452716
 30      -0.298330681178
 31      -0.136713161766
 32      -0.032772752137
 33      -0.093544151320
 34      -0.096695727196
 35      -0.007884326852
 36      -0.023891122914
 37      -0.025089330337
 38      -0.003050374262
 39      -0.005808689006
 40      -0.011212763574
 41       0.005983796915
 42      -0.003660486204
 Sym=     1a
 Ene= -1.10964788754817E+00
 Spin=Beta
 Occup= 1.000000
  1      -0.000004696424
  2      -0.000010709556
  3       0.000001778191
  4      -0.158957898984
  5      -0.236771427408
  6      -0.182946290061
  7       0.021459405258
  8       0.031969276654
  9       0.024700355605
 10      -0.016479504107
 11       0.003042698166
 12      -0.012555119185
 13       0.010139294824
 14       0.014427115862
 15       0.187174843832
 16       0.380564612301
 17       0.203525618707
 18      -0.101913376841
 19      -0.085584404812
 20      -0.029987603187
 21      -0.030594912582
 22      -0.025916346513
 23      -0.009290054184
 24      -0.006050080013
 25       0.004817270143
 26       0.001393412147
 27       0.001374546926
 28       0.009680359630
 29      -0.187182392155
 30      -0.380578527847
 31      -0.203539191066
 32      -0.014262606409
 33      -0.087460677563
 34      -0.103724845552
 35      -0.004573692372
 36      -0.026472980645
 37      -0.031187291664
 38      -0.004965100233
 39      -0.002783009477
 40      -0.009786686130
 41       0.005403788593
 42      -0.000035873572
 Sym=     1a
 Ene= -6.25971808803868E-01
 Spin=Beta
 Occup= 1.000000
  1       0.172510126678
  2       0.413513459736
  3       0.181467046807
  4       0.001007219448
  5      -0.000024606731
  6      -0.000845364829
  7      -0.017924103649
  8       0.000381039807
  9       0.015062655825
 10      -0.000724387230
 11       0.005086703396
 12       0.000880778081
 13      -0.002980526119
 14       0.000960911560
 15      -0.154433514493
 16      -0.319168191230
 17      -0.320738195047
 18      -0.188086989785
 19      -0.158072151268
 20      -0.055491156172
 21      -0.090272051175
 22      -0.075466339659
 23      -0.026105513675
 24      -0.005270439573
 25       0.001992240336
 26       0.003637723131
 27       0.002849906766
 28       0.010857227256
 29      -0.154430723845
 30      -0.319160611563
 31      -0.320748409393
 32       0.026476807268
 33       0.161516667646
 34       0.191442830920
 35       0.012180058113
 36       0.077123677513
 37       0.091794214912
 38       0.004967158675
 39       0.000102272197
 40       0.011436342061
 41      -0.003447959896
 42       0.001895727928
 Sym=     1a
 Ene= -5.60215591494796E-01
 Spin=Beta
 Occup= 1.000000
  1       0.000003147169
  2       0.000004494262
  3       0.000010085991
  4      -0.201649204805
  5       0.327024747057
  6      -0.248010564923
  7       0.106352609498
  8      -0.172465202329
  9       0.130794841142
 10      -0.016056105707
 11       0.003482786057
 12       0.011988627533
 13       0.008650569136
 14      -0.014720428671
 15       0.000001700088
 16      -0.000000334923
 17       0.000010452752
 18       0.137634901178
 19      -0.223172542900
 20       0.169264787122
 21       0.074546874144
 22      -0.120882982262
 23       0.091680691888
 24      -0.006873981117
 25      -0.012934227546
 26      -0.003762348598
 27      -0.019753829729
 28       0.005485161063
 29      -0.000003550704
 30      -0.000005376827
 31      -0.000013996138
 32       0.137613582945
 33      -0.223166661758
 34       0.169260187361
 35       0.074533055318
 36      -0.120879901532
 37       0.091678042277
 38       0.017411072392
 39       0.010646756200
 40      -0.004103976937
 41       0.014076347692
 42       0.004176617952
 Sym=     1a
 Ene= -5.44558609955822E-01
 Spin=Beta
 Occup= 1.000000
  1      -0.000006229848
  2      -0.000013286706
  3      -0.000021881399
  4      -0.169932849439
  5      -0.253066433962
  6      -0.195529680261
  7       0.041186183551
  8       0.061318591387
  9       0.047379403101
 10      -0.006932182386
 11       0.001277683762
 12      -0.005281598068
 13       0.004266828643
 14       0.006067077413
 15      -0.107646816091
 16      -0.213121999257
 17      -0.275521145491
 18      -0.282378613297
 19      -0.214790728072
 20      -0.053590116294
 21      -0.142548667000
 22      -0.105555528286
 23      -0.023264217310
 24      -0.008197987545
 25       0.001538409956
 26       0.002302068984
 27       0.005388513908
 28       0.014346840985
 29       0.107647727392
 30       0.213122402309
 31       0.275529784948
 32      -0.009876400099
 33      -0.220586764740
 34      -0.282818012728
 35      -0.001181193425
 36      -0.108559530709
 37      -0.142178385126
 38      -0.008185915654
 39       0.001488597593
 40      -0.014782027088
 41       0.004689719197
 42      -0.000003447913
 Sym=     1a
 Ene= -5.33912444580581E-01
 Spin=Beta
 Occup= 1.000000
  1      -0.056380636489
  2      -0.114145247525
  3      -0.098365434377
  4      -0.328565838626
  5       0.007036234081
  6       0.276424591599
  7       0.178653145469
  8      -0.003827651093
  9      -0.150297593563
 10       0.004562706492
 11      -0.032017851974
 12      -0.008157699469
 13       0.018643636957
 14      -0.008238301509
 15      -0.016244518108
 16      -0.026023529791
 17      -0.075430121417
 18       0.099828802917
 19      -0.138554054248
 20      -0.263847834847
 21       0.069709489657
 22      -0.066644979365
 23      -0.144546976771
 24       0.006704632700
 25       0.010827728578
 26       0.015552982033
 27      -0.012173985375
 28       0.000762199317
 29      -0.016260246471
 30      -0.026058807949
 31      -0.075466823540
 32       0.280410416356
 33       0.130458536718
 34      -0.055983060516
 35       0.155958957698
 36       0.061843981489
 37      -0.045271193174
 38      -0.010237981652
 39       0.013956531380
 40       0.002648011276
 41      -0.001749626883
 42       0.015595867909
 Sym=     1a
 Ene= -3.70121813609556E-01
 Spin=Beta
 Occup= 1.000000
  1      -0.000001633464
  2      -0.000001060306
  3      -0.000001320820
  4      -0.000011122239
  5       0.000007265551
  6       0.000000887482
  7       0.000006689571
  8      -0.000011869052
  9      -0.000001006846
 10      -0.025407436410
 11      -0.024670576194
 12       0.000356675178
 13      -0.035391753576
 14       0.001370384079
 15       0.000001724846
 16       0.000009387563
 17      -0.000008155239
 18      -0.209557215781
 19       0.339812922315
 20      -0.257748859877
 21      -0.148371476370
 22       0.240608022648
 23      -0.182494741482
 24       0.004767035970
 25       0.009597314671
 26       0.002995830469
 27       0.014717849279
 28      -0.004317967673
 29       0.000000407939
 30      -0.000000074932
 31      -0.000002811340
 32       0.209540401048
 33      -0.339842477180
 34       0.257733862624
 35       0.148358812001
 36      -0.240622295384
 37       0.182484669854
 38       0.013131746176
 39       0.007780193527
 40      -0.003248244636
 41       0.010212111199
 42       0.003353497459
 Sym=     1a
 Ene= -3.41258675680310E-01
 Spin=Beta
 Occup= 1.000000
  1       0.000002116818
  2       0.000001242456
  3      -0.000001780256
  4      -0.001866133116
  5      -0.002783193542
  6      -0.002165778822
  7       0.076374719453
  8       0.113770620862
  9       0.087920232850
 10       0.025022268195
 11      -0.004621711995
 12       0.019063649304
 13      -0.015398304130
 14      -0.021908737990
 15      -0.006339130519
 16      -0.014378236726
 17      -0.104717130831
 18      -0.182995130420
 19       0.191496216788
 20       0.401249136354
 21      -0.096800484797
 22       0.154678301542
 23       0.282624630576
 24      -0.005849432692
 25      -0.008836292206
 26      -0.011432867936
 27       0.010282145421
 28       0.001018533191
 29       0.006336767032
 30       0.014363632455
 31       0.104741598059
 32       0.431305201274
 33       0.178341435165
 34      -0.115495389126
 35       0.298818150209
 36       0.146217116507
 37      -0.050146335139
 38      -0.008752358258
 39       0.011533599316
 40       0.000311276347
 41      -0.001297925291
 42       0.011764879183
 Sym=     1a
 Ene= -1.36521930265733E-01
 Spin=Beta
 Occup= 0.000000
  1      -0.086418011453
  2      -0.144760594994
  3      -0.636731198958
  4      -0.317645976294
  5       0.006776856882
  6       0.267223550286
  7       0.184579822933
  8      -0.003926997813
  9      -0.155260257184
 10      -0.001639009435
 11       0.011477796473
 12       0.021931761877
 13      -0.005868934476
 14       0.018913896573
 15       0.031152742224
 16       0.081969952044
 17       0.131900317005
 18      -0.317303267850
 19      -0.027019988838
 20       0.222385997579
 21      -0.285905807426
 22      -0.031752699134
 23       0.190617952855
 24      -0.002445522787
 25       0.004211601947
 26       0.002392306376
 27      -0.000961232497
 28       0.005044815798
 29       0.031154131935
 30       0.081977674912
 31       0.131916934864
 32      -0.272558424561
 33       0.039624864114
 34       0.273860170275
 35      -0.235788417650
 36       0.042899758327
 37       0.248288096412
 38       0.001343003066
 39       0.003511356482
 40       0.005276538928
 41      -0.003291319089
 42       0.001729136410
 Sym=     1a
 Ene= -6.84463955793688E-02
 Spin=Beta
 Occup= 0.000000
  1       0.000000278415
  2       0.000004938457
  3      -0.000026936960
  4      -0.249534320113
  5       0.404658674058
  6      -0.306893860235
  7       0.216732201086
  8      -0.351469815410
  9       0.266559947334
 10       0.000782932017
 11      -0.000168862763
 12      -0.000584562962
 13      -0.000421147468
 14       0.000719539918
 15       0.000001868072
 16       0.000008308709
 17       0.000005217735
 18      -0.169176064322
 19       0.274325637742
 20      -0.208057701182
 21      -0.161032807252
 22       0.261123297206
 23      -0.198044479863
 24      -0.001015527210
 25      -0.005192827544
 26      -0.002581149424
 27      -0.008256757841
 28       0.003490956461
 29       0.000000249463
 30       0.000002083452
 31       0.000009269578
 32      -0.169176700105
 33       0.274337932241
 34      -0.208051948389
 35      -0.161026624265
 36       0.261136661854
 37      -0.198034767315
 38       0.008097365374
 39       0.003659320829
 40      -0.002707946773
 41       0.004442030508
 42       0.002999339752
 Sym=     1a
 Ene= 2.37967506084199E-01
 Spin=Beta
 Occup= 0.000000
  1       0.124827759736
  2       0.211106115493
  3       2.266473793440
  4      -0.320779607437
  5       0.006856194356
  6       0.269861565749
  7       0.715006745556
  8      -0.015285683489
  9      -0.601540041139
 10       0.002186082673
 11      -0.015260240412
 12      -0.042617515514
 13       0.007227753891
 14      -0.036451003446
 15      -0.111361758476
 16      -0.264289631608
 17      -1.018738862580
 18       0.154057450270
 19       0.256466680451
 20       0.212899235947
 21       0.393227473979
 22       0.545637882891
 23       0.399695980410
 24       0.005014376984
 25       0.009293277079
 26       0.006788852858
 27      -0.010154969915
 28      -0.003709612442
 29      -0.111363188759
 30      -0.264287878483
 31      -1.018786222164
 32      -0.189788364491
 33      -0.255702544139
 34      -0.182849704519
 35      -0.340162418374
 36      -0.546777543278
 37      -0.444383332900
 38      -0.008005480941
 39       0.011699280731
 40      -0.003132807248
 41      -0.002141348481
 42       0.007690386143
 Sym=     1a
 Ene= 4.35416306274881E-01
 Spin=Beta
 Occup= 0.000000
  1      -0.000004922631
  2      -0.000034020736
  3       0.000116328302
  4      -0.267219237015
  5      -0.398015886174
  6      -0.307535835578
  7       1.208491070360
  8       1.800034709234
  9       1.390821105245
 10       0.020456285329
 11      -0.003776711838
 12       0.015584850809
 13      -0.012585860421
 14      -0.017910676374
 15      -0.116403008364
 16      -0.278402550163
 17      -1.709443924308
 18       0.246115834132
 19       0.106612384232
 20      -0.059538707659
 21       0.923881494768
 22       0.619338651780
 23       0.065384120639
 24      -0.007748589327
 25      -0.011431214149
 26      -0.006095790771
 27       0.013810405459
 28       0.008901020549
 29       0.116396603356
 30       0.278385531997
 31       1.709361720571
 32      -0.098034179542
 33       0.113960778094
 34       0.229974326109
 35      -0.077941479839
 36       0.640680954313
 37       0.908175862330
 38      -0.011510198854
 39       0.014983840936
 40      -0.008579128474
 41      -0.001961553223
 42       0.007957692262
 Sym=     1a
 Ene= 4.95491184352166E-01
 Spin=Beta
 Occup= 0.000000
  1       0.302907250695
  2       1.653177195757
  3      -2.364677521904
  4      -0.011770945983
  5       0.000255876890
  6       0.009865685001
  7      -0.255324854402
  8       0.005518046034
  9       0.214821006401
 10       0.001389562686
 11      -0.009712645601
 12      -0.020368834170
 13       0.004886996309
 14      -0.017525263612
 15       0.022838243986
 16       0.111708209356
 17       0.533691924652
 18       0.165751031032
 19       0.128320655149
 20       0.034433203157
 21      -0.092210462254
 22      -0.132367860751
 23      -0.099543767954
 24      -0.024418555703
 25       0.017052471955
 26       0.017606376940
 27       0.007735340538
 28       0.049549975900
 29       0.022845953833
 30       0.111732337894
 31       0.533763608998
 32      -0.008808681263
 33      -0.131669494194
 34      -0.166451285282
 35       0.085610626746
 36       0.132534786184
 37       0.105162719091
 38       0.020728337487
 39       0.008718546919
 40       0.052001809877
 41      -0.020041769736
 42       0.010022940768
 Sym=     1a
 Ene= 6.56544452244007E-01
 Spin=Beta
 Occup= 0.000000
  1      -0.000005655961
  2      -0.000033813355
  3       0.000025469349
  4      -0.387750028404
  5       0.629120199660
  6      -0.476996738827
  7      -0.508592144804
  8       0.825499445356
  9      -0.625664650916
 10      -0.024057585799
 11       0.005223162866
 12       0.017954999498
 13       0.012959852702
 14      -0.022049655511
 15      -0.000007757526
 16      -0.000053704274
 17      -0.000190933126
 18       0.106059618880
 19      -0.172079832799
 20       0.130458462345
 21       0.012812877972
 22      -0.020652124250
 23       0.015699739815
 24      -0.008534081818
 25      -0.015286484453
 26      -0.004190365311
 27      -0.023259139041
 28       0.006153451661
 29      -0.000003283313
 30      -0.000023229212
 31       0.000232017115
 32       0.106051551194
 33      -0.172071222714
 34       0.130480958871
 35       0.012752775590
 36      -0.020653019110
 37       0.015750130728
 38       0.020306352375
 39       0.012726660383
 40      -0.004582821171
 41       0.016916679558
 42       0.004614663375
 Sym=     1a
 Ene= 6.74124774677683E-01
 Spin=Beta
 Occup= 0.000000
  1      -0.000006262491
  2      -0.000013915245
  3      -0.000115821484
  4       0.421004536590
  5       0.627125267460
  6       0.484871688277
  7       1.042601620729
  8       1.553080486274
  9       1.200444514273
 10      -0.018195382715
 11       0.003346823547
 12      -0.013872061542
 13       0.011202041695
 14       0.015938009967
 15      -0.024239626231
 16      -0.161435300719
 17      -0.986543308996
 18      -0.078503285041
 19      -0.177726277003
 20      -0.170601708403
 21       0.279820792975
 22       0.197729530251
 23       0.033197372499
 24       0.038058141034
 25      -0.024170125205
 26      -0.017114245247
 27      -0.013303566887
 28      -0.068982371045
 29       0.024254575696
 30       0.161511229256
 31       0.986675866881
 32      -0.158974618690
 33      -0.175996494473
 34      -0.102899049728
 35      -0.010118819602
 36       0.203971467339
 37       0.277203299457
 38       0.033008938130
 39       0.011058330930
 40       0.071273461018
 41      -0.030426920044
 42       0.006769475899
 Sym=     1a
 Ene= 6.81848328781350E-01
 Spin=Beta
 Occup= 0.000000
  1       0.025051958774
  2       0.063491510695
  3       0.481729356693
  4       0.661774573174
  5      -0.014021315892
  6      -0.556443079517
  7       1.014134332008
  8      -0.021361600782
  9      -0.852601785984
 10      -0.007248415912
 11       0.050856848566
 12       0.013453697929
 13      -0.029591529479
 14       0.013507912529
 15      -0.028597627902
 16      -0.142333834244
 17      -0.289927515575
 18      -0.174325520420
 19       0.022165142831
 20       0.170916774485
 21       0.084945988662
 22       0.110924587849
 23       0.077206555362
 24       0.003222687237
 25      -0.020003362985
 26      -0.026864459129
 27       0.010433232733
 28      -0.023997722794
 29      -0.028581099813
 30      -0.142214576884
 31      -0.289559362255
 32      -0.198787827517
 33      -0.014257016641
 34       0.142802007297
 35      -0.064306679411
 36      -0.111297465786
 37      -0.094468568095
 38       0.002483861141
 39      -0.019862330471
 40      -0.027405882105
 41       0.010879027804
 42      -0.023331779722
 Sym=     1a
 Ene= 8.48696361453309E-01
 Spin=Beta
 Occup= 0.000000
  1      -0.034833909531
  2      -0.441757014349
  3      -0.746934559623
  4       0.010518354318
  5      -0.000217932653
  6      -0.008846812467
  7      -0.251387654481
  8       0.005402747859
  9       0.211552196379
 10       0.004933815653
 11      -0.034457613566
 12      -0.081248869831
 13       0.016960529221
 14      -0.069732312520
 15       0.096068192326
 16       0.396704302859
 17       0.062309297004
 18       0.284423171302
 19       0.393289782882
 20       0.287357754592
 21      -0.573032984810
 22      -0.678521783733
 23      -0.428795750818
 24       0.007036486770
 25       0.000587247999
 26       0.005136121938
 27      -0.005668072664
 28      -0.006685283041
 29       0.096058694631
 30       0.396655236888
 31       0.062422121532
 32      -0.244233025347
 33      -0.394130577386
 34      -0.321091780533
 35       0.341338380427
 36       0.683454491235
 37       0.623624291737
 38      -0.007590514612
 39       0.003291935721
 40      -0.006007252662
 41       0.003330919682
 42       0.006121222647
 Sym=     1a
 Ene= 8.79179147219040E-01
 Spin=Beta
 Occup= 0.000000
  1       0.000003850453
  2       0.000035978970
  3      -0.000006556534
  4       0.019714714658
  5       0.029380891230
  6       0.022706735982
  7       0.234916243153
  8       0.349983053469
  9       0.270421496733
 10       0.046936802544
 11      -0.008661935477
 12       0.035764697117
 13      -0.028876820312
 14      -0.041085383237
 15       0.114131349186
 16       0.579231111722
 17      -0.829304281614
 18       0.482141801676
 19       0.290184380969
 20      -0.009371396354
 21      -0.441223245959
 22      -0.314771292194
 23      -0.056318755934
 24       0.001064403101
 25      -0.011513352451
 26      -0.009231708882
 27       0.006885192438
 28      -0.007354954661
 29      -0.114140394323
 30      -0.579268851906
 31       0.829341394260
 32      -0.084422703005
 33       0.302355837042
 34       0.467204585857
 35       0.012148370095
 36      -0.324551384240
 37      -0.437666112817
 38      -0.002251750788
 39       0.011727768424
 40       0.008326886250
 41      -0.006154135308
 42       0.008398725180
 Sym=     1a
 Ene= 9.16900197694991E-01
 Spin=Beta
 Occup= 0.000000
  1       0.000001335719
  2       0.000045392257
  3      -0.000310308859
  4      -0.000047582709
  5      -0.000000701180
  6       0.000038028180
  7      -0.000294500782
  8      -0.000078870663
  9       0.000132164183
 10       0.024792121699
 11       0.024081017834
 12      -0.000338353574
 13       0.034548352812
 14      -0.001324079651
 15      -0.000017790053
 16      -0.000115925320
 17       0.000365479686
 18       0.294005497799
 19      -0.476961803649
 20       0.361813727271
 21      -0.353611824227
 22       0.573484746125
 23      -0.435171365855
 24      -0.009699676612
 25      -0.010430686573
 26      -0.000479012470
 27      -0.015146412446
 28       0.001358026322
 29      -0.000002240359
 30      -0.000018895000
 31       0.000109491335
 32      -0.294239137744
 33       0.476928247736
 34      -0.361677018815
 35       0.353923653279
 36      -0.573487274043
 37       0.434925470212
 38      -0.011395707903
 39      -0.010058705663
 40       0.000789224881
 41      -0.014229942959
 42      -0.000220375149
 Sym=     1a
 Ene= 9.51324067807960E-01
 Spin=Beta
 Occup= 0.000000
  1       0.006231554471
  2       0.188036206885
  3      -0.762461032300
  4      -0.226224677777
  5       0.004883125573
  6       0.190285419649
  7      -0.917647279104
  8       0.019832745968
  9       0.771957229449
 10      -0.001458237114
 11       0.010078192265
 12       0.063430350774
 13      -0.003276878898
 14       0.053697865537
 15      -0.017325938043
 16      -0.099202822490
 17       0.563350266346
 18      -0.396691792935
 19       0.090171199372
 20       0.440970390835
 21       0.527799881736
 22      -0.271031153351
 23      -0.785854336833
 24      -0.010707540644
 25      -0.014081054646
 26       0.001077291955
 27       0.018293923190
 28       0.019961102610
 29      -0.017317142066
 30      -0.099162401572
 31       0.563486260976
 32      -0.504306797230
 33      -0.070751190832
 34       0.316844657227
 35       0.870926284609
 36       0.240890283983
 37      -0.390523342836
 38       0.015391849281
 39      -0.018900269630
 40       0.020963955566
 41       0.002225914772
 42      -0.002880769885
 Sym=     1a
 Ene= 9.77891120652260E-01
 Spin=Beta
 Occup= 0.000000
  1      -0.000003047691
  2      -0.000051105550
  3       0.000095481866
  4      -0.130377417941
  5       0.211418662894
  6      -0.160414015632
  7      -0.459468144244
  8       0.745086897542
  9      -0.565365453971
 10      -0.013154598273
 11       0.002848944716
 12       0.009783701091
 13       0.007088823654
 14      -0.012049976474
 15       0.000003183035
 16       0.000024990285
 17      -0.000020625649
 18      -0.271559460384
 19       0.440467047733
 20      -0.334254269327
 21       0.453338550298
 22      -0.735285817323
 23       0.557978326435
 24      -0.001193312920
 25       0.013702563017
 26       0.009181144625
 27       0.022479807810
 28      -0.012078668882
 29       0.000002785426
 30      -0.000000544180
 31      -0.000123699654
 32      -0.271656252476
 33       0.440478119347
 34      -0.334150930648
 35       0.453478208749
 36      -0.735334048127
 37       0.557786782515
 38      -0.023815374457
 39      -0.008266900441
 40       0.009488549974
 41      -0.009011351552
 42      -0.010868703793
 Sym=     1a
 Ene= 1.01387593899750E+00
 Spin=Beta
 Occup= 0.000000
  1       0.000000540349
  2      -0.000008694450
  3       0.000056539259
  4       0.076340205572
  5       0.113730053694
  6       0.087798406742
  7       0.557775220732
  8       0.830875681033
  9       0.641711392168
 10       0.067345976539
 11      -0.012433195671
 12       0.051305499497
 13      -0.041435025257
 14      -0.058970153718
 15      -0.003088882379
 16      -0.020950554567
 17      -0.611398700903
 18      -0.235522520669
 19       0.246751109690
 20       0.516693168440
 21       0.510869665779
 22      -0.255766588441
 23      -0.752355302931
 24      -0.011491881798
 25      -0.029605799273
 26      -0.043949307111
 27       0.027906307117
 28      -0.013875122758
 29       0.003083352960
 30       0.020918677939
 31       0.611341094713
 32       0.555484330434
 33       0.229933110548
 34      -0.148704948376
 35      -0.834953659942
 36      -0.227143499512
 37       0.379754307994
 38      -0.020793653276
 39       0.035571901158
 40       0.019365862121
 41      -0.008049550557
 42       0.042123096536
 Sym=     1a
 Ene= 1.26349797727209E+00
 Spin=Beta
 Occup= 0.000000
  1       0.022093968861
  2       0.062727417120
  3      -5.266256138175
  4      -0.047992838500
  5       0.001006304344
  6       0.040378529299
  7      -1.339406864649
  8       0.028127210857
  9       1.126253087020
 10       0.019712793406
 11      -0.138109698247
 12      -0.098087717271
 13       0.077712727125
 14      -0.088371571741
 15      -0.186479626277
 16      -1.370388923765
 17       3.828608036774
 18       0.154174722120
 19       0.133727110183
 20       0.050931527295
 21      -1.130993438415
 22      -1.229109972121
 23      -0.701006682202
 24       0.018665331050
 25      -0.035201340853
 26       0.014907143785
 27       0.010889075171
 28      -0.010142054519
 29      -0.186426593034
 30      -1.370004188873
 31       3.827326825329
 32      -0.027192194681
 33      -0.136386030705
 34      -0.157686616117
 35       0.528017956980
 36       1.241632399820
 37       1.207785733337
 38      -0.009377664466
 39      -0.030028856062
 40      -0.006456032340
 41       0.028151694772
 42       0.014430436449
 Sym=     1a
 Ene= 1.31913626808258E+00
 Spin=Beta
 Occup= 0.000000
  1       0.000004668676
  2       0.000022831178
  3      -0.000717885587
  4       0.039769324865
  5       0.059217450470
  6       0.045764946805
  7       1.838954471170
  8       2.739352722484
  9       2.116785892188
 10      -0.088041764263
 11       0.016230041651
 12      -0.067093298524
 13       0.054178675139
 14       0.077072551068
 15       0.183242738449
 16       1.296096447770
 17      -4.103052721280
 18      -0.292318694563
 19      -0.199623270292
 20      -0.025487362643
 21       1.657252406809
 22       1.142923011765
 23       0.159418097108
 24      -0.017936571112
 25      -0.011427444498
 26       0.015304908172
 27       0.022654028469
 28       0.042635802783
 29      -0.183299257305
 30      -1.296497245245
 31       4.104101542281
 32       0.019832009840
 33      -0.206310728268
 34      -0.288156479607
 35      -0.097391834173
 36       1.180696856500
 37       1.636012438172
 38      -0.022238713405
 39       0.018834631543
 40      -0.045922889257
 41       0.002080752747
 42      -0.007444263395
 Sym=     1a
 Ene= 1.74965038667392E+00
 Spin=Beta
 Occup= 0.000000
  1      -0.000000567732
  2      -0.000001038195
  3      -0.000030216197
  4      -0.000006727470
  5      -0.000001068084
  6      -0.000001019550
  7      -0.000025929516
  8      -0.000017778866
  9      -0.000008066964
 10      -0.379156431857
 11      -0.368180493337
 12       0.005333926519
 13      -0.528212392465
 14       0.020418223737
 15      -0.000003543188
 16      -0.000022258576
 17       0.000056012949
 18       0.046652432752
 19      -0.075642004340
 20       0.057369133252
 21       0.044211723729
 22      -0.071738172329
 23       0.054386856685
 24       0.041895477527
 25       0.161766945996
 26       0.074071869956
 27       0.255276111423
 28      -0.101200503183
 29       0.000001479800
 30       0.000006845787
 31      -0.000010260915
 32      -0.046645483418
 33       0.075646509006
 34      -0.057364650457
 35      -0.044225182559
 36       0.071722057792
 37      -0.054400702779
 38       0.245749887740
 39       0.117566658848
 40      -0.078122558723
 41       0.145461044073
 42       0.085695971029
 Sym=     1a
 Ene= 1.89869917214004E+00
 Spin=Beta
 Occup= 0.000000
  1       0.000005779904
  2      -0.000011072575
  3      -0.001239895572
  4      -0.054751511074
  5       0.088417542775
  6      -0.066864303510
  7      -0.055357106952
  8       0.088948988217
  9      -0.067059554842
 10       0.524197627829
 11      -0.112399842962
 12      -0.391861718990
 13      -0.283296893143
 14       0.480548479702
 15      -0.000056902041
 16      -0.000375634981
 17       0.000947290702
 18       0.014296247322
 19      -0.022832736942
 20       0.017343360441
 21       0.042145594438
 22      -0.069064462948
 23       0.051757705598
 24       0.183611139663
 25       0.112472409163
 26      -0.043774059228
 27       0.148922151193
 28       0.044063165574
 29      -0.000052668757
 30      -0.000352380691
 31       0.000895217574
 32       0.014187333478
 33      -0.022982456441
 34       0.017215260928
 35       0.042652996549
 36      -0.068323789880
 37       0.052330404767
 38      -0.072384385828
 39      -0.136719396986
 40      -0.039771150052
 41      -0.208749923464
 42       0.057432419678
 Sym=     1a
 Ene= 1.89945536379526E+00
 Spin=Beta
 Occup= 0.000000
  1      -0.003553130731
  2       0.004785153592
  3       0.651034113248
  4       0.118691759602
  5      -0.002365546453
  6      -0.100072509709
  7       0.256500164542
  8      -0.005304486248
  9      -0.216013791917
 10       0.097918486941
 11      -0.681150736233
 12       0.170525033116
 13       0.410680904357
 14       0.115294208062
 15       0.029220840269
 16       0.192972924423
 17      -0.484018417934
 18      -0.088766692146
 19      -0.040841738273
 20       0.018439454661
 21       0.106960956106
 22       0.195643328278
 23       0.171344248633
 24       0.129596808339
 25       0.015462644060
 26       0.238916958733
 27      -0.100771766624
 28      -0.002024818380
 29       0.029226048947
 30       0.192999857027
 31      -0.484048946581
 32      -0.032245814166
 33       0.043350272730
 34       0.083486621441
 35      -0.155227823646
 36      -0.194891173449
 37      -0.130413812119
 38      -0.140890820352
 39       0.064833386232
 40       0.033225904178
 41       0.064662866209
 42       0.234375449293
 Sym=     1a
 Ene= 2.20634891429754E+00
 Spin=Beta
 Occup= 0.000000
  1      -0.000001862968
  2      -0.000010372490
  3      -0.000000586159
  4      -0.002900751490
  5      -0.004319271824
  6      -0.003341158095
  7      -0.812729839578
  8      -1.210560720762
  9      -0.935361849011
 10       0.452070594102
 11      -0.083472969241
 12       0.344415886108
 13      -0.278134324085
 14      -0.395771750206
 15       0.037965803534
 16       0.091835002917
 17       1.168532606004
 18      -0.117816435318
 19      -0.214367531785
 20      -0.186855437835
 21      -0.399022898351
 22      -0.173064672554
 23       0.096257173930
 24      -0.081093776340
 25      -0.260538070030
 26      -0.190954833468
 27       0.238331129405
 28       0.011356002282
 29      -0.037963750301
 30      -0.091823293047
 31      -1.168532265012
 32      -0.169284675850
 33      -0.213268155922
 34      -0.143557908438
 35       0.158658159714
 36      -0.184964009192
 37      -0.372901650055
 38      -0.161740823568
 39       0.305383297062
 40       0.005964200818
 41      -0.088933017604
 42       0.201241775822
 Sym=     1a
 Ene= 2.37676512860266E+00
 Spin=Beta
 Occup= 0.000000
  1      -0.014517570228
  2      -0.312008450571
  3       1.359423075327
  4      -0.007539223848
  5       0.000161063162
  6       0.006338781310
  7       0.511688361527
  8      -0.010911575807
  9      -0.430480303258
 10      -0.010695642133
 11       0.073952628964
 12       0.588870538648
 13      -0.018676232482
 14       0.497766805944
 15      -0.040164068259
 16      -0.117380862999
 17      -0.670891725015
 18       0.254780294308
 19       0.156266089697
 20      -0.001132734313
 21       0.026962493627
 22       0.178143652551
 23       0.212991438294
 24      -0.058210923224
 25      -0.273100256952
 26       0.081001719403
 27       0.240949466391
 28       0.206458505045
 29      -0.040163306585
 30      -0.117374863285
 31      -0.670893466094
 32       0.040728629772
 33      -0.162562026215
 34      -0.247478658681
 35      -0.209626053840
 36      -0.174260895991
 37      -0.059306322619
 38       0.141150807922
 39      -0.309920067365
 40       0.232890646116
 41       0.118307728580
 42       0.031937537248
 Sym=     1a
 Ene= 2.54829435579020E+00
 Spin=Beta
 Occup= 0.000000
  1      -0.000000621440
  2      -0.000008068464
  3       0.000049141195
  4      -0.000002340370
  5       0.000003434859
  6      -0.000007366797
  7       0.000016282752
  8      -0.000008174644
  9      -0.000014961300
 10      -0.009378601587
 11      -0.009141092186
 12       0.000118899703
 13      -0.013094021068
 14       0.000546257482
 15      -0.000003842826
 16      -0.000023781353
 17       0.000010627921
 18      -0.006699307730
 19       0.010895625167
 20      -0.008238476747
 21       0.009977400402
 22      -0.016212640818
 23       0.012270820993
 24      -0.550884464142
 25      -0.098476706420
 26       0.277337789790
 27      -0.057265726908
 28      -0.327174686750
 29       0.000007259195
 30       0.000042322780
 31      -0.000076209043
 32       0.006725684549
 33      -0.010864791170
 34       0.008254709551
 35      -0.010018064015
 36       0.016161097271
 37      -0.012304894283
 38       0.184337010432
 39      -0.257538225534
 40      -0.271951268691
 41      -0.453578237194
 42       0.346634821356
 Sym=     1a
 Ene= 2.55454209395019E+00
 Spin=Beta
 Occup= 0.000000
  1       0.000001053437
  2       0.000015540749
  3       0.000000150377
  4       0.004149680493
  5       0.006191300121
  6       0.004778001999
  7       0.001218255632
  8       0.001810044620
  9       0.001417414589
 10       0.004002517889
 11      -0.000728650736
 12       0.003001495212
 13      -0.002466265530
 14      -0.003511361983
 15       0.007043269614
 16       0.046938790905
 17      -0.062288465744
 18      -0.005071690578
 19      -0.026444417977
 20      -0.030740208186
 21       0.015057326065
 22       0.045037272809
 23       0.047132160244
 24      -0.258597860428
 25       0.396733235116
 26      -0.506294267656
 27      -0.099987610461
 28      -0.095847352099
 29      -0.007033758037
 30      -0.046892565871
 31       0.062256641476
 32      -0.030071799181
 33      -0.025896858371
 34      -0.009681473008
 35       0.044978529702
 36       0.044389909786
 37       0.021934839751
 38      -0.156351809994
 39      -0.320351311434
 40       0.190446232197
 41       0.354959972032
 42       0.458854794736
 Sym=     1a
 Ene= 2.59358205693787E+00
 Spin=Beta
 Occup= 0.000000
  1       0.000000724281
  2       0.000006270802
  3      -0.000010810522
  4      -0.028368820198
  5       0.046000977856
  6      -0.034882704086
  7       0.053904338149
  8      -0.087380564237
  9       0.066291150079
 10       0.087243721523
 11      -0.018922874889
 12      -0.065156600094
 13      -0.047004296303
 14       0.079997771544
 15      -0.000000624503
 16      -0.000003016397
 17      -0.000007508474
 18       0.017877562402
 19      -0.028984524009
 20       0.021981642417
 21      -0.037835427229
 22       0.061356848467
 23      -0.046529452091
 24      -0.419894751634
 25       0.097804064272
 26       0.317780069379
 27       0.237321645965
 28      -0.390550509479
 29      -0.000002120410
 30      -0.000006376553
 31       0.000023729698
 32       0.017878958687
 33      -0.028983944358
 34       0.021989403224
 35      -0.037842041506
 36       0.061359189426
 37      -0.046529562023
 38      -0.431438101177
 39       0.086815460464
 40       0.317946845182
 41       0.221424552130
 42      -0.390089239116
 Sym=     1a
 Ene= 2.68578697582350E+00
 Spin=Beta
 Occup= 0.000000
  1      -0.011374779875
  2      -0.173605545182
  3       0.154376863069
  4       0.024454077990
  5      -0.000518556953
  6      -0.020576701836
  7       0.101024655153
  8      -0.002143400801
  9      -0.084950598528
 10       0.024483911521
 11      -0.172778892409
 12       0.371879013806
 13       0.118408091132
 14       0.304839368257
 15      -0.032586880628
 16      -0.168048131100
 17       0.030661705624
 18       0.119055223996
 19       0.093830004877
 20       0.026925351415
 21      -0.088636556635
 22      -0.042930372763
 23       0.015443395784
 24      -0.242609386273
 25       0.426328330401
 26      -0.372011301221
 27      -0.127217457882
 28      -0.012254865584
 29      -0.032589794035
 30      -0.168062481809
 31       0.030723704120
 32      -0.008525138063
 33      -0.096193630713
 34      -0.119898007843
 35      -0.029282057352
 36       0.045480596471
 37       0.083761539066
 38       0.131115227174
 39       0.357270381327
 40      -0.087196438837
 41      -0.357163253431
 42      -0.339460176440
 Sym=     1a
 Ene= 2.95317912329947E+00
 Spin=Beta
 Occup= 0.000000
  1      -0.000003339893
  2      -0.000016586607
  3      -0.000031122310
  4       0.045928274201
  5      -0.074455472443
  6       0.056472482985
  7      -0.173895971076
  8       0.281947607840
  9      -0.213838055216
 10       0.326193786872
 11      -0.070730294054
 12      -0.243558476900
 13      -0.175728054111
 14       0.299069383711
 15       0.000000501440
 16      -0.000006246706
 17       0.000041956001
 18      -0.023255918022
 19       0.037713848638
 20      -0.028602679936
 21       0.118586947212
 22      -0.192351253614
 23       0.145860089935
 24      -0.329582697603
 25      -0.349665798060
 26      -0.013642666394
 27      -0.507327979739
 28       0.041989483385
 29       0.000000438326
 30       0.000000561200
 31       0.000005445691
 32      -0.023256741532
 33       0.037713813707
 34      -0.028597483614
 35       0.118614503596
 36      -0.192328068890
 37       0.145862917262
 38       0.379445896727
 39       0.338899294210
 40      -0.023606502945
 41       0.480464632123
 42       0.003752585898
 Sym=     1a
 Ene= 3.14135616222707E+00
 Spin=Beta
 Occup= 0.000000
  1      -0.000002151717
  2      -0.000013889108
  3      -0.000026124309
  4       0.171659020160
  5       0.255687143902
  6       0.197558617926
  7      -0.366075754702
  8      -0.545267971024
  9      -0.421300317221
 10      -0.329869108919
 11       0.060889441618
 12      -0.251298980932
 13       0.202919748859
 14       0.288757233100
 15      -0.049280042416
 16      -0.386733716635
 17       0.989324546399
 18       0.128833858017
 19       0.106266802062
 20       0.035357671477
 21      -0.531398540158
 22      -0.322599509824
 23       0.006735199284
 24      -0.319314575464
 25      -0.198036540989
 26      -0.164010970737
 27       0.380728936199
 28       0.391641064146
 29       0.049282861417
 30       0.386737626408
 31      -0.989289313899
 32       0.015474700165
 33       0.108688173915
 34       0.130732287125
 35       0.089350915970
 36      -0.335819982859
 37      -0.515479256941
 38      -0.394461555640
 39       0.329799433916
 40      -0.379762388121
 41       0.058389206290
 42       0.233266396176
 Sym=     1a
 Ene= 3.28988009855166E+00
 Spin=Beta
 Occup= 0.000000
  1      -0.079439303675
  2      -0.442155827041
  3      -1.922079734940
  4       0.173784977078
  5      -0.003720497316
  6      -0.146216997424
  7      -0.727175969007
  8       0.015546024444
  9       0.611804923828
 10      -0.060095159884
 11       0.421715535653
 12      -0.010672978505
 13      -0.250636507699
 14       0.009303955509
 15      -0.043245592863
 16      -0.424891913087
 17       1.464441120869
 18       0.060410853188
 19       0.061779177909
 20       0.032336238403
 21      -0.406463740797
 22      -0.606446628943
 23      -0.469122735877
 24       0.044730688194
 25       0.386200867097
 26       0.499103310534
 27      -0.285425783824
 28       0.281299184495
 29      -0.043244991127
 30      -0.424901379324
 31       1.464527969260
 32      -0.023075997915
 33      -0.062571429635
 34      -0.063741820714
 35       0.407789808713
 36       0.606452141282
 37       0.468041713505
 38      -0.160398423626
 39       0.424072367769
 40       0.342882513076
 41      -0.159239603431
 42       0.460853174745
 Sym=     1a
 Ene= 3.36273424965459E+00
 Spin=Beta
 Occup= 0.000000
  1      -0.000002858098
  2      -0.000017141494
  3      -0.000100784521
  4       0.000005796250
  5      -0.000000787935
  6      -0.000010340047
  7      -0.000035238196
  8       0.000000476214
  9       0.000038049711
 10       0.427908503656
 11       0.415610749697
 12      -0.006035287501
 13       0.596194631706
 14      -0.023036114319
 15      -0.000006075477
 16      -0.000039991514
 17       0.000082256427
 18      -0.012751818178
 19       0.020710901298
 20      -0.015692429579
 21      -0.074633747531
 22       0.120952157703
 23      -0.091775674699
 24       0.093423020899
 25       0.340451969436
 26       0.152706710102
 27       0.536276507330
 28      -0.209084917735
 29       0.000000657554
 30      -0.000008207978
 31       0.000070367841
 32       0.012765157197
 33      -0.020694204035
 34       0.015700641101
 35       0.074632766416
 36      -0.120950702329
 37       0.091768163305
 38       0.513829998071
 39       0.249334064331
 40      -0.161210381161
 41       0.309757512429
 42       0.176401909092
 Sym=     1a
 Ene= 3.59417460264349E+00
 Spin=Beta
 Occup= 0.000000
  1      -0.000006783242
  2      -0.000040020285
  3      -0.000085643680
  4       0.336030725188
  5       0.500505187603
  6       0.386715074147
  7      -0.711582837837
  8      -1.059871007676
  9      -0.818912118394
 10       0.524897086718
 11      -0.096905730890
 12       0.399875441865
 13      -0.322926097432
 14      -0.459538712337
 15       0.012915718572
 16      -0.175409189434
 17       1.619686891541
 18      -0.100553320558
 19      -0.115660046798
 20      -0.070751185606
 21      -0.686528259961
 22      -0.568009579716
 23      -0.190726672617
 24      -0.232503670703
 25       0.393689691789
 26       0.349711900995
 27      -0.081407595568
 28       0.583641182517
 29      -0.012914220716
 30       0.175396771877
 31      -1.619558753585
 32      -0.055394407334
 33      -0.116617976681
 34      -0.108724155955
 35      -0.084753706710
 36      -0.580802695235
 37      -0.696914130664
 38      -0.129591126153
 39      -0.326795403737
 40      -0.625549200461
 41       0.304201050090
 42      -0.266601216723
 Sym=     1a
 Ene= 3.77333632253777E+00
 Spin=Beta
 Occup= 0.000000
  1      -0.170364233283
  2      -0.792464837685
  3      -1.915690557177
  4       0.206538935802
  5      -0.004413389453
  6      -0.173763909797
  7      -0.355765031907
  8       0.007626191014
  9       0.299350870736
 10       0.064412935577
 11      -0.450934621210
 12      -0.706710787854
 13       0.237252175494
 14      -0.613021825972
 15       0.031431857751
 16      -0.091982104894
 17       1.363357054490
 18      -0.205192568767
 19      -0.152813006393
 20      -0.034652432705
 21      -0.597567337353
 22      -0.514942869176
 23      -0.193091859483
 24      -0.425967230359
 25       0.094984183430
 26       0.024381874667
 27       0.265445859376
 28       0.662905413115
 29       0.031428443917
 30      -0.092013450847
 31       1.363466783077
 32       0.002897034768
 33       0.157129749554
 34       0.204833381689
 35       0.100977324313
 36       0.525578501390
 37       0.610904451688
 38       0.420999859939
 39      -0.061389461880
 40       0.669678424478
 41      -0.255675564634
 42      -0.078579651419
