[Molden Format]
[Title]
[Atoms] AU
S      1    16 -0.27075046931092E+01  0.12096205187848E+01  0.41200050217378E+00
F      2     9 -0.57360424378819E+01  0.12082112829467E+01  0.41215296381375E+00
F      3     9 -0.28082037992986E+01 -0.75074322261285E+00 -0.21354797546657E+01
F      4     9 -0.21368184218350E+01  0.34951024274128E+01 -0.14915683429581E+01
F      5     9 -0.28100150339045E+01  0.33612365864493E+01  0.28006002745192E+01
[GTO]
           1 0
 s           4   1.0000000000000000     
   5.9405971566712825       -8.9372417311598049E-002
   1.6733203164693664      -0.18082641609838965     
  0.30005235337611069       0.21723996338879178     
  0.14762698261069515        6.0930362386553291E-002
 p           4   1.0000000000000000     
   7.6040239430642842      -0.25814820324554671     
  0.78579953064441499       0.29055569447587165     
  0.35515453993277829       0.22849483671210347     
  0.17168954147534055        3.3790487300818996E-002
 d           3   1.0000000000000000     
   1.5157593763923909       0.57480891956705049     
  0.47526859543376815       0.26185396196292493     
  0.18512883107762873        3.4887549426725117E-002

           2 0
 s           4   1.0000000000000000     
   67.819159474069664      -0.20185078924540290     
   11.679020441266060      -0.24638551080799964     
  0.93845912504808304       0.39451885509121826     
  0.35767000128016835       0.15723442614828523     
 p           4   1.0000000000000000     
   9.5824040354969249        1.3729678021928444     
   2.4845742777244690        1.2705288961470318     
  0.87588931793441471       0.66645884167206781     
  0.34870663043139383       0.10054331276117574     

           3 0
 s           4   1.0000000000000000     
   67.819159474069664      -0.20185078924540290     
   11.679020441266060      -0.24638551080799964     
  0.93845912504808304       0.39451885509121826     
  0.35767000128016835       0.15723442614828523     
 p           4   1.0000000000000000     
   9.5824040354969249        1.3729678021928444     
   2.4845742777244690        1.2705288961470318     
  0.87588931793441471       0.66645884167206781     
  0.34870663043139383       0.10054331276117574     

           4 0
 s           4   1.0000000000000000     
   67.819159474069664      -0.20185078924540290     
   11.679020441266060      -0.24638551080799964     
  0.93845912504808304       0.39451885509121826     
  0.35767000128016835       0.15723442614828523     
 p           4   1.0000000000000000     
   9.5824040354969249        1.3729678021928444     
   2.4845742777244690        1.2705288961470318     
  0.87588931793441471       0.66645884167206781     
  0.34870663043139383       0.10054331276117574     

           5 0
 s           4   1.0000000000000000     
   67.819159474069664      -0.20185078924540290     
   11.679020441266060      -0.24638551080799964     
  0.93845912504808304       0.39451885509121826     
  0.35767000128016835       0.15723442614828523     
 p           4   1.0000000000000000     
   9.5824040354969249        1.3729678021928444     
   2.4845742777244690        1.2705288961470318     
  0.87588931793441471       0.66645884167206781     
  0.34870663043139383       0.10054331276117574     

[MO]
Sym=     1a
Ene=  -0.89232882673243052     
Spin= Alpha
Occup=     2.00000000
           1  -1.0519553689535239     
           2 -0.20093312735158320     
           3  0.18670310848651261     
           4 -0.15570997732805741     
           5  -3.3518441784648287E-002
           6   5.4672134229750667E-003
           7   2.8051228361673224E-002
           8   2.8460858351923725E-002
           9  -2.3741483602492244E-002
          10   7.1121851317866927E-002
          11  0.17582509960669271     
          12  0.17564832090515259     
          13  -1.4600589386738421E-002
          14   1.2272627911542750E-002
          15  0.15713836129936698     
          16   2.0965463425879877E-002
          17   8.1968858007864798E-002
          18  0.13832869646101251     
          19  0.17578409799894612     
          20  -1.4191058248965422E-002
          21 -0.13517179343218119     
          22  0.11267221775573348     
          23  0.15716447399974712     
          24   2.1293138231185844E-002
          25 -0.12106536412046520     
          26 -0.10549652004472683     
Sym=     2a
Ene=  -0.84244141501684611     
Spin= Alpha
Occup=     2.00000000
           1  0.13298682310283375     
           2 -0.29171865482519038     
           3   2.0769919785022291E-002
           4  -1.7493213379829183E-002
           5   5.7523661651281401E-002
           6  -2.8570054762389309E-002
           7  -2.8953606888892088E-002
           8   2.0061857650604479E-002
           9  -1.6644396651643630E-002
          10  -1.0508217959081829E-003
          11  0.34897133749679932     
          12  0.71513494436559666     
          13  -5.7454379496965857E-002
          14   4.8247916270834169E-002
          15  -2.7964259995282594E-002
          16   3.4490513136098251E-002
          17  -2.1136447607487070E-002
          18  -2.6729393126089799E-002
          19  -1.9837877406831475E-002
          20   3.4444711016602930E-002
          21   1.3719272718703702E-002
          22  -1.1254566826138976E-002
          23  -2.7830830021008141E-002
          24   3.4991506785242169E-002
          25   2.2825835234321565E-002
          26   2.5849180475888408E-002
Sym=     3a
Ene=  -0.81217725277222230     
Spin= Alpha
Occup=     2.00000000
           1 -0.13311585809142049     
           2  -2.8266188179138074E-002
           3 -0.22399403009965443     
           4  0.18660043015458871     
           5   1.6426088998017591E-002
           6  -1.5091798491185950E-002
           7  -1.3342905068316408E-003
           8  -3.2590764366510830E-002
           9   2.7133391340528699E-002
          10   4.3104363284949057E-002
          11   1.9841352338678397E-002
          12   2.3910719692161516E-002
          13   2.3309846095059518E-002
          14  -1.9428720191161788E-002
          15   2.7925780453072833E-002
          16   7.4317125109800404E-003
          17   4.7911186273372472E-002
          18   4.7793270818348322E-003
          19 -0.34896050795414768     
          20   6.0544241581612319E-002
          21  0.55024903957038807     
          22 -0.45839810016381682     
          23   2.7892269003266038E-002
          24   7.3330531793685547E-003
          25   3.8756175434112496E-003
          26  -4.8019665738803986E-002
Sym=     4a
Ene=  -0.79347970146502578     
Spin= Alpha
Occup=     2.00000000
           1  -2.1651359864939029E-002
           2   2.3456880551952060E-002
           3  -5.1121956020277567E-002
           4  -1.1113422622336248E-002
           5   3.3656864323470204E-002
           6  -1.3682822875072033E-002
           7  -1.9974041448398171E-002
           8   5.1666972058533059E-002
           9   1.8408917334871513E-002
          10  -3.1837215895880346E-004
          11  0.50971966192336859     
          12 -0.31993289720874668     
          13 -0.71451263142206101     
          14 -0.30495174382236268     
          15  -8.6172956475683155E-003
          16   1.3297324016198913E-002
          17  -1.4332375039040922E-003
          18  -9.5601902461346089E-003
          19   1.8292605587410807E-002
          20  -1.9387103897289842E-002
          21  -1.0000682878225803E-002
          22   1.0776851806599243E-002
          23   3.2128275072900989E-002
          24  -1.9664656948909166E-002
          25  -1.8897888593965233E-002
          26  -2.4907437010109428E-002
Sym=     5a
Ene=  -0.74381720609129198     
Spin= Alpha
Occup=     2.00000000
           1  -2.1668695528133046E-002
           2   2.3427230109839728E-002
           3   1.7821952131281699E-003
           4   5.2307563375640902E-002
           5   3.3702506950987851E-002
           6  -1.9692795206805856E-002
           7  -1.4009711744181991E-002
           8  -8.7985086085726229E-003
           9  -5.4127506455756730E-002
          10  -1.5975857927729522E-003
          11  0.50973295158426912     
          12 -0.32026571605205761     
          13  0.17116076452391793     
          14  0.75755890225589628     
          15   3.2177293310261139E-002
          16  -1.9466693097262861E-002
          17   2.1022273935313092E-002
          18   2.2959492092032026E-002
          19   1.8282272876125043E-002
          20  -1.9352788236161361E-002
          21  -1.2475792954860277E-002
          22   7.8143643475980240E-003
          23  -8.6747276301744058E-003
          24   1.3131161622990979E-002
          25   9.0087400559268147E-003
          26   3.0648228142904619E-003
Sym=     6a
Ene=  -0.58891944125133466     
Spin= Alpha
Occup=     2.00000000
           1  -2.1754658708509712E-002
           2   2.7071448802486402E-002
           3   4.1070782392014244E-003
           4   5.0268562034096680E-002
           5  -5.3321382786170012E-003
           6   4.5279869963719591E-002
           7  -3.9947731685102593E-002
           8   3.5945360212134431E-002
           9  -1.3894337658948113E-002
          10  -1.4822348414137522E-002
          11   1.8291570744488259E-002
          12   1.8099953141171632E-002
          13   1.1258773980278454E-002
          14  -1.1870788655852336E-002
          15   3.2135970172908070E-002
          16   2.2078236268809285E-003
          17   3.4885074014077380E-002
          18   1.1642564190817786E-002
          19  0.50975502328618971     
          20  0.40709377385757750     
          21  0.63322073035728932     
          22  0.37295416794821373     
          23  -8.6688058321993892E-003
          24  -7.2297518931888028E-003
          25  -4.0518439348043453E-003
          26   1.4035684241252231E-002
Sym=     7a
Ene=  -0.57461188968678467     
Spin= Alpha
Occup=     2.00000000
           1   2.1690173659829375E-002
           2  -2.7170569536730107E-002
           3   4.8724694573377150E-002
           4   1.3086001418227531E-002
           5   5.3136530719718276E-003
           6   3.2581463780925975E-002
           7  -3.7895116852897801E-002
           8  -2.0196429754529791E-002
           9   3.2854280831593259E-002
          10   3.1361000504040233E-002
          11  -1.8290226318474156E-002
          12  -1.7928415288242228E-002
          13  -1.3704177109615155E-002
          14   8.9000911659195842E-003
          15   8.6550078905477928E-003
          16   7.3671761407828286E-003
          17   1.4545652683135202E-002
          18  -1.4278488284636870E-003
          19 -0.50974658047750687     
          20 -0.40766426244905124     
          21  0.25215829981761750     
          22  0.68991066962587089     
          23  -3.2151690047632693E-002
          24  -2.1334654371835031E-003
          25   5.1032425557489243E-003
          26   3.6373003452227021E-002
Sym=     8a
Ene=  -0.57236792286195981     
Spin= Alpha
Occup=     2.00000000
           1   1.9426062964135991E-002
           2   1.4911018978117948E-002
           3   5.6909830169807607E-002
           4  -4.7421907338195131E-002
           5   4.7822753329240311E-002
           6  -2.5704735498895067E-002
           7  -2.2118017830345248E-002
           8  -5.4067120400404928E-002
           9   4.5088373363657175E-002
          10   1.1178061792036887E-002
          11  0.46540586079448815     
          12 -0.20511901442619024     
          13  0.63292387528455907     
          14 -0.52766425940464290     
          15  -7.3945197375104919E-005
          16  -2.4251063463231969E-003
          17  -9.4636747403806579E-003
          18   5.6913033603257562E-003
          19  -1.4656607714840151E-002
          20   1.8962064251007386E-002
          21   1.7924043874551755E-002
          22  -1.4921883611538104E-002
          23  -5.7761657940020138E-005
          24  -2.4353132089083877E-003
          25  -7.3131081917483867E-003
          26   8.2673498969759972E-003
Sym=     9a
Ene=  -0.55453161853242983     
Spin= Alpha
Occup=     2.00000000
           1  -1.9471788087216682E-002
           2   7.5538596319967913E-002
           3   5.5845220780144193E-004
           4  -4.6082825932302159E-004
           5   5.3408554000534562E-002
           6  -3.4043547221686392E-002
           7  -1.9365006778848167E-002
           8   3.6924563074317004E-002
           9  -3.0722228024461201E-002
          10   4.6296200774212801E-002
          11   1.4662978631721764E-002
          12   2.6603498182716942E-002
          13   1.0980982921329320E-002
          14  -9.1036760047402184E-003
          15   3.1589349964486039E-005
          16  -1.1209641002910168E-002
          17   8.5363910757283302E-004
          18   1.5873354649669758E-003
          19 -0.46537387748658560     
          20  0.77085948143734107     
          21 -0.27353631511068244     
          22  0.22840247403250974     
          23   6.9707496564989189E-005
          24  -1.1010515659189425E-002
          25  -1.2843381011237202E-003
          26  -1.0392317949862162E-003
Sym=    10a
Ene=  -0.55021363338331497     
Spin= Alpha
Occup=     2.00000000
           1   7.1085677062159527E-002
           2  -4.9557180297418707E-002
           3 -0.10229003483267211     
           4 -0.21667948467936010     
           5  -5.8220119020731029E-002
           6   1.7773780820986157E-002
           7   4.0446338199744872E-002
           8   3.3052752176580373E-003
           9  -9.0762992444428491E-003
          10  0.10344149161738225     
          11  -2.1153235717482583E-002
          12  -2.9632064048097650E-002
          13   1.6267586249399221E-002
          14   2.8787391307388648E-002
          15  0.39066441685049819     
          16   1.2782629841251187E-002
          17  0.46097930765126460     
          18  0.57886493690136565     
          19  -2.1186508802255359E-002
          20   1.1507751691569663E-002
          21   4.2467483258677247E-002
          22   7.0180140260745101E-003
          23   1.0480149077894046E-002
          24   7.1866751265047034E-003
          25  -2.4245717318150849E-002
          26  -1.6056310050847556E-002
Sym=    11a
Ene=  -0.54789599950674506     
Spin= Alpha
Occup=     2.00000000
           1  -7.1188356732215616E-002
           2   4.9607926106152410E-002
           3 -0.19454085020871870     
           4 -0.13975183996910553     
           5   5.8253930727903178E-002
           6  -7.8939556675696430E-003
           7  -5.0359975060333538E-002
           8  -9.4422403265934565E-003
           9   1.6883345601974059E-003
          10 -0.10135366547502687     
          11   2.1161127580019628E-002
          12   2.9935894749655145E-002
          13   2.5418181345570601E-002
          14   2.1168625759243293E-002
          15  -1.0486815254068704E-002
          16  -6.9228807708511019E-003
          17  -1.1404886660525294E-002
          18  -2.6717117853132143E-002
          19   2.1181691528615716E-002
          20  -1.1418271112597073E-002
          21  -8.6298116490722836E-004
          22   4.3074751439622243E-002
          23 -0.39073719795651368     
          24  -1.3037049331089590E-002
          25  0.48596006569076966     
          26  0.55791666476019375     
Sym=    12a
Ene=  -0.53642833807517543     
Spin= Alpha
Occup=     2.00000000
           1  -1.0528105209833383E-002
           2   6.1970204502305712E-002
           3   1.0672577110999015E-003
           4  -1.5533446743490444E-002
           5   7.8359689081363010E-003
           6   2.6452112769662071E-003
           7  -1.0481180185102508E-002
           8   3.0494814162472746E-002
           9   4.0144935363972935E-002
          10   2.7861281944851213E-002
          11   2.9559181256590041E-002
          12   3.1546781934214778E-002
          13   1.2172312080027566E-002
          14   1.8344467837545064E-002
          15  -8.3396624320040934E-003
          16   3.5208253665478815E-003
          17  -2.5560784926799080E-003
          18  -5.1507684104033034E-003
          19   2.4778717397613537E-003
          20  -1.0863193880670887E-002
          21  -2.4895960952336167E-003
          22  -6.5780052659677292E-003
          23  0.49315987018460405     
          24  0.78521231781978085     
          25  0.29891203080014056     
          26  0.14646661137502262     
Sym=    13a
Ene=  -0.51046294770323830     
Spin= Alpha
Occup=     2.00000000
           1  -1.0287188138817002E-002
           2   6.2156450062470114E-002
           3   1.5337453284276664E-002
           4   1.8457765954350766E-003
           5   7.8542858983392926E-003
           6  -1.8617314047687780E-002
           7   1.0763028149348486E-002
           8  -3.3988883309256993E-002
           9  -3.7217073258373277E-002
          10   2.3289656603550032E-002
          11   2.9536853027534005E-002
          12   3.0902578410532264E-002
          13  -1.5889151394029247E-002
          14  -1.5168666760659900E-002
          15  0.49317229810485230     
          16  0.78479462105405307     
          17  -8.9781773841957055E-002
          18 -0.32015527554835543     
          19   2.4772429749066079E-003
          20  -1.1092397985534115E-002
          21   6.2193187795398343E-003
          22   3.5676091808499680E-003
          23  -8.2422861083216881E-003
          24   3.2829142132630995E-003
          25   4.8537847177678546E-003
          26   3.5922181883765113E-003
Sym=    14a
Ene=  -0.51029973293481035     
Spin= Alpha
Occup=     2.00000000
           1   1.0356849728191529E-002
           2   2.2121522842105994E-002
           3   3.8162548573984829E-002
           4  -4.6349676198229897E-002
           5   2.5968826394172726E-002
           6  -5.2041448759683154E-002
           7   2.6072622365510424E-002
           8  -1.7809828407876305E-002
           9  -1.3339099443133646E-002
          10  -1.4897009199546087E-002
          11  -2.4913361661246204E-003
          12   3.5880684805288630E-004
          13  -1.2985877098766772E-002
          14   2.0014710709733165E-003
          15 -0.49318008970494664     
          16  0.28065463343017660     
          17  0.76709564865931812     
          18 -0.24305633364730214     
          19  -2.9562729539547392E-002
          20   3.4367955617775310E-003
          21   3.7789479424219188E-002
          22  -3.0985279282624485E-003
          23   8.2390826600321175E-003
          24   2.1558493947564281E-003
          25  -1.2998425335584290E-003
          26  -6.6265837928048592E-003
Sym=    15a
Ene=  -0.51010317533037508     
Spin= Alpha
Occup=     2.00000000
           1  -1.0332423635641510E-002
           2  -2.2087394931829298E-002
           3  -5.2482498362004387E-002
           4   2.9176991300028151E-002
           5  -2.5945487564840573E-002
           6  -2.8119156442346187E-002
           7   5.4064644007186760E-002
           8  -9.9130850552081005E-003
           9  -1.9974886702539552E-002
          10  -2.1294788445988849E-003
          11   2.4896291559577009E-003
          12  -4.2507099412990578E-004
          13   4.2806724425320172E-003
          14  -1.2429552560720257E-002
          15  -8.2019856327363357E-003
          16  -2.0643538323171398E-003
          17  -6.3303071867523266E-003
          18  -2.5878991804937023E-003
          19   2.9559523685294679E-002
          20  -3.4739975470065437E-003
          21  -9.8986317305190391E-003
          22   3.6540203892564620E-002
          23  0.49316067387130763     
          24 -0.28099761432363973     
          25 -0.37781421576509350     
          26  0.71039272992723179     
Sym=    16a
Ene=  -0.50990911097608982     
Spin= Alpha
Occup=     2.00000000
           1  -2.7564022881397747E-002
           2   1.7554288371504623E-002
           3  -3.5110082081016063E-002
           4  -9.0220283862201874E-003
           5   1.0390382488144043E-002
           6   3.6774838713327873E-002
           7  -4.7165221201471916E-002
           8  -1.9933925419650989E-002
           9  -3.3248547511102330E-002
          10  -6.9901630688843286E-003
          11   1.2883839084230209E-002
          12   1.2875045552348093E-002
          13  -1.8121741713613344E-003
          14  -1.1631535050422699E-002
          15 -0.49580165371513008     
          16  0.51320942509040024     
          17 -0.30089005810195252     
          18  0.60924536478354230     
          19   1.2884236371374690E-002
          20  -8.2633646658118402E-003
          21  -1.5218481524480357E-002
          22  -4.6607306691665820E-004
          23   1.9744277895667784E-002
          24   7.6896548164706998E-003
          25  -2.0153945692130859E-002
          26  -1.0053887289164639E-002
Sym=    17a
Ene=  -0.47785937260440281     
Spin= Alpha
Occup=     2.00000000
           1  -2.7562959095585295E-002
           2   1.7518894138129813E-002
           3   2.5117278691969900E-003
           4   3.6108578051456494E-002
           5   1.0347558257446789E-002
           6  -4.2237704986072641E-002
           7   3.1890146728625848E-002
           8   2.9152530834487336E-002
           9   2.5631415198394743E-002
          10  -2.3719263767094673E-002
          11   1.2881095050604899E-002
          12   1.2885640630022956E-002
          13   1.1161252923508926E-002
          14   3.9388112744001723E-003
          15   1.9681451601168045E-002
          16   7.4446077834612427E-003
          17   6.3197656621526302E-003
          18   2.1826331542396184E-002
          19   1.2880493077920791E-002
          20  -8.2583808565656076E-003
          21  -2.2210319000539394E-003
          22   1.5137393869365350E-002
          23 -0.49575052575821077     
          24  0.51362226983814341     
          25 -0.65324713508526544     
          26  0.18618387261734276     
Sym=    18a
Ene=  -0.24634510186001535     
Spin= Alpha
Occup=     0.00000000
           1  -8.8794436242374707E-008
           2 -0.65530631620996971     
           3 -0.41623256780008583     
           4  0.34650291458968152     
           5 -0.42400211918459996     
           6  0.25029553730147702     
           7  0.17370658188312293     
           8   7.1943430831304597E-002
           9  -6.0123483818442881E-002
          10 -0.24062097963281026     
          11  -6.0385669383742790E-002
          12 -0.23313438609246664     
          13  0.11405535957389884     
          14  -9.5100861161423300E-002
          15   1.5666584382749177E-005
          16  0.10678431386824333     
          17   6.7841139979779391E-002
          18  -5.6338952943515375E-002
          19   6.0363467397166630E-002
          20  0.10203314293762493     
          21 -0.19733114674264840     
          22  0.16442077371852251     
          23   1.3785055787113350E-005
          24  0.10675854722187329     
          25   6.7691914319390395E-002
          26  -5.6483830029251725E-002
Sym=    19a
Ene=   -8.9504654874028047E-002
Spin= Alpha
Occup=     0.00000000
           1 -0.51325166768973596     
           2  0.60976131707782832     
           3 -0.56738692772404464     
           4  0.47155068322075638     
           5  0.11211964320405304     
           6  -3.6101334537080781E-002
           7  -7.6018308666972262E-002
           8  0.13936121869091986     
           9 -0.11643956678902499     
          10 -0.12262491319907759     
          11  0.30035207506421391     
          12  0.40711352415204877     
          13  0.13199295435330327     
          14 -0.10975549215814599     
          15  0.18031177247724667     
          16  -6.7383621376208555E-002
          17  0.19833624302586619     
          18  0.11106730964877824     
          19  0.30032970950002991     
          20 -0.24512247066491713     
          21 -0.28247201874172490     
          22  0.23525420027957575     
          23  0.18089109449467877     
          24  -6.7012221850921261E-002
          25  -7.4210031406123630E-002
          26 -0.21559709036614397     
Sym=    20a
Ene=   -6.4432942132217438E-002
Spin= Alpha
Occup=     0.00000000
           1   6.1031746935073870E-004
           2  -4.3719473356010916E-004
           3 -0.52376050432669652     
           4 -0.62998975282003400     
           5   1.2442534781520465E-004
           6  0.43787505720531078     
           7 -0.43799948255312598     
           8 -0.27126229925778145     
           9 -0.32476856725630632     
          10   9.2752122759731839E-002
          11  -3.5638311414507972E-004
          12  -4.5522135171154157E-004
          13  -3.8024564418558541E-003
          14  -4.1767824864780909E-003
          15 -0.24564640707541818     
          16 -0.12314501239255306     
          17  -9.6306742392030090E-002
          18 -0.34969137532727396     
          19  -3.5674264463909222E-004
          20   3.3294995565211178E-004
          21  -3.7354393689215518E-003
          22  -5.1093692302505008E-003
          23  0.24528160904366952     
          24  0.12344788501954948     
          25 -0.32632275814408912     
          26 -0.15741989511000978     
Sym=    21a
Ene=    2.0624887379433295E-004
Spin= Alpha
Occup=     0.00000000
           1 -0.18904743232562715     
           2   8.8442269170079302E-002
           3  -8.2206153748502764E-002
           4   6.8593358154656697E-002
           5 -0.11414006858738310     
           6   8.6344933546541269E-002
           7   2.7795135040841822E-002
           8 -0.77669744269573893     
           9  0.64732948833826143     
          10 -0.18650644922795737     
          11  0.13279756349194524     
          12  0.13188821516777191     
          13 -0.21334968573171859     
          14  0.17784983287675230     
          15   8.0090210283744703E-002
          16   2.0618693410424166E-003
          17   4.9559317179162468E-002
          18   6.3301265962290493E-002
          19  0.13278397729790359     
          20  0.24799778725926427     
          21 -0.13960487943512248     
          22  0.11641267514332536     
          23   8.0045827995887636E-002
          24   1.9893736887360508E-003
          25  -5.3214518652780034E-002
          26  -6.0197281156603624E-002
Sym=    22a
Ene=    1.8126079764053685E-002
Spin= Alpha
Occup=     0.00000000
           1  -2.7480120471830311E-005
           2   4.2815228909093032E-005
           3   3.4956484745360210E-004
           4   4.2211089201773898E-004
           5   3.8222304328716650E-004
           6 -0.57492185241399341     
           7  0.57453962937070624     
           8 -0.52523879631462378     
           9 -0.63069199295141165     
          10 -0.12216412023783314     
          11   1.4002918955115837E-005
          12   7.9219577632821581E-005
          13 -0.14568502873299410     
          14 -0.17485800723152159     
          15   5.9001134314257185E-005
          16 -0.19696212214758613     
          17 -0.12438947597587557     
          18  0.10366502328333664     
          19   2.3535292930740747E-005
          20  -4.6926515160315486E-005
          21  0.14488533698206760     
          22  0.17396910310290561     
          23  -3.6644351672090114E-005
          24  0.19689796185340697     
          25  0.12444998608953181     
          26 -0.10351437478573065     
Sym=    23a
Ene=    6.7321974873337034E-002
Spin= Alpha
Occup=     0.00000000
           1  -1.8437805791693727E-004
           2  -5.4204984134803657E-005
           3  0.48143308834046999     
           4  0.57822699531382360     
           5   1.6901461889479164E-004
           6  0.53868965872054186     
           7 -0.53885867333943671     
           8 -0.33280470903955328     
           9 -0.39899233214376395     
          10  0.11423695677128608     
          11   1.2085145860091687E-004
          12   1.8571310292167441E-004
          13 -0.14913739677492624     
          14 -0.17899587971532799     
          15  0.25730625515212030     
          16 -0.10850020016872512     
          17  0.29929838888720878     
          18  0.15320768752866867     
          19   1.2391780991095173E-004
          20   6.4202707223452157E-005
          21 -0.14986319790421934     
          22 -0.17970834347164660     
          23 -0.25725932773831017     
          24  0.10826278455397043     
          25   9.6667979247281419E-002
          26  0.32199266884312749     
Sym=    24a
Ene=   0.63489647892738210     
Spin= Alpha
Occup=     0.00000000
           1   8.8915239221450441E-005
           2 -0.56930940119081486     
           3 -0.36210191771261635     
           4  0.30142658061680183     
           5  0.93080819082616206     
           6 -0.54985900167964918     
           7 -0.38094918914651277     
           8 -0.15818667373337397     
           9  0.13214525903218660     
          10  0.53043177185984969     
          11 -0.58270041916173643     
          12 -0.43848906966510648     
          13  -1.5325997553514750E-004
          14  -1.6948065636346341E-005
          15  -6.0124403446174121E-004
          16   4.7078550833095721E-002
          17   2.9777660774328175E-002
          18  -2.5302198809517406E-002
          19  0.58353023281258110     
          20  -8.2661693776932277E-002
          21 -0.33135756653988901     
          22  0.27598439282534543     
          23  -5.9637898375353973E-004
          24   4.7063236927689857E-002
          25   3.0272603079403975E-002
          26  -2.4694194905668054E-002
Sym=    25a
Ene=   0.72469852166893156     
Spin= Alpha
Occup=     0.00000000
           1   7.0069066323523138E-002
           2  0.19297681987963206     
           3 -0.17814066080532026     
           4  0.14805691714547145     
           5 -0.65871599482020815     
           6  0.15756560102002348     
           7  0.50115039380018467     
           8  -8.1589618950047904E-002
           9   6.7197743569133522E-002
          10   1.0794758831417679     
          11  0.33520880577225554     
          12  0.23240037529753435     
          13  -2.1448145446962327E-003
          14   1.8977406608880936E-003
          15 -0.49564960976876132     
          16  -3.6777150532052230E-002
          17 -0.18907663684118042     
          18 -0.29697088106374608     
          19  0.33361821405991543     
          20  -4.0684563012514385E-002
          21 -0.17488777533061428     
          22  0.14569270217114744     
          23 -0.49536022129050189     
          24  -3.6966872851777820E-002
          25  0.25777409676091290     
          26  0.23944528817805136     
