energy: -5.206771957081 gnorm: 0.000353519362 xtb: 6.7.1 (edcfbbe)      
Freq      RB3LYP                                                      6-31G(d)            
Number of atoms                            I                4
Info1-9                                    I   N=           9
          12          12        1002           0           0         100
           6          18        -502
Full Title                                 C   N=           6
energy: -5.206771957081 gnorm: 0.000353519362 xtb: 6.7.1 (ed
cfbbe)      
Route                                      C   N=           3
#p B3LYP/6-31G(d) Opt Freq=Raman    
Charge                                     I                0
Multiplicity                               I                1
Number of electrons                        I               14
Number of alpha electrons                  I                7
Number of beta electrons                   I                7
Number of basis functions                  I               34
Number of independent functions            I               34
Number of point charges in /Mol/           I                0
Number of translation vectors              I                0
Atomic numbers                             I   N=           4
           6           6           1           1
Nuclear charges                            R   N=           4
  6.00000000E+00  6.00000000E+00  1.00000000E+00  1.00000000E+00
Current cartesian coordinates              R   N=          12
  2.61773365E-19  0.00000000E+00  1.13854427E+00  1.38516105E-16  0.00000000E+00
 -1.13854427E+00 -5.66947600E-19  0.00000000E+00  3.15415989E+00  3.85675559E-16
  0.00000000E+00 -3.15415989E+00
Number of symbols in /Mol/                 I                0
Int Atom Types                             I   N=           4
           0           0           0           0
Force Field                                I                0
Atom Types                                 C   N=           4
                                                
MM charges                                 R   N=           4
  0.00000000E+00  0.00000000E+00  0.00000000E+00  0.00000000E+00
Integer atomic weights                     I   N=           4
          12          12           1           1
Real atomic weights                        R   N=           4
  1.20000000E+01  1.20000000E+01  1.00782504E+00  1.00782504E+00
Atom fragment info                         I   N=           4
           0           0           0           0
Atom residue num                           I   N=           4
           0           0           0           0
Nuclear spins                              I   N=           4
           0           0           1           1
Nuclear ZEff                               R   N=           4
 -3.60000000E+00 -3.60000000E+00 -1.00000000E+00 -1.00000000E+00
Nuclear ZNuc                               R   N=           4
  6.00000000E+00  6.00000000E+00  1.00000000E+00  1.00000000E+00
Nuclear QMom                               R   N=           4
  0.00000000E+00  0.00000000E+00  0.00000000E+00  0.00000000E+00
Nuclear GFac                               R   N=           4
  0.00000000E+00  0.00000000E+00  2.79284600E+00  2.79284600E+00
MicOpt                                     I   N=           4
          -1          -1          -1          -1
Number of residues                         I                0
Number of secondary structures             I                0
Redundant internal dimensions              I   N=           4
           7           3           4           0
Redundant internal coordinate indices      I   N=          28
           1           2           0           0           1           3
           0           0           2           4           0           0
           2           1           3          -4           1           2
           4          -4           2           1           3          -8
           1           2           4          -8
Redundant internal coordinates             R   N=           7
  2.27708854E+00  2.01561563E+00  2.01561563E+00  3.14159265E+00  3.14159265E+00
  3.14159265E+00  3.14159265E+00
ZRed-IntVec                                I   N=           7
           0           0           0           0           0           0
           0
ZRed-FPVec                                 R   N=           7
  0.00000000E+00  0.00000000E+00  0.00000000E+00  0.00000000E+00  0.00000000E+00
  0.00000000E+00  0.00000000E+00
ZRed-Constraint1                           R   N=           7
  2.27708854E+00  2.01561563E+00  2.01561563E+00  3.14159265E+00  3.14159265E+00
  3.14159265E+00  3.14159265E+00
ZRed-Constraint2                           R   N=           7
  2.25574718E+00  1.98391007E+00  1.98391007E+00  3.14159265E+00  3.14159265E+00
  3.14159265E+00  3.14159265E+00
SymInf integers                            I   N=          26
           2           8           1           1           1          -1
           1          -1          -1          -1           1           1
          -1          -1          -1           1           1           1
          -1           1           1           1          -1          -1
          -1          -1
RotTr to input orientation                 R   N=          12
 -2.44011179E-16  0.00000000E+00  1.00000000E+00  0.00000000E+00  1.00000000E+00
  0.00000000E+00 -1.00000000E+00 -0.00000000E+00 -2.44011179E-16  3.02871130E+00
  1.63536899E-01 -1.78768091E-02
Number of contracted shells                I               12
Number of primitive shells                 I               30
Pure/Cartesian d shells                    I                1
Pure/Cartesian f shells                    I                0
Highest angular momentum                   I                2
Largest degree of contraction              I                6
Shell types                                I   N=          12
           0          -1          -1           2           0          -1
          -1           2           0           0           0           0
Number of primitives per shell             I   N=          12
           6           3           1           1           6           3
           1           1           3           1           3           1
Shell to atom map                          I   N=          12
           1           1           1           1           2           2
           2           2           3           3           4           4
Primitive exponents                        R   N=          30
  3.04752488E+03  4.57369518E+02  1.03948685E+02  2.92101553E+01  9.28666296E+00
  3.16392696E+00  7.86827235E+00  1.88128854E+00  5.44249258E-01  1.68714478E-01
  8.00000000E-01  3.04752488E+03  4.57369518E+02  1.03948685E+02  2.92101553E+01
  9.28666296E+00  3.16392696E+00  7.86827235E+00  1.88128854E+00  5.44249258E-01
  1.68714478E-01  8.00000000E-01  1.87311370E+01  2.82539436E+00  6.40121692E-01
  1.61277759E-01  1.87311370E+01  2.82539436E+00  6.40121692E-01  1.61277759E-01
Contraction coefficients                   R   N=          30
  1.83473713E-03  1.40373228E-02  6.88426223E-02  2.32184443E-01  4.67941348E-01
  3.62311985E-01 -1.19332420E-01 -1.60854152E-01  1.14345644E+00  1.00000000E+00
  1.00000000E+00  1.83473713E-03  1.40373228E-02  6.88426223E-02  2.32184443E-01
  4.67941348E-01  3.62311985E-01 -1.19332420E-01 -1.60854152E-01  1.14345644E+00
  1.00000000E+00  1.00000000E+00  3.34946043E-02  2.34726953E-01  8.13757326E-01
  1.00000000E+00  3.34946043E-02  2.34726953E-01  8.13757326E-01  1.00000000E+00
P(S=P) Contraction coefficients            R   N=          30
  0.00000000E+00  0.00000000E+00  0.00000000E+00  0.00000000E+00  0.00000000E+00
  0.00000000E+00  6.89990666E-02  3.16423961E-01  7.44308291E-01  1.00000000E+00
  0.00000000E+00  0.00000000E+00  0.00000000E+00  0.00000000E+00  0.00000000E+00
  0.00000000E+00  0.00000000E+00  6.89990666E-02  3.16423961E-01  7.44308291E-01
  1.00000000E+00  0.00000000E+00  0.00000000E+00  0.00000000E+00  0.00000000E+00
  0.00000000E+00  0.00000000E+00  0.00000000E+00  0.00000000E+00  0.00000000E+00
Coordinates of each shell                  R   N=          36
  2.61773365E-19  0.00000000E+00  1.13854427E+00  2.61773365E-19  0.00000000E+00
  1.13854427E+00  2.61773365E-19  0.00000000E+00  1.13854427E+00  2.61773365E-19
  0.00000000E+00  1.13854427E+00  1.38516105E-16  0.00000000E+00 -1.13854427E+00
  1.38516105E-16  0.00000000E+00 -1.13854427E+00  1.38516105E-16  0.00000000E+00
 -1.13854427E+00  1.38516105E-16  0.00000000E+00 -1.13854427E+00 -5.66947600E-19
  0.00000000E+00  3.15415989E+00 -5.66947600E-19  0.00000000E+00  3.15415989E+00
  3.85675559E-16  0.00000000E+00 -3.15415989E+00  3.85675559E-16  0.00000000E+00
 -3.15415989E+00
Num ILSW                                   I              100
ILSW                                       I   N=         100
           0           1           0           0           2           0
           0           0           0           0         402          -1
           5           0           0           0           2           0
           0           0           0           0           1           0
           1           0           0           0           0           0
           0           0      100000           0          -1           0
           0           0           0           0           0           0
           0           0           0           1           0           0
           0 -2000000000           1           0           0           0
           0           0           4          52           0           0
           0           0           5           0           0           0
           0           0           0           4           0           1
           0           0           0           0           0           0
           0           0           0           0           0           0
           0           0           0           0           0           0
           0           0           0           0           0           0
           0           0           0           0
Num RLSW                                   I               52
RLSW                                       R   N=          52
  8.00000000E-01  7.20000000E-01  1.00000000E+00  8.10000000E-01  2.00000000E-01
  0.00000000E+00  0.00000000E+00  1.00000000E+00  0.00000000E+00  0.00000000E+00
  0.00000000E+00  0.00000000E+00  1.00000000E+00  0.00000000E+00  0.00000000E+00
  0.00000000E+00  0.00000000E+00  1.00000000E+00  0.00000000E+00  0.00000000E+00
  0.00000000E+00  0.00000000E+00  1.00000000E+00  0.00000000E+00  0.00000000E+00
  0.00000000E+00  0.00000000E+00  1.00000000E+00  0.00000000E+00  0.00000000E+00
  0.00000000E+00  0.00000000E+00  1.00000000E+00  0.00000000E+00  0.00000000E+00
  0.00000000E+00  0.00000000E+00  0.00000000E+00  1.00000000E+00  1.00000000E+00
  0.00000000E+00  1.00000000E+00  0.00000000E+00  0.00000000E+00  0.00000000E+00
  0.00000000E+00  0.00000000E+00  0.00000000E+00  0.00000000E+00  0.00000000E+00
  0.00000000E+00  0.00000000E+00
MxBond                                     I                2
NBond                                      I   N=           4
           2           2           1           1
IBond                                      I   N=           8
           2           3           1           4           1           0
           2           0
RBond                                      R   N=           8
  3.00000000E+00  1.00000000E+00  3.00000000E+00  1.00000000E+00  1.00000000E+00
  0.00000000E+00  1.00000000E+00  0.00000000E+00
Virial Ratio                               R      2.010304411117742E+00
SCF Energy                                 R     -7.732564599819010E+01
Total Energy                               R     -7.732564599819010E+01
RMS Force                                  R      2.034379602529022E-05
NImag                                      I                0
Job Status                                 I                1
Nuclear derivative order                   I                2
Thermal Energy                             R     -7.729607999320332E+01
Thermal Enthalpy                           R     -7.729513580838969E+01
Thermal Free Energy                        R     -7.731803769356185E+01
External E-field                           R   N=          35
  0.00000000E+00  0.00000000E+00  0.00000000E+00  0.00000000E+00  0.00000000E+00
  0.00000000E+00  0.00000000E+00  0.00000000E+00  0.00000000E+00  0.00000000E+00
  0.00000000E+00  0.00000000E+00  0.00000000E+00  0.00000000E+00  0.00000000E+00
  0.00000000E+00  0.00000000E+00  0.00000000E+00  0.00000000E+00  0.00000000E+00
  0.00000000E+00  0.00000000E+00  0.00000000E+00  0.00000000E+00  0.00000000E+00
  0.00000000E+00  0.00000000E+00  0.00000000E+00  0.00000000E+00  0.00000000E+00
  0.00000000E+00  0.00000000E+00  0.00000000E+00  0.00000000E+00  0.00000000E+00
IOpCl                                      I                0
IROHF                                      I                0
Alpha Orbital Energies                     R   N=          34
 -1.01921706E+01 -1.01897577E+01 -7.42617243E-01 -5.65398529E-01 -4.91584410E-01
 -2.81923883E-01 -2.81923883E-01  5.24274683E-02  5.24274683E-02  1.05590953E-01
  1.48842062E-01  4.26724512E-01  4.70823395E-01  5.32918823E-01  5.32918823E-01
  6.54246459E-01  6.54246459E-01  7.46747247E-01  8.24407292E-01  1.02847536E+00
  1.21765923E+00  1.50514795E+00  1.50642365E+00  1.50642365E+00  1.54918703E+00
  1.54918704E+00  1.94363797E+00  1.94363798E+00  2.43196197E+00  2.48717678E+00
  2.48717678E+00  3.19106936E+00  4.13473786E+00  4.32926878E+00
Alpha MO coefficients                      R   N=        1156
  7.01462534E-01  3.38611863E-02  0.00000000E+00  0.00000000E+00  3.76983115E-04
 -4.05616808E-03  0.00000000E+00  0.00000000E+00 -5.52285454E-04 -7.45246522E-03
 -7.45246522E-03 -6.12884371E-03  0.00000000E+00  0.00000000E+00  0.00000000E+00
  7.01462534E-01  3.38611863E-02  0.00000000E+00  0.00000000E+00 -3.76983115E-04
 -4.05616808E-03  0.00000000E+00  0.00000000E+00  5.52285454E-04 -7.45246522E-03
 -7.45246522E-03 -6.12884371E-03  0.00000000E+00  0.00000000E+00  0.00000000E+00
 -7.70712653E-04  1.35645231E-03 -7.70712653E-04  1.35645231E-03  7.02274151E-01
  3.55276763E-02  0.00000000E+00  0.00000000E+00 -6.06107270E-04 -1.65747062E-02
  0.00000000E+00  0.00000000E+00  6.66980002E-03 -6.99412480E-03 -6.99412480E-03
 -6.00254197E-03  0.00000000E+00  0.00000000E+00  0.00000000E+00 -7.02274151E-01
 -3.55276763E-02  0.00000000E+00  0.00000000E+00 -6.06107270E-04  1.65747062E-02
  0.00000000E+00  0.00000000E+00  6.66980002E-03  6.99412480E-03  6.99412480E-03
  6.00254197E-03  0.00000000E+00  0.00000000E+00  0.00000000E+00 -8.05508273E-04
 -2.93518913E-04  8.05508273E-04  2.93518913E-04 -1.74821736E-01  3.29856985E-01
  0.00000000E+00  0.00000000E+00 -1.42530979E-01  2.56367753E-01  0.00000000E+00
  0.00000000E+00  2.51161269E-02 -1.65031155E-02 -1.65031155E-02  1.48026550E-02
  0.00000000E+00  0.00000000E+00  0.00000000E+00 -1.74821736E-01  3.29856985E-01
  0.00000000E+00  0.00000000E+00  1.42530979E-01  2.56367753E-01  0.00000000E+00
  0.00000000E+00 -2.51161269E-02 -1.65031155E-02 -1.65031155E-02  1.48026550E-02
  0.00000000E+00  0.00000000E+00  0.00000000E+00  7.69579736E-02 -8.71690826E-03
  7.69579736E-02 -8.71690826E-03 -1.12420898E-01  2.28008025E-01  0.00000000E+00
  0.00000000E+00  2.04716013E-01  2.11021538E-01  0.00000000E+00  0.00000000E+00
  6.35683988E-02 -1.15311238E-02 -1.15311238E-02  2.17865195E-02  0.00000000E+00
  0.00000000E+00  0.00000000E+00  1.12420898E-01 -2.28008025E-01  0.00000000E+00
  0.00000000E+00  2.04716013E-01 -2.11021538E-01  0.00000000E+00  0.00000000E+00
  6.35683988E-02  1.15311238E-02  1.15311238E-02 -2.17865195E-02  0.00000000E+00
  0.00000000E+00  0.00000000E+00  2.15897631E-01  1.20397528E-01 -2.15897631E-01
 -1.20397528E-01  4.15810446E-03  2.43397876E-03  0.00000000E+00  0.00000000E+00
  3.92616565E-01  7.48365733E-03  0.00000000E+00  0.00000000E+00  6.15277957E-02
  1.45165655E-03  1.45165655E-03  1.19261034E-02  0.00000000E+00  0.00000000E+00
  0.00000000E+00  4.15810446E-03  2.43397876E-03  0.00000000E+00  0.00000000E+00
 -3.92616565E-01  7.48365733E-03  0.00000000E+00  0.00000000E+00 -6.15277957E-02
  1.45165655E-03  1.45165655E-03  1.19261034E-02  0.00000000E+00  0.00000000E+00
  0.00000000E+00  2.23400509E-01  1.89512425E-01  2.23400509E-01  1.89512425E-01
  0.00000000E+00  0.00000000E+00  4.18877470E-01  0.00000000E+00  0.00000000E+00
  0.00000000E+00  2.54432601E-01  0.00000000E+00  0.00000000E+00  0.00000000E+00
  0.00000000E+00  0.00000000E+00  0.00000000E+00 -1.63512198E-02  0.00000000E+00
  0.00000000E+00  0.00000000E+00  4.18877470E-01  0.00000000E+00  0.00000000E+00
  0.00000000E+00  2.54432601E-01  0.00000000E+00  0.00000000E+00  0.00000000E+00
  0.00000000E+00  0.00000000E+00  0.00000000E+00  1.63512198E-02  0.00000000E+00
  0.00000000E+00  0.00000000E+00  0.00000000E+00  0.00000000E+00  0.00000000E+00
  0.00000000E+00  0.00000000E+00  4.18877470E-01  0.00000000E+00  0.00000000E+00
  0.00000000E+00  2.54432601E-01  0.00000000E+00  0.00000000E+00  0.00000000E+00
  0.00000000E+00  0.00000000E+00  0.00000000E+00 -1.63512198E-02  0.00000000E+00
  0.00000000E+00  0.00000000E+00  4.18877470E-01  0.00000000E+00  0.00000000E+00
  0.00000000E+00  2.54432601E-01  0.00000000E+00  0.00000000E+00  0.00000000E+00
  0.00000000E+00  0.00000000E+00  0.00000000E+00  1.63512198E-02  0.00000000E+00
  0.00000000E+00  0.00000000E+00  0.00000000E+00  0.00000000E+00  0.00000000E+00
  4.13500936E-01  0.00000000E+00  0.00000000E+00  0.00000000E+00  7.06305494E-01
  0.00000000E+00  0.00000000E+00  0.00000000E+00  0.00000000E+00  0.00000000E+00
  0.00000000E+00  3.44148637E-02  0.00000000E+00  0.00000000E+00  0.00000000E+00
 -4.13500936E-01  0.00000000E+00  0.00000000E+00  0.00000000E+00 -7.06305494E-01
  0.00000000E+00  0.00000000E+00  0.00000000E+00  0.00000000E+00  0.00000000E+00
  0.00000000E+00  3.44148637E-02  0.00000000E+00  0.00000000E+00  0.00000000E+00
  0.00000000E+00  0.00000000E+00  0.00000000E+00  0.00000000E+00  0.00000000E+00
  4.13500936E-01  0.00000000E+00  0.00000000E+00  0.00000000E+00  7.06305494E-01
  0.00000000E+00  0.00000000E+00  0.00000000E+00  0.00000000E+00  0.00000000E+00
  0.00000000E+00  3.44148637E-02  0.00000000E+00  0.00000000E+00  0.00000000E+00
 -4.13500936E-01  0.00000000E+00  0.00000000E+00  0.00000000E+00 -7.06305494E-01
  0.00000000E+00  0.00000000E+00  0.00000000E+00  0.00000000E+00  0.00000000E+00
  0.00000000E+00  3.44148637E-02  0.00000000E+00  0.00000000E+00  0.00000000E+00
  0.00000000E+00  1.01693740E-01 -2.38217757E-01  0.00000000E+00  0.00000000E+00
 -9.17767878E-02  3.11341394E-01  0.00000000E+00  0.00000000E+00 -1.62016089E+00
 -7.02030015E-03 -7.02030015E-03  2.73986510E-02  0.00000000E+00  0.00000000E+00
  0.00000000E+00 -1.01693740E-01  2.38217757E-01  0.00000000E+00  0.00000000E+00
 -9.17767878E-02 -3.11341394E-01  0.00000000E+00  0.00000000E+00 -1.62016089E+00
  7.02030015E-03  7.02030015E-03 -2.73986510E-02  0.00000000E+00  0.00000000E+00
  0.00000000E+00  1.33365237E-01  1.78237932E+00 -1.33365237E-01 -1.78237932E+00
  4.91725139E-02 -3.18919125E-02  0.00000000E+00  0.00000000E+00 -3.11977916E-01
 -1.29038706E+00  0.00000000E+00  0.00000000E+00 -7.44399833E-01 -2.92585244E-04
 -2.92585244E-04  1.10448247E-02  0.00000000E+00  0.00000000E+00  0.00000000E+00
  4.91725139E-02 -3.18919125E-02  0.00000000E+00  0.00000000E+00  3.11977916E-01
 -1.29038706E+00  0.00000000E+00  0.00000000E+00  7.44399833E-01 -2.92585244E-04
 -2.92585244E-04  1.10448247E-02  0.00000000E+00  0.00000000E+00  0.00000000E+00
  6.76195159E-02  1.60371100E+00  6.76195159E-02  1.60371100E+00 -1.12043781E-01
 -5.89459645E-02  0.00000000E+00  0.00000000E+00 -2.25177926E-01  6.27303091E+00
  0.00000000E+00  0.00000000E+00 -4.91840120E+00  5.49788346E-03  5.49788346E-03
 -7.65800218E-02  0.00000000E+00  0.00000000E+00  0.00000000E+00  1.12043781E-01
  5.89459645E-02  0.00000000E+00  0.00000000E+00 -2.25177926E-01 -6.27303091E+00
  0.00000000E+00  0.00000000E+00 -4.91840120E+00 -5.49788346E-03 -5.49788346E-03
  7.65800218E-02  0.00000000E+00  0.00000000E+00  0.00000000E+00 -3.90357226E-01
  2.25475843E+00  3.90357226E-01 -2.25475843E+00  5.93064738E-03  7.10701514E-01
  0.00000000E+00  0.00000000E+00 -1.89701204E-01 -3.41528806E-01  0.00000000E+00
  0.00000000E+00  5.90782622E-01  1.92843703E-02  1.92843703E-02  1.15253292E-01
  0.00000000E+00  0.00000000E+00  0.00000000E+00  5.93064738E-03  7.10701514E-01
  0.00000000E+00  0.00000000E+00  1.89701204E-01 -3.41528806E-01  0.00000000E+00
  0.00000000E+00 -5.90782622E-01  1.92843703E-02  1.92843703E-02  1.15253292E-01
  0.00000000E+00  0.00000000E+00  0.00000000E+00  3.87449112E-01 -6.64231556E-01
  3.87449112E-01 -6.64231556E-01  0.00000000E+00  0.00000000E+00  0.00000000E+00
  6.96441731E-01  0.00000000E+00  0.00000000E+00  0.00000000E+00 -6.49451670E-01
  0.00000000E+00  0.00000000E+00  0.00000000E+00  0.00000000E+00  0.00000000E+00
  0.00000000E+00 -6.03363742E-02  0.00000000E+00  0.00000000E+00  0.00000000E+00
  6.96441731E-01  0.00000000E+00  0.00000000E+00  0.00000000E+00 -6.49451670E-01
  0.00000000E+00  0.00000000E+00  0.00000000E+00  0.00000000E+00  0.00000000E+00
  0.00000000E+00  6.03363742E-02  0.00000000E+00  0.00000000E+00  0.00000000E+00
  0.00000000E+00  0.00000000E+00  0.00000000E+00  6.96441731E-01  0.00000000E+00
  0.00000000E+00  0.00000000E+00 -6.49451670E-01  0.00000000E+00  0.00000000E+00
  0.00000000E+00  0.00000000E+00  0.00000000E+00  0.00000000E+00 -6.03363742E-02
  0.00000000E+00  0.00000000E+00  0.00000000E+00  6.96441731E-01  0.00000000E+00
  0.00000000E+00  0.00000000E+00 -6.49451670E-01  0.00000000E+00  0.00000000E+00
  0.00000000E+00  0.00000000E+00  0.00000000E+00  0.00000000E+00  6.03363742E-02
  0.00000000E+00  0.00000000E+00  0.00000000E+00  0.00000000E+00  0.00000000E+00
  0.00000000E+00  0.00000000E+00 -7.97491171E-01  0.00000000E+00  0.00000000E+00
  0.00000000E+00  1.20520475E+00  0.00000000E+00  0.00000000E+00  0.00000000E+00
  0.00000000E+00  0.00000000E+00  0.00000000E+00 -3.92495970E-02  0.00000000E+00
  0.00000000E+00  0.00000000E+00  7.97491171E-01  0.00000000E+00  0.00000000E+00
  0.00000000E+00 -1.20520475E+00  0.00000000E+00  0.00000000E+00  0.00000000E+00
  0.00000000E+00  0.00000000E+00  0.00000000E+00 -3.92495970E-02  0.00000000E+00
  0.00000000E+00  0.00000000E+00  0.00000000E+00  0.00000000E+00  0.00000000E+00
  0.00000000E+00  0.00000000E+00 -7.97491171E-01  0.00000000E+00  0.00000000E+00
  0.00000000E+00  1.20520475E+00  0.00000000E+00  0.00000000E+00  0.00000000E+00
  0.00000000E+00  0.00000000E+00  0.00000000E+00 -3.92495970E-02  0.00000000E+00
  0.00000000E+00  0.00000000E+00  7.97491171E-01  0.00000000E+00  0.00000000E+00
  0.00000000E+00 -1.20520475E+00  0.00000000E+00  0.00000000E+00  0.00000000E+00
  0.00000000E+00  0.00000000E+00  0.00000000E+00 -3.92495970E-02  0.00000000E+00
  0.00000000E+00  0.00000000E+00  0.00000000E+00  2.92837357E-02 -6.35634856E-01
  0.00000000E+00  0.00000000E+00 -4.42702232E-01 -4.63164569E+00  0.00000000E+00
  0.00000000E+00  5.91149491E+00 -1.16914056E-02 -1.16914056E-02 -1.86776488E-01
  0.00000000E+00  0.00000000E+00  0.00000000E+00 -2.92837357E-02  6.35634856E-01
  0.00000000E+00  0.00000000E+00 -4.42702232E-01  4.63164569E+00  0.00000000E+00
  0.00000000E+00  5.91149491E+00  1.16914056E-02  1.16914056E-02  1.86776488E-01
  0.00000000E+00  0.00000000E+00  0.00000000E+00 -1.80676103E-01 -2.71813188E+00
  1.80676103E-01  2.71813188E+00  1.83244070E-02 -6.37191640E-01  0.00000000E+00
  0.00000000E+00 -6.44677827E-01  2.44403303E+00  0.00000000E+00  0.00000000E+00
  2.17430743E+00 -6.80184540E-02 -6.80184540E-02 -1.06343742E-02  0.00000000E+00
  0.00000000E+00  0.00000000E+00  1.83244070E-02 -6.37191640E-01  0.00000000E+00
  0.00000000E+00  6.44677827E-01  2.44403303E+00  0.00000000E+00  0.00000000E+00
 -2.17430743E+00 -6.80184540E-02 -6.80184540E-02 -1.06343742E-02  0.00000000E+00
  0.00000000E+00  0.00000000E+00  1.24419386E-01 -2.11216194E+00  1.24419386E-01
 -2.11216194E+00 -1.16809994E-02  5.85228901E-01  0.00000000E+00  0.00000000E+00
 -1.14180251E-01  4.17967247E-01  0.00000000E+00  0.00000000E+00  1.37309576E+00
  5.02843274E-02  5.02843274E-02 -4.11050161E-02  0.00000000E+00  0.00000000E+00
  0.00000000E+00 -1.16809994E-02  5.85228901E-01  0.00000000E+00  0.00000000E+00
  1.14180251E-01  4.17967247E-01  0.00000000E+00  0.00000000E+00 -1.37309576E+00
  5.02843274E-02  5.02843274E-02 -4.11050161E-02  0.00000000E+00  0.00000000E+00
  0.00000000E+00 -8.55510119E-01 -3.17712013E-01 -8.55510119E-01 -3.17712013E-01
  2.30368745E-02 -7.56932182E-01  0.00000000E+00  0.00000000E+00  8.70177897E-01
  2.41800143E+00  0.00000000E+00  0.00000000E+00 -1.48101677E+00 -9.60651080E-02
 -9.60651080E-02  1.72966992E-01  0.00000000E+00  0.00000000E+00  0.00000000E+00
 -2.30368745E-02  7.56932182E-01  0.00000000E+00  0.00000000E+00  8.70177897E-01
 -2.41800143E+00  0.00000000E+00  0.00000000E+00 -1.48101677E+00  9.60651080E-02
  9.60651080E-02 -1.72966992E-01  0.00000000E+00  0.00000000E+00  0.00000000E+00
 -6.06700983E-01  6.60018182E-01  6.06700983E-01 -6.60018182E-01 -4.78209260E-02
 -1.30402171E+00  0.00000000E+00  0.00000000E+00 -8.79941034E-02  1.46192547E+01
  0.00000000E+00  0.00000000E+00 -1.02497214E+01 -9.96133177E-02 -9.96133177E-02
  2.79634760E-01  0.00000000E+00  0.00000000E+00  0.00000000E+00  4.78209260E-02
  1.30402171E+00  0.00000000E+00  0.00000000E+00 -8.79941034E-02 -1.46192547E+01
  0.00000000E+00  0.00000000E+00 -1.02497214E+01  9.96133177E-02  9.96133177E-02
 -2.79634760E-01  0.00000000E+00  0.00000000E+00  0.00000000E+00  7.91185435E-01
  2.60409986E+00 -7.91185435E-01 -2.60409986E+00  0.00000000E+00  0.00000000E+00
  2.24304087E-01  0.00000000E+00  0.00000000E+00  0.00000000E+00 -6.81044604E-02
  0.00000000E+00  0.00000000E+00  0.00000000E+00  0.00000000E+00  0.00000000E+00
  0.00000000E+00  6.08144546E-01  0.00000000E+00  0.00000000E+00  0.00000000E+00
  2.24304087E-01  0.00000000E+00  0.00000000E+00  0.00000000E+00 -6.81044604E-02
  0.00000000E+00  0.00000000E+00  0.00000000E+00  0.00000000E+00  0.00000000E+00
  0.00000000E+00 -6.08144546E-01  0.00000000E+00  0.00000000E+00  0.00000000E+00
  0.00000000E+00  0.00000000E+00  0.00000000E+00  0.00000000E+00  0.00000000E+00
  2.24304087E-01  0.00000000E+00  0.00000000E+00  0.00000000E+00 -6.81044604E-02
  0.00000000E+00  0.00000000E+00  0.00000000E+00  0.00000000E+00  0.00000000E+00
  0.00000000E+00  6.08144546E-01  0.00000000E+00  0.00000000E+00  0.00000000E+00
  2.24304087E-01  0.00000000E+00  0.00000000E+00  0.00000000E+00 -6.81044604E-02
  0.00000000E+00  0.00000000E+00  0.00000000E+00  0.00000000E+00  0.00000000E+00
  0.00000000E+00 -6.08144546E-01  0.00000000E+00  0.00000000E+00  0.00000000E+00
  0.00000000E+00 -4.37385684E-16 -2.62847913E-15  0.00000000E+00  0.00000000E+00
 -5.83971467E-15  2.73947216E-14  0.00000000E+00  0.00000000E+00  3.09472615E-14
  5.77177039E-01 -5.77177039E-01  1.27349671E-15  0.00000000E+00  0.00000000E+00
  0.00000000E+00 -4.37385684E-16 -2.62847913E-15  0.00000000E+00  0.00000000E+00
  5.83971467E-15  2.73947216E-14  0.00000000E+00  0.00000000E+00 -3.09472615E-14
  5.77177039E-01 -5.77177039E-01  1.27349671E-15  0.00000000E+00  0.00000000E+00
  0.00000000E+00 -5.65933419E-15 -2.38972637E-14 -5.65933419E-15 -2.38972637E-14
  0.00000000E+00  0.00000000E+00  0.00000000E+00  0.00000000E+00  0.00000000E+00
  0.00000000E+00  0.00000000E+00  0.00000000E+00  0.00000000E+00  0.00000000E+00
  0.00000000E+00  0.00000000E+00  6.66466638E-01  0.00000000E+00  0.00000000E+00
  0.00000000E+00  0.00000000E+00  0.00000000E+00  0.00000000E+00  0.00000000E+00
  0.00000000E+00  0.00000000E+00  0.00000000E+00  0.00000000E+00  0.00000000E+00
  0.00000000E+00  0.00000000E+00  6.66466638E-01  0.00000000E+00  0.00000000E+00
  0.00000000E+00  0.00000000E+00  0.00000000E+00  0.00000000E+00  1.95956434E-17
 -1.32458618E-16  0.00000000E+00  0.00000000E+00 -1.87276601E-16 -2.47251364E-14
  0.00000000E+00  0.00000000E+00  1.92436894E-14  6.54906476E-01 -6.54906476E-01
 -3.03969781E-17  0.00000000E+00  0.00000000E+00  0.00000000E+00 -1.95956434E-17
  1.32458618E-16  0.00000000E+00  0.00000000E+00 -1.87276601E-16  2.47251364E-14
  0.00000000E+00  0.00000000E+00  1.92436894E-14 -6.54906476E-01  6.54906476E-01
  3.03969781E-17  0.00000000E+00  0.00000000E+00  0.00000000E+00 -1.24967058E-15
 -5.94539660E-15  1.24967058E-15  5.94539660E-15  0.00000000E+00  0.00000000E+00
  0.00000000E+00  0.00000000E+00  0.00000000E+00  0.00000000E+00  0.00000000E+00
  0.00000000E+00  0.00000000E+00  0.00000000E+00  0.00000000E+00  0.00000000E+00
  7.56220861E-01  0.00000000E+00  0.00000000E+00  0.00000000E+00  0.00000000E+00
  0.00000000E+00  0.00000000E+00  0.00000000E+00  0.00000000E+00  0.00000000E+00
  0.00000000E+00  0.00000000E+00  0.00000000E+00  0.00000000E+00  0.00000000E+00
 -7.56220861E-01  0.00000000E+00  0.00000000E+00  0.00000000E+00  0.00000000E+00
  0.00000000E+00  0.00000000E+00  1.07879726E-01 -1.56408806E-02  0.00000000E+00
  0.00000000E+00 -3.55714378E-01 -1.53856366E-01  0.00000000E+00  0.00000000E+00
  4.40264272E-01  6.14540291E-01  6.14540291E-01 -5.66896858E-01  0.00000000E+00
  0.00000000E+00  0.00000000E+00  1.07879726E-01 -1.56408806E-02  0.00000000E+00
  0.00000000E+00  3.55714378E-01 -1.53856366E-01  0.00000000E+00  0.00000000E+00
 -4.40264272E-01  6.14540291E-01  6.14540291E-01 -5.66896858E-01  0.00000000E+00
  0.00000000E+00  0.00000000E+00  4.64176453E-01 -3.75258433E-01  4.64176453E-01
 -3.75258433E-01  0.00000000E+00  0.00000000E+00  0.00000000E+00 -2.48404901E-01
  0.00000000E+00  0.00000000E+00  0.00000000E+00 -3.05213605E-01  0.00000000E+00
  0.00000000E+00  0.00000000E+00  0.00000000E+00  0.00000000E+00  0.00000000E+00
  1.00301490E+00  0.00000000E+00  0.00000000E+00  0.00000000E+00  2.48404901E-01
  0.00000000E+00  0.00000000E+00  0.00000000E+00  3.05213605E-01  0.00000000E+00
  0.00000000E+00  0.00000000E+00  0.00000000E+00  0.00000000E+00  0.00000000E+00
  1.00301490E+00  0.00000000E+00  0.00000000E+00  0.00000000E+00  0.00000000E+00
  0.00000000E+00  0.00000000E+00 -2.48404901E-01  0.00000000E+00  0.00000000E+00
  0.00000000E+00 -3.05213605E-01  0.00000000E+00  0.00000000E+00  0.00000000E+00
  0.00000000E+00  0.00000000E+00  0.00000000E+00  1.00301490E+00  0.00000000E+00
  0.00000000E+00  0.00000000E+00  2.48404901E-01  0.00000000E+00  0.00000000E+00
  0.00000000E+00  3.05213605E-01  0.00000000E+00  0.00000000E+00  0.00000000E+00
  0.00000000E+00  0.00000000E+00  0.00000000E+00  1.00301490E+00  0.00000000E+00
  0.00000000E+00  0.00000000E+00  0.00000000E+00  0.00000000E+00 -6.85323945E-02
  1.14045963E+00  0.00000000E+00  0.00000000E+00 -1.04558828E+00  2.44398227E+00
  0.00000000E+00  0.00000000E+00 -1.43456738E+00 -7.98791659E-01 -7.98791659E-01
  1.10737159E+00  0.00000000E+00  0.00000000E+00  0.00000000E+00  6.85323945E-02
 -1.14045963E+00  0.00000000E+00  0.00000000E+00 -1.04558828E+00 -2.44398227E+00
  0.00000000E+00  0.00000000E+00 -1.43456738E+00  7.98791659E-01  7.98791659E-01
 -1.10737159E+00  0.00000000E+00  0.00000000E+00  0.00000000E+00 -4.26639598E-01
  5.05672453E-01  4.26639598E-01 -5.05672453E-01 -2.91767805E-01  2.42265952E+00
  0.00000000E+00  0.00000000E+00 -1.91842272E-01  5.89485224E-01  0.00000000E+00
  0.00000000E+00  1.63496573E-01 -1.16073862E+00 -1.16073862E+00 -1.44844812E+00
  0.00000000E+00  0.00000000E+00  0.00000000E+00 -2.91767805E-01  2.42265952E+00
  0.00000000E+00  0.00000000E+00  1.91842272E-01  5.89485224E-01  0.00000000E+00
  0.00000000E+00 -1.63496573E-01 -1.16073862E+00 -1.16073862E+00 -1.44844812E+00
  0.00000000E+00  0.00000000E+00  0.00000000E+00  2.79108950E-01 -3.36779818E-01
  2.79108950E-01 -3.36779818E-01 -3.69733140E-01  1.55026498E+00  0.00000000E+00
  0.00000000E+00  7.75541818E-01  3.75452847E+00  0.00000000E+00  0.00000000E+00
 -1.86426484E+00 -1.11784829E+00 -1.11784829E+00 -2.00643397E+00  0.00000000E+00
  0.00000000E+00  0.00000000E+00  3.69733140E-01 -1.55026498E+00  0.00000000E+00
  0.00000000E+00  7.75541818E-01 -3.75452847E+00  0.00000000E+00  0.00000000E+00
 -1.86426484E+00  1.11784829E+00  1.11784829E+00  2.00643397E+00  0.00000000E+00
  0.00000000E+00  0.00000000E+00  4.14092493E-01  1.28921553E-01 -4.14092493E-01
 -1.28921553E-01
Orthonormal basis                          R   N=        1156
  2.77587075E-02  1.33053210E-01  0.00000000E+00  0.00000000E+00 -4.45582960E-02
  1.48673553E-01  0.00000000E+00  0.00000000E+00 -6.40493811E-02  9.31684259E-02
  9.31684259E-02  1.21830116E-01  0.00000000E+00  0.00000000E+00  0.00000000E+00
  2.77587075E-02  1.33053210E-01  0.00000000E+00  0.00000000E+00  4.45582960E-02
  1.48673553E-01  0.00000000E+00  0.00000000E+00  6.40493811E-02  9.31684259E-02
  9.31684259E-02  1.21830116E-01  0.00000000E+00  0.00000000E+00  0.00000000E+00
  4.18448792E-02  7.77551579E-02  4.18448792E-02  7.77551579E-02 -1.19776224E-02
 -1.80650854E-02  0.00000000E+00  0.00000000E+00  2.67359823E-01  4.14178316E-02
  0.00000000E+00  0.00000000E+00  2.12296109E-01 -1.93668989E-02 -1.93668989E-02
  6.66650880E-03  0.00000000E+00  0.00000000E+00  0.00000000E+00 -1.19776224E-02
 -1.80650854E-02  0.00000000E+00  0.00000000E+00 -2.67359823E-01  4.14178316E-02
  0.00000000E+00  0.00000000E+00 -2.12296109E-01 -1.93668989E-02 -1.93668989E-02
  6.66650880E-03  0.00000000E+00  0.00000000E+00  0.00000000E+00  2.32347216E-01
  1.95008819E-01  2.32347216E-01  1.95008819E-01  2.47418397E-01 -1.28837796E-02
  0.00000000E+00  0.00000000E+00 -3.02687070E-01 -1.38399051E-01  0.00000000E+00
  0.00000000E+00  1.16762168E-01 -2.49280969E-01 -2.49280969E-01  3.75569787E-01
  0.00000000E+00  0.00000000E+00  0.00000000E+00  2.47418397E-01 -1.28837796E-02
  0.00000000E+00  0.00000000E+00  3.02687070E-01 -1.38399051E-01  0.00000000E+00
  0.00000000E+00 -1.16762168E-01 -2.49280969E-01 -2.49280969E-01  3.75569787E-01
  0.00000000E+00  0.00000000E+00  0.00000000E+00  2.12637753E-01  1.55685577E-02
  2.12637753E-01  1.55685577E-02  6.61746253E-01  1.30011277E-02  0.00000000E+00
  0.00000000E+00  1.73716903E-01  5.71515928E-02  0.00000000E+00  0.00000000E+00
 -5.30211342E-02  1.74026752E-02  1.74026752E-02 -1.77275435E-01  0.00000000E+00
  0.00000000E+00  0.00000000E+00  6.61746253E-01  1.30011277E-02  0.00000000E+00
  0.00000000E+00 -1.73716903E-01  5.71515928E-02  0.00000000E+00  0.00000000E+00
  5.30211342E-02  1.74026752E-02  1.74026752E-02 -1.77275435E-01  0.00000000E+00
  0.00000000E+00  0.00000000E+00 -1.00078479E-01 -2.19784204E-02 -1.00078479E-01
 -2.19784204E-02 -3.44317805E-17  4.40621961E-16  0.00000000E+00  0.00000000E+00
  5.93318441E-16 -4.12713349E-16  0.00000000E+00  0.00000000E+00  1.21954378E-17
  5.77177039E-01 -5.77177039E-01  6.35900165E-16  0.00000000E+00  0.00000000E+00
  0.00000000E+00 -3.44317805E-17  4.40621961E-16  0.00000000E+00  0.00000000E+00
 -5.93318441E-16 -4.12713349E-16  0.00000000E+00  0.00000000E+00 -1.21954378E-17
  5.77177039E-01 -5.77177039E-01  6.35900165E-16  0.00000000E+00  0.00000000E+00
  0.00000000E+00  2.00895211E-18 -7.26774322E-16  2.00895211E-18 -7.26774322E-16
 -3.15061901E-02  2.61415893E-01  0.00000000E+00  0.00000000E+00  5.20803092E-01
 -2.37983422E-01  0.00000000E+00  0.00000000E+00 -1.24081270E-01  1.18615722E-02
  1.18615722E-02  4.44695430E-01  0.00000000E+00  0.00000000E+00  0.00000000E+00
 -3.15061901E-02  2.61415893E-01  0.00000000E+00  0.00000000E+00 -5.20803092E-01
 -2.37983422E-01  0.00000000E+00  0.00000000E+00  1.24081270E-01  1.18615722E-02
  1.18615722E-02  4.44695430E-01  0.00000000E+00  0.00000000E+00  0.00000000E+00
 -1.37358132E-02 -5.02600898E-01 -1.37358132E-02 -5.02600898E-01  3.88768841E-02
 -1.59167569E-01  0.00000000E+00  0.00000000E+00 -1.53756454E-01 -4.15122307E-02
  0.00000000E+00  0.00000000E+00 -4.81455207E-01  1.54343767E-01  1.54343767E-01
 -3.88452366E-01  0.00000000E+00  0.00000000E+00  0.00000000E+00  3.88768841E-02
 -1.59167569E-01  0.00000000E+00  0.00000000E+00  1.53756454E-01 -4.15122307E-02
  0.00000000E+00  0.00000000E+00  4.81455207E-01  1.54343767E-01  1.54343767E-01
 -3.88452366E-01  0.00000000E+00  0.00000000E+00  0.00000000E+00  1.04607525E+00
 -4.71033782E-01  1.04607525E+00 -4.71033782E-01 -1.44257382E-01 -4.61378403E-01
  0.00000000E+00  0.00000000E+00  3.51177739E-01  7.88038504E-01  0.00000000E+00
  0.00000000E+00 -7.37986570E-01 -5.66468101E-01 -5.66468101E-01  1.64426825E-01
  0.00000000E+00  0.00000000E+00  0.00000000E+00 -1.44257382E-01 -4.61378403E-01
  0.00000000E+00  0.00000000E+00 -3.51177739E-01  7.88038504E-01  0.00000000E+00
  0.00000000E+00  7.37986570E-01 -5.66468101E-01 -5.66468101E-01  1.64426825E-01
  0.00000000E+00  0.00000000E+00  0.00000000E+00 -6.52266062E-02  6.25454716E-02
 -6.52266062E-02  6.25454716E-02 -3.06217185E-01  2.61548917E+00  0.00000000E+00
  0.00000000E+00 -5.38775300E-02 -1.23860961E-01  0.00000000E+00  0.00000000E+00
 -3.02972081E-01 -1.12172688E+00 -1.12172688E+00 -1.31750119E+00  0.00000000E+00
  0.00000000E+00  0.00000000E+00 -3.06217185E-01  2.61548917E+00  0.00000000E+00
  0.00000000E+00  5.38775300E-02 -1.23860961E-01  0.00000000E+00  0.00000000E+00
  3.02972081E-01 -1.12172688E+00 -1.12172688E+00 -1.31750119E+00  0.00000000E+00
  0.00000000E+00  0.00000000E+00  2.03739996E-01  2.32972975E-01  2.03739996E-01
  2.32972975E-01 -7.21128107E-02  2.61554943E-01  0.00000000E+00  0.00000000E+00
 -5.32346992E-01  2.76147620E+00  0.00000000E+00  0.00000000E+00  2.60612978E+00
 -2.41270813E-01 -2.41270813E-01 -3.68944240E-01  0.00000000E+00  0.00000000E+00
  0.00000000E+00 -7.21128107E-02  2.61554943E-01  0.00000000E+00  0.00000000E+00
  5.32346992E-01  2.76147620E+00  0.00000000E+00  0.00000000E+00 -2.60612978E+00
 -2.41270813E-01 -2.41270813E-01 -3.68944240E-01  0.00000000E+00  0.00000000E+00
  0.00000000E+00 -8.13166004E-03 -2.69963429E+00 -8.13166004E-03 -2.69963429E+00
  0.00000000E+00  0.00000000E+00  0.00000000E+00  0.00000000E+00  0.00000000E+00
  0.00000000E+00  0.00000000E+00  0.00000000E+00  0.00000000E+00  0.00000000E+00
  0.00000000E+00  0.00000000E+00  6.66466638E-01  0.00000000E+00  0.00000000E+00
  0.00000000E+00  0.00000000E+00  0.00000000E+00  0.00000000E+00  0.00000000E+00
  0.00000000E+00  0.00000000E+00  0.00000000E+00  0.00000000E+00  0.00000000E+00
  0.00000000E+00  0.00000000E+00  6.66466638E-01  0.00000000E+00  0.00000000E+00
  0.00000000E+00  0.00000000E+00  0.00000000E+00  0.00000000E+00  0.00000000E+00
  0.00000000E+00  5.12463993E-01  0.00000000E+00  0.00000000E+00  0.00000000E+00
  2.57358810E-01  0.00000000E+00  0.00000000E+00  0.00000000E+00  0.00000000E+00
  0.00000000E+00  0.00000000E+00  3.31763817E-01  0.00000000E+00  0.00000000E+00
  0.00000000E+00 -5.12463993E-01  0.00000000E+00  0.00000000E+00  0.00000000E+00
 -2.57358810E-01  0.00000000E+00  0.00000000E+00  0.00000000E+00  0.00000000E+00
  0.00000000E+00  0.00000000E+00  3.31763817E-01  0.00000000E+00  0.00000000E+00
  0.00000000E+00  0.00000000E+00  0.00000000E+00  0.00000000E+00  0.00000000E+00
 -5.67681599E-01  0.00000000E+00  0.00000000E+00  0.00000000E+00 -4.19382130E-02
  0.00000000E+00  0.00000000E+00  0.00000000E+00  0.00000000E+00  0.00000000E+00
  0.00000000E+00  9.09410649E-01  0.00000000E+00  0.00000000E+00  0.00000000E+00
  5.67681599E-01  0.00000000E+00  0.00000000E+00  0.00000000E+00  4.19382130E-02
  0.00000000E+00  0.00000000E+00  0.00000000E+00  0.00000000E+00  0.00000000E+00
  0.00000000E+00  9.09410649E-01  0.00000000E+00  0.00000000E+00  0.00000000E+00
  0.00000000E+00  0.00000000E+00  0.00000000E+00  0.00000000E+00 -5.32727365E-01
  0.00000000E+00  0.00000000E+00  0.00000000E+00  1.40589791E+00  0.00000000E+00
  0.00000000E+00  0.00000000E+00  0.00000000E+00  0.00000000E+00  0.00000000E+00
 -2.67710387E-01  0.00000000E+00  0.00000000E+00  0.00000000E+00  5.32727365E-01
  0.00000000E+00  0.00000000E+00  0.00000000E+00 -1.40589791E+00  0.00000000E+00
  0.00000000E+00  0.00000000E+00  0.00000000E+00  0.00000000E+00  0.00000000E+00
 -2.67710387E-01  0.00000000E+00  0.00000000E+00  0.00000000E+00  0.00000000E+00
  0.00000000E+00  0.00000000E+00  0.00000000E+00  0.00000000E+00  5.12463993E-01
  0.00000000E+00  0.00000000E+00  0.00000000E+00  2.57358810E-01  0.00000000E+00
  0.00000000E+00  0.00000000E+00  0.00000000E+00  0.00000000E+00  0.00000000E+00
  3.31763817E-01  0.00000000E+00  0.00000000E+00  0.00000000E+00 -5.12463993E-01
  0.00000000E+00  0.00000000E+00  0.00000000E+00 -2.57358810E-01  0.00000000E+00
  0.00000000E+00  0.00000000E+00  0.00000000E+00  0.00000000E+00  0.00000000E+00
  3.31763817E-01  0.00000000E+00  0.00000000E+00  0.00000000E+00  0.00000000E+00
  0.00000000E+00  0.00000000E+00  0.00000000E+00 -5.67681599E-01  0.00000000E+00
  0.00000000E+00  0.00000000E+00 -4.19382130E-02  0.00000000E+00  0.00000000E+00
  0.00000000E+00  0.00000000E+00  0.00000000E+00  0.00000000E+00  9.09410649E-01
  0.00000000E+00  0.00000000E+00  0.00000000E+00  5.67681599E-01  0.00000000E+00
  0.00000000E+00  0.00000000E+00  4.19382130E-02  0.00000000E+00  0.00000000E+00
  0.00000000E+00  0.00000000E+00  0.00000000E+00  0.00000000E+00  9.09410649E-01
  0.00000000E+00  0.00000000E+00  0.00000000E+00  0.00000000E+00  0.00000000E+00
  0.00000000E+00  0.00000000E+00 -5.32727365E-01  0.00000000E+00  0.00000000E+00
  0.00000000E+00  1.40589791E+00  0.00000000E+00  0.00000000E+00  0.00000000E+00
  0.00000000E+00  0.00000000E+00  0.00000000E+00 -2.67710387E-01  0.00000000E+00
  0.00000000E+00  0.00000000E+00  5.32727365E-01  0.00000000E+00  0.00000000E+00
  0.00000000E+00 -1.40589791E+00  0.00000000E+00  0.00000000E+00  0.00000000E+00
  0.00000000E+00  0.00000000E+00  0.00000000E+00 -2.67710387E-01  0.00000000E+00
  0.00000000E+00  0.00000000E+00  0.00000000E+00  0.00000000E+00  0.00000000E+00
  0.00000000E+00  0.00000000E+00  0.00000000E+00  0.00000000E+00  0.00000000E+00
  0.00000000E+00  0.00000000E+00  0.00000000E+00  0.00000000E+00  0.00000000E+00
  7.56220861E-01  0.00000000E+00  0.00000000E+00  0.00000000E+00  0.00000000E+00
  0.00000000E+00  0.00000000E+00  0.00000000E+00  0.00000000E+00  0.00000000E+00
  0.00000000E+00  0.00000000E+00  0.00000000E+00  0.00000000E+00  0.00000000E+00
 -7.56220861E-01  0.00000000E+00  0.00000000E+00  0.00000000E+00  0.00000000E+00
  0.00000000E+00  0.00000000E+00  2.95808643E-02  1.17991230E-01  0.00000000E+00
  0.00000000E+00  9.29585467E-02  9.80900155E-02  0.00000000E+00  0.00000000E+00
  1.71069349E-01  9.17411750E-02  9.17411750E-02  8.22967392E-02  0.00000000E+00
  0.00000000E+00  0.00000000E+00 -2.95808643E-02 -1.17991230E-01  0.00000000E+00
  0.00000000E+00  9.29585467E-02 -9.80900155E-02  0.00000000E+00  0.00000000E+00
  1.71069349E-01 -9.17411750E-02 -9.17411750E-02 -8.22967392E-02  0.00000000E+00
  0.00000000E+00  0.00000000E+00  1.20758788E-01  1.45636984E-01 -1.20758788E-01
 -1.45636984E-01 -2.28274225E-01 -2.25075855E-01  0.00000000E+00  0.00000000E+00
  8.75696294E-02 -3.35392879E-02  0.00000000E+00  0.00000000E+00  4.21807158E-02
 -2.71146626E-01 -2.71146626E-01  1.60032663E-01  0.00000000E+00  0.00000000E+00
  0.00000000E+00  2.28274225E-01  2.25075855E-01  0.00000000E+00  0.00000000E+00
  8.75696294E-02  3.35392879E-02  0.00000000E+00  0.00000000E+00  4.21807158E-02
  2.71146626E-01  2.71146626E-01 -1.60032663E-01  0.00000000E+00  0.00000000E+00
  0.00000000E+00  3.14976333E-01  1.35868753E-01 -3.14976333E-01 -1.35868753E-01
  6.67362192E-01 -7.97711017E-02  0.00000000E+00  0.00000000E+00  2.42823927E-02
 -1.00862408E-02  0.00000000E+00  0.00000000E+00  9.67929448E-03 -1.71967585E-01
 -1.71967585E-01 -5.44836344E-03  0.00000000E+00  0.00000000E+00  0.00000000E+00
 -6.67362192E-01  7.97711017E-02  0.00000000E+00  0.00000000E+00  2.42823927E-02
  1.00862408E-02  0.00000000E+00  0.00000000E+00  9.67929448E-03  1.71967585E-01
  1.71967585E-01  5.44836344E-03  0.00000000E+00  0.00000000E+00  0.00000000E+00
  1.06950137E-01  4.00560564E-02 -1.06950137E-01 -4.00560564E-02  3.72710581E-02
  2.15922146E-01  0.00000000E+00  0.00000000E+00  5.49076780E-01 -9.94206317E-02
  0.00000000E+00  0.00000000E+00 -2.72024884E-01  8.44982361E-03  8.44982361E-03
  4.42571654E-01  0.00000000E+00  0.00000000E+00  0.00000000E+00 -3.72710581E-02
 -2.15922146E-01  0.00000000E+00  0.00000000E+00  5.49076780E-01  9.94206317E-02
  0.00000000E+00  0.00000000E+00 -2.72024884E-01 -8.44982361E-03 -8.44982361E-03
 -4.42571654E-01  0.00000000E+00  0.00000000E+00  0.00000000E+00  3.08862163E-02
 -4.32828913E-01 -3.08862163E-02  4.32828913E-01  1.30597820E-17 -1.42772163E-16
  0.00000000E+00  0.00000000E+00  5.82486065E-17 -3.19869725E-17  0.00000000E+00
  0.00000000E+00 -2.31765199E-16  6.54906476E-01 -6.54906476E-01 -9.38787894E-17
  0.00000000E+00  0.00000000E+00  0.00000000E+00 -1.30597820E-17  1.42772163E-16
  0.00000000E+00  0.00000000E+00  5.82486065E-17  3.19869725E-17  0.00000000E+00
  0.00000000E+00 -2.31765199E-16 -6.54906476E-01  6.54906476E-01  9.38787894E-17
  0.00000000E+00  0.00000000E+00  0.00000000E+00  5.11227793E-17  2.17456092E-16
 -5.11227793E-17 -2.17456092E-16  3.28736595E-02  2.00395161E-01  0.00000000E+00
  0.00000000E+00 -5.21371593E-01 -1.65285581E-01  0.00000000E+00  0.00000000E+00
 -3.22874017E-01  2.30461072E-01  2.30461072E-01 -1.12400395E-01  0.00000000E+00
  0.00000000E+00  0.00000000E+00 -3.28736595E-02 -2.00395161E-01  0.00000000E+00
  0.00000000E+00 -5.21371593E-01  1.65285581E-01  0.00000000E+00  0.00000000E+00
 -3.22874017E-01 -2.30461072E-01 -2.30461072E-01  1.12400395E-01  0.00000000E+00
  0.00000000E+00  0.00000000E+00  9.45156148E-01 -3.56200102E-01 -9.45156148E-01
  3.56200102E-01  6.09477991E-03  8.99323667E-01  0.00000000E+00  0.00000000E+00
 -1.37651455E+00  2.33677144E-01  0.00000000E+00  0.00000000E+00  2.40648858E-01
 -4.74207749E-01 -4.74207749E-01  1.41577157E+00  0.00000000E+00  0.00000000E+00
  0.00000000E+00 -6.09477991E-03 -8.99323667E-01  0.00000000E+00  0.00000000E+00
 -1.37651455E+00 -2.33677144E-01  0.00000000E+00  0.00000000E+00  2.40648858E-01
  4.74207749E-01  4.74207749E-01 -1.41577157E+00  0.00000000E+00  0.00000000E+00
  0.00000000E+00 -4.67540336E-01 -1.06208377E-01  4.67540336E-01  1.06208377E-01
 -2.09935242E-01  2.05664836E+00  0.00000000E+00  0.00000000E+00  3.89213433E-01
 -9.44125382E-01  0.00000000E+00  0.00000000E+00 -8.88092924E-01 -6.93227383E-01
 -6.93227383E-01 -9.90618413E-01  0.00000000E+00  0.00000000E+00  0.00000000E+00
  2.09935242E-01 -2.05664836E+00  0.00000000E+00  0.00000000E+00  3.89213433E-01
  9.44125382E-01  0.00000000E+00  0.00000000E+00 -8.88092924E-01  6.93227383E-01
  6.93227383E-01  9.90618413E-01  0.00000000E+00  0.00000000E+00  0.00000000E+00
  3.88913426E-03  1.23696355E+00 -3.88913426E-03 -1.23696355E+00  3.21637249E-01
 -9.98025281E-01  0.00000000E+00  0.00000000E+00 -3.27072465E-01 -1.51423948E+00
  0.00000000E+00  0.00000000E+00 -1.41748261E+00  9.37465144E-01  9.37465144E-01
  1.47367057E+00  0.00000000E+00  0.00000000E+00  0.00000000E+00 -3.21637249E-01
  9.98025281E-01  0.00000000E+00  0.00000000E+00 -3.27072465E-01  1.51423948E+00
  0.00000000E+00  0.00000000E+00 -1.41748261E+00 -9.37465144E-01 -9.37465144E-01
 -1.47367057E+00  0.00000000E+00  0.00000000E+00  0.00000000E+00 -3.04201732E-01
  1.87532135E+00  3.04201732E-01 -1.87532135E+00 -1.59406714E-01 -5.50024918E-01
  0.00000000E+00  0.00000000E+00  1.15004615E-01  1.72422944E+01  0.00000000E+00
  0.00000000E+00 -1.30951845E+01 -3.97782268E-01 -3.97782268E-01  6.17923217E-02
  0.00000000E+00  0.00000000E+00  0.00000000E+00  1.59406714E-01  5.50024918E-01
  0.00000000E+00  0.00000000E+00  1.15004615E-01 -1.72422944E+01  0.00000000E+00
  0.00000000E+00 -1.30951845E+01  3.97782268E-01  3.97782268E-01 -6.17923217E-02
  0.00000000E+00  0.00000000E+00  0.00000000E+00  5.16064686E-01  4.21178704E+00
 -5.16064686E-01 -4.21178704E+00  0.00000000E+00  0.00000000E+00  0.00000000E+00
  2.71193247E-01  0.00000000E+00  0.00000000E+00  0.00000000E+00  3.44712206E-01
  0.00000000E+00  0.00000000E+00  0.00000000E+00  0.00000000E+00  0.00000000E+00
  0.00000000E+00 -1.31189352E-01  0.00000000E+00  0.00000000E+00  0.00000000E+00
  2.71193247E-01  0.00000000E+00  0.00000000E+00  0.00000000E+00  3.44712206E-01
  0.00000000E+00  0.00000000E+00  0.00000000E+00  0.00000000E+00  0.00000000E+00
  0.00000000E+00  1.31189352E-01  0.00000000E+00  0.00000000E+00  0.00000000E+00
  0.00000000E+00  0.00000000E+00  0.00000000E+00  0.00000000E+00  4.73395564E-02
  0.00000000E+00  0.00000000E+00  0.00000000E+00  1.85385108E-01  0.00000000E+00
  0.00000000E+00  0.00000000E+00  0.00000000E+00  0.00000000E+00  0.00000000E+00
  5.84976423E-01  0.00000000E+00  0.00000000E+00  0.00000000E+00  4.73395564E-02
  0.00000000E+00  0.00000000E+00  0.00000000E+00  1.85385108E-01  0.00000000E+00
  0.00000000E+00  0.00000000E+00  0.00000000E+00  0.00000000E+00  0.00000000E+00
 -5.84976423E-01  0.00000000E+00  0.00000000E+00  0.00000000E+00  0.00000000E+00
  0.00000000E+00  0.00000000E+00  0.00000000E+00  7.96878241E-01  0.00000000E+00
  0.00000000E+00  0.00000000E+00 -5.81349717E-01  0.00000000E+00  0.00000000E+00
  0.00000000E+00  0.00000000E+00  0.00000000E+00  0.00000000E+00  1.19747934E-01
  0.00000000E+00  0.00000000E+00  0.00000000E+00  7.96878241E-01  0.00000000E+00
  0.00000000E+00  0.00000000E+00 -5.81349717E-01  0.00000000E+00  0.00000000E+00
  0.00000000E+00  0.00000000E+00  0.00000000E+00  0.00000000E+00 -1.19747934E-01
  0.00000000E+00  0.00000000E+00  0.00000000E+00  0.00000000E+00  0.00000000E+00
  0.00000000E+00  2.71193247E-01  0.00000000E+00  0.00000000E+00  0.00000000E+00
  3.44712206E-01  0.00000000E+00  0.00000000E+00  0.00000000E+00  0.00000000E+00
  0.00000000E+00  0.00000000E+00 -1.31189352E-01  0.00000000E+00  0.00000000E+00
  0.00000000E+00  2.71193247E-01  0.00000000E+00  0.00000000E+00  0.00000000E+00
  3.44712206E-01  0.00000000E+00  0.00000000E+00  0.00000000E+00  0.00000000E+00
  0.00000000E+00  0.00000000E+00  1.31189352E-01  0.00000000E+00  0.00000000E+00
  0.00000000E+00  0.00000000E+00  0.00000000E+00  0.00000000E+00  0.00000000E+00
  4.73395564E-02  0.00000000E+00  0.00000000E+00  0.00000000E+00  1.85385108E-01
  0.00000000E+00  0.00000000E+00  0.00000000E+00  0.00000000E+00  0.00000000E+00
  0.00000000E+00  5.84976423E-01  0.00000000E+00  0.00000000E+00  0.00000000E+00
  4.73395564E-02  0.00000000E+00  0.00000000E+00  0.00000000E+00  1.85385108E-01
  0.00000000E+00  0.00000000E+00  0.00000000E+00  0.00000000E+00  0.00000000E+00
  0.00000000E+00 -5.84976423E-01  0.00000000E+00  0.00000000E+00  0.00000000E+00
  0.00000000E+00  0.00000000E+00  0.00000000E+00  0.00000000E+00  7.96878241E-01
  0.00000000E+00  0.00000000E+00  0.00000000E+00 -5.81349717E-01  0.00000000E+00
  0.00000000E+00  0.00000000E+00  0.00000000E+00  0.00000000E+00  0.00000000E+00
  1.19747934E-01  0.00000000E+00  0.00000000E+00  0.00000000E+00  7.96878241E-01
  0.00000000E+00  0.00000000E+00  0.00000000E+00 -5.81349717E-01  0.00000000E+00
  0.00000000E+00  0.00000000E+00  0.00000000E+00  0.00000000E+00  0.00000000E+00
 -1.19747934E-01  0.00000000E+00  0.00000000E+00  0.00000000E+00  0.00000000E+00
  0.00000000E+00
Total SCF Density                          R   N=         595
  2.05691411E+00 -6.91727892E-02  3.26416021E-01  1.03313712E-19  1.86423866E-20
  3.50916669E-01  1.03313712E-19  1.86423866E-20  0.00000000E+00  3.50916669E-01
  6.74896386E-03  1.21781311E-03  1.25261980E-18  1.25261980E-18  4.32744004E-01
 -1.65992012E-01  2.63942612E-01  2.94094817E-19  2.94094817E-19  1.92117314E-02
  2.21203385E-01 -2.13847878E-19  7.08668009E-19  2.13152169E-01  0.00000000E+00
 -2.23466997E-18  6.18612249E-19  1.29471897E-01 -2.13847878E-19  7.08668009E-19
  0.00000000E+00  2.13152169E-01 -2.23466997E-18  6.18612249E-19  0.00000000E+00
  1.29471897E-01 -1.39696035E-02  4.62937075E-02 -2.23466997E-18 -2.23466997E-18
  6.71724479E-02  4.04108188E-02 -1.72166133E-18 -1.72166133E-18  1.70044441E-02
 -1.19038789E-02 -1.71403154E-02 -3.45966250E-19  1.72360970E-20  1.12594730E-03
 -1.30143288E-02 -2.54314684E-19 -3.37000057E-20 -2.20145144E-03  1.02376793E-03
 -1.19038789E-02 -1.71403154E-02  1.72360970E-20 -3.45966250E-19  1.12594730E-03
 -1.30143288E-02 -3.37000057E-20 -2.54314684E-19 -2.20145144E-03  1.02376793E-03
  1.02376793E-03 -2.70041605E-02  1.89170040E-02  5.78554220E-19  5.78554220E-19
  1.40678519E-02  1.72118982E-02  2.95742335E-19  2.95742335E-19  4.90771098E-03
 -7.81085700E-04 -7.81085700E-04  1.81919241E-03  0.00000000E+00  0.00000000E+00
 -2.09694973E-19 -2.09694973E-19  0.00000000E+00  0.00000000E+00 -1.27371944E-19
 -1.27371944E-19  0.00000000E+00  0.00000000E+00  0.00000000E+00  0.00000000E+00
  2.00489680E-36 -2.66916411E-19  6.37358336E-19 -1.36983152E-02  0.00000000E+00
  4.38459365E-19  5.34286465E-19 -8.32056680E-03  0.00000000E+00  2.53035304E-19
 -1.77251546E-20 -3.19030511E-20  3.17852797E-20  8.18561238E-21  5.34724780E-04
 -2.66916411E-19  6.37358336E-19  0.00000000E+00 -1.36983152E-02  4.38459365E-19
  5.34286465E-19  0.00000000E+00 -8.32056680E-03  2.53035304E-19 -3.19030511E-20
 -1.77251546E-20  3.17852797E-20  8.18561238E-21  0.00000000E+00  5.34724780E-04
  3.36043478E-02 -6.64419966E-02  1.53860046E-18  1.53860046E-18  1.00509010E-01
 -2.45391385E-02 -6.30700792E-20 -6.30700792E-20 -4.12005024E-03  2.55793611E-03
  2.55793611E-03 -3.45399886E-04  0.00000000E+00 -5.13201044E-20 -5.13201044E-20
  2.05691411E+00 -6.64419966E-02  1.13416520E-01 -2.83817449E-18 -2.83817449E-18
 -1.85403628E-01  7.38396388E-02 -1.93349728E-19 -1.93349728E-19 -1.26305627E-02
 -5.62962031E-03 -5.62962031E-03 -9.99756065E-05  0.00000000E+00  9.77434041E-20
  9.77434041E-20 -6.91727892E-02  3.26416021E-01 -1.53860046E-18  2.83817449E-18
  3.50916669E-01  0.00000000E+00 -9.43015724E-18  2.35172605E-18  2.13152169E-01
  0.00000000E+00 -3.49463543E-18 -5.24724279E-19 -1.61521932E-19  4.21172511E-19
 -2.09694973E-19 -1.36983152E-02  0.00000000E+00 -1.03313712E-19 -1.86423866E-20
  3.50916669E-01 -1.53860046E-18  2.83817449E-18  0.00000000E+00  3.50916669E-01
 -9.43015724E-18  2.35172605E-18  0.00000000E+00  2.13152169E-01 -3.49463543E-18
 -1.61521932E-19 -5.24724279E-19  4.21172511E-19 -2.09694973E-19  0.00000000E+00
 -1.36983152E-02 -1.03313712E-19 -1.86423866E-20  0.00000000E+00  3.50916669E-01
 -1.00509010E-01  1.85403628E-01 -9.43015724E-18 -9.43015724E-18 -2.65107951E-01
  1.53626404E-01 -3.49463543E-18 -3.49463543E-18 -1.51347418E-02 -1.05514133E-02
 -1.05514133E-02  3.78689845E-03  0.00000000E+00  4.63142613E-19  4.63142613E-19
 -6.74896386E-03 -1.21781311E-03  1.25261980E-18  1.25261980E-18  4.32744004E-01
 -2.45391385E-02  7.38396388E-02 -2.35172605E-18 -2.35172605E-18 -1.53626404E-01
  4.19841446E-02 -1.96007573E-19 -1.96007573E-19 -1.28041863E-02 -3.74476912E-03
 -3.74476912E-03 -1.57576265E-03  0.00000000E+00  3.83399092E-20  3.83399092E-20
 -1.65992012E-01  2.63942612E-01 -2.94094817E-19 -2.94094817E-19 -1.92117314E-02
  2.21203385E-01  6.30700792E-20  1.93349728E-19  2.13152169E-01  0.00000000E+00
 -3.49463543E-18  1.96007573E-19  1.29471897E-01  0.00000000E+00 -1.99211200E-18
 -2.34655354E-19 -1.40406756E-20  2.27838298E-19 -1.27371944E-19 -8.32056680E-03
  0.00000000E+00  2.13847878E-19 -7.08668009E-19  2.13152169E-01  0.00000000E+00
 -2.23466997E-18 -6.18612249E-19  1.29471897E-01  6.30700792E-20  1.93349728E-19
  0.00000000E+00  2.13152169E-01 -3.49463543E-18  1.96007573E-19  0.00000000E+00
  1.29471897E-01 -1.99211200E-18 -1.40406756E-20 -2.34655354E-19  2.27838298E-19
 -1.27371944E-19  0.00000000E+00 -8.32056680E-03  2.13847878E-19 -7.08668009E-19
  0.00000000E+00  2.13152169E-01 -2.23466997E-18 -6.18612249E-19  0.00000000E+00
  1.29471897E-01  4.12005024E-03  1.26305627E-02 -3.49463543E-18 -3.49463543E-18
 -1.51347418E-02  1.28041863E-02 -1.99211200E-18 -1.99211200E-18 -6.62733863E-04
 -9.17206533E-04 -9.17206533E-04  4.71882643E-04  0.00000000E+00  1.51925837E-19
  1.51925837E-19  1.39696035E-02 -4.62937075E-02 -2.23466997E-18 -2.23466997E-18
  6.71724479E-02 -4.04108188E-02 -1.72166133E-18 -1.72166133E-18  1.70044441E-02
  2.55793611E-03 -5.62962031E-03  5.24724279E-19  1.61521932E-19  1.05514133E-02
 -3.74476912E-03  2.34655354E-19  1.40406756E-20  9.17206533E-04  2.96229531E-04
  2.96229531E-04  5.58764064E-05  0.00000000E+00 -1.84264394E-20 -4.24854288E-21
 -1.19038789E-02 -1.71403154E-02  3.45966250E-19 -1.72360970E-20 -1.12594730E-03
 -1.30143288E-02  2.54314684E-19  3.37000057E-20  2.20145144E-03  1.02376793E-03
  2.55793611E-03 -5.62962031E-03  1.61521932E-19  5.24724279E-19  1.05514133E-02
 -3.74476912E-03  1.40406756E-20  2.34655354E-19  9.17206533E-04  2.96229531E-04
  2.96229531E-04  5.58764064E-05  0.00000000E+00 -4.24854288E-21 -1.84264394E-20
 -1.19038789E-02 -1.71403154E-02 -1.72360970E-20  3.45966250E-19 -1.12594730E-03
 -1.30143288E-02  3.37000057E-20  2.54314684E-19  2.20145144E-03  1.02376793E-03
  1.02376793E-03 -3.45399886E-04 -9.99756065E-05 -4.21172511E-19 -4.21172511E-19
 -3.78689845E-03 -1.57576265E-03 -2.27838298E-19 -2.27838298E-19 -4.71882643E-04
  5.58764064E-05  5.58764064E-05 -2.23539361E-04  0.00000000E+00  9.23887247E-21
  9.23887247E-21 -2.70041605E-02  1.89170040E-02 -5.78554220E-19 -5.78554220E-19
 -1.40678519E-02  1.72118982E-02 -2.95742335E-19 -2.95742335E-19 -4.90771098E-03
 -7.81085700E-04 -7.81085700E-04  1.81919241E-03  0.00000000E+00  0.00000000E+00
  2.09694973E-19  2.09694973E-19  0.00000000E+00  0.00000000E+00  1.27371944E-19
  1.27371944E-19  0.00000000E+00  0.00000000E+00  0.00000000E+00  0.00000000E+00
 -2.00489680E-36 -8.18561238E-21 -8.18561238E-21  0.00000000E+00  0.00000000E+00
  2.09694973E-19  2.09694973E-19  0.00000000E+00  0.00000000E+00  1.27371944E-19
  1.27371944E-19  0.00000000E+00  0.00000000E+00  0.00000000E+00  0.00000000E+00
  2.00489680E-36 -5.13201044E-20  9.77434041E-20  1.36983152E-02  0.00000000E+00
 -4.63142613E-19  3.83399092E-20  8.32056680E-03  0.00000000E+00 -1.51925837E-19
 -1.84264394E-20 -4.24854288E-21  9.23887247E-21 -8.18561238E-21 -5.34724780E-04
  0.00000000E+00 -2.66916411E-19  6.37358336E-19  1.36983152E-02  0.00000000E+00
 -4.38459365E-19  5.34286465E-19  8.32056680E-03  0.00000000E+00 -2.53035304E-19
 -1.77251546E-20 -3.19030511E-20  3.17852797E-20  8.18561238E-21  5.34724780E-04
 -5.13201044E-20  9.77434041E-20  0.00000000E+00  1.36983152E-02 -4.63142613E-19
  3.83399092E-20  0.00000000E+00  8.32056680E-03 -1.51925837E-19 -4.24854288E-21
 -1.84264394E-20  9.23887247E-21 -8.18561238E-21  0.00000000E+00 -5.34724780E-04
 -2.66916411E-19  6.37358336E-19  0.00000000E+00  1.36983152E-02 -4.38459365E-19
  5.34286465E-19  0.00000000E+00  8.32056680E-03 -2.53035304E-19 -3.19030511E-20
 -1.77251546E-20  3.17852797E-20  8.18561238E-21  0.00000000E+00  5.34724780E-04
 -7.58054461E-02  1.50201109E-01  3.70271178E-18  3.70271178E-18  2.41879489E-01
  1.33953846E-01  9.00040291E-19  9.00040291E-19  5.87950937E-02 -6.84782058E-03
 -6.84782058E-03  1.70333930E-02  0.00000000E+00  4.22130397E-19  4.22130397E-19
  2.35429264E-02 -4.65899889E-02 -9.96353167E-19 -9.96353167E-19 -6.50867282E-02
 -4.83357585E-02 -6.00003038E-20 -6.00003038E-20 -3.91951729E-03  3.08781337E-03
  3.08781337E-03 -1.80057912E-03  0.00000000E+00 -8.64084673E-20 -8.64084673E-20
  2.04886694E-01 -2.09558220E-02  5.01460836E-02  3.07068361E-18  3.07068361E-18
  2.00592276E-01  4.91786927E-02  5.84527531E-19  5.84527531E-19  3.81842361E-02
 -1.95482343E-03 -1.95482343E-03  9.49520572E-03  0.00000000E+00  2.02393623E-19
  2.02393623E-19  3.40094939E-02 -5.96186147E-02 -1.56146075E-18 -1.56146075E-18
 -1.02002357E-01 -5.24666533E-02 -1.16007035E-19 -1.16007035E-19 -7.57815459E-03
  3.59024016E-03  3.59024016E-03 -1.00401409E-03  0.00000000E+00 -8.12092050E-20
 -8.12092050E-20  1.35318137E-01  1.00976870E-01  2.35429264E-02 -4.65899889E-02
  9.96353167E-19  9.96353167E-19  6.50867282E-02 -4.83357585E-02  6.00003038E-20
  6.00003038E-20  3.91951729E-03  3.08781337E-03  3.08781337E-03 -1.80057912E-03
  0.00000000E+00 -8.64084673E-20 -8.64084673E-20 -7.58054461E-02  1.50201109E-01
 -3.70271178E-18 -3.70271178E-18 -2.41879489E-01  1.33953846E-01 -9.00040291E-19
 -9.00040291E-19 -5.87950937E-02 -6.84782058E-03 -6.84782058E-03  1.70333930E-02
  0.00000000E+00  4.22130397E-19  4.22130397E-19  1.84369506E-02  3.13430275E-02
  2.04886694E-01  3.40094939E-02 -5.96186147E-02  1.56146075E-18  1.56146075E-18
  1.02002357E-01 -5.24666533E-02  1.16007035E-19  1.16007035E-19  7.57815459E-03
  3.59024016E-03  3.59024016E-03 -1.00401409E-03  0.00000000E+00 -8.12092050E-20
 -8.12092050E-20 -2.09558220E-02  5.01460836E-02 -3.07068361E-18 -3.07068361E-18
 -2.00592276E-01  4.91786927E-02 -5.84527531E-19 -5.84527531E-19 -3.81842361E-02
 -1.95482343E-03 -1.95482343E-03  9.49520572E-03  0.00000000E+00  2.02393623E-19
  2.02393623E-19  3.13430275E-02  4.29942658E-02  1.35318137E-01  1.00976870E-01
Grdnt Energy                               R     -7.732564599819010E+01
Grdnt NVar                                 I                7
Grdnt IGetFC                               I                4
Internal Forces                            R   N=           7
 -3.70155977E-05  1.14767220E-05  1.14767220E-05  1.26422220E-15 -4.87936733E-16
 -8.60976724E-17 -7.30775199E-17
Internal Force Constants                   R   N=          28
  1.13502353E+00 -5.09849659E-03  4.16980848E-01 -5.09849659E-03  2.65650591E-04
  4.16980848E-01  1.33967551E-14 -1.16001909E-13  2.52440147E-14  5.64417234E-02
  1.32673702E-14  2.52545259E-14 -1.16348150E-13 -2.94743363E-02  5.64417234E-02
 -1.90384032E-16  1.81383508E-16 -5.03947094E-17  2.68818082E-17 -1.29220198E-18
  5.64417234E-02 -2.08645487E-16 -4.18753798E-17  3.52385155E-17 -3.38207621E-19
  3.49531694E-17 -2.94743363E-02  5.64417234E-02
Mulliken Charges                           R   N=           4
 -1.88305896E-01 -1.88305896E-01  1.88305896E-01  1.88305896E-01
Optimization MaxStp                        I                2
Optimization MaxJob                        I                1
Optimization Job offset                    I                0
Optimization Num results per geometry      I                2
Optimization Num geometry variables        I               12
Optimization Reference Energy              R     -7.700000000000000E+01
Opt point       1 Results for each geome   R   N=           2
 -3.25645998E-01  0.00000000E+00
Opt point       1 Geometries               R   N=          12
  2.61773365E-19  0.00000000E+00  1.13854427E+00  1.38516105E-16  0.00000000E+00
 -1.13854427E+00 -5.66947600E-19  0.00000000E+00  3.15415989E+00  3.85675559E-16
  0.00000000E+00 -3.15415989E+00
Opt point       1 Gradient at each geome   R   N=          12
 -1.18276450E-15 -1.31404693E-16  4.84923197E-05  3.13472647E-16  1.24945052E-16
 -4.84923197E-05  3.25977404E-17 -9.32955004E-18 -1.14767220E-05  8.36694109E-16
  1.57891906E-17  1.14767220E-05
Optimization Number of geometries          I   N=           1
           1
ONIOM Charges                              I   N=          16
           0           0           0           0           0           0
           0           0           0           0           0           0
           0           0           0           0
ONIOM Multiplicities                       I   N=          16
           1           0           0           0           0           0
           0           0           0           0           0           0
           0           0           0           0
Atom Layers                                I   N=           4
           1           1           1           1
Atom Modifiers                             I   N=           4
           0           0           0           0
Int Atom Modified Types                    I   N=           4
           0           0           0           0
Force Field                                I                0
Atom Modified Types                        C   N=           4
                                                
Link Atoms                                 I   N=           4
           0           0           0           0
Atom Modified MM Charges                   R   N=           4
  0.00000000E+00  0.00000000E+00  0.00000000E+00  0.00000000E+00
Link Distances                             R   N=          16
  0.00000000E+00  0.00000000E+00  0.00000000E+00  0.00000000E+00  0.00000000E+00
  0.00000000E+00  0.00000000E+00  0.00000000E+00  0.00000000E+00  0.00000000E+00
  0.00000000E+00  0.00000000E+00  0.00000000E+00  0.00000000E+00  0.00000000E+00
  0.00000000E+00
Cartesian Gradient                         R   N=          12
 -1.18276450E-15 -1.31404693E-16  4.84923197E-05  3.13472647E-16  1.24945052E-16
 -4.84923197E-05  3.25977404E-17 -9.32955004E-18 -1.14767220E-05  8.36694109E-16
  1.57891906E-17  1.14767220E-05
Cartesian Force Constants                  R   N=          78
  3.60561039E-02  3.00160219E-32  3.60561039E-02  1.29400562E-13  4.14533623E-16
  1.56220137E+00 -1.49143034E-02 -1.99944406E-32 -4.17282924E-14  3.60561039E-02
 -1.47930397E-32 -1.49143034E-02 -3.40367909E-16  1.75370340E-32  3.60561039E-02
 -4.17294690E-14 -3.42322924E-16 -1.14548617E+00  1.29894509E-13  3.69363695E-16
  1.56220137E+00 -1.97627194E-02 -1.15996091E-32 -4.17815670E-14 -1.37908107E-03
 -1.89364842E-33 -1.06856880E-14  1.38865799E-02 -1.30380406E-32 -1.97627194E-02
 -7.82071513E-17 -6.31843959E-34 -1.37908107E-03 -5.12528800E-18  1.35958901E-32
  1.38865799E-02 -1.09470116E-13 -7.85678503E-17 -4.22079345E-01  2.26462700E-14
 -4.22991577E-18  5.36414719E-03  3.78329800E-14  8.45178759E-17  4.16980848E-01
 -1.37908107E-03  7.10561260E-34 -1.07795798E-14 -1.97627194E-02  3.06875794E-33
 -4.23010611E-14  7.25522059E-03 -4.94941427E-35  1.38573424E-14  1.38865799E-02
  9.40553319E-34 -1.37908107E-03  4.21143942E-18  3.41261596E-33 -1.97627194E-02
 -2.20854847E-17 -3.77305665E-35  7.25522060E-03 -1.03423924E-18 -4.82662368E-33
  1.38865799E-02  2.25587701E-14  4.52565235E-18  5.36414719E-03 -1.09985572E-13
 -2.29343709E-17 -4.22079345E-01  1.38521270E-14 -1.08752140E-18 -2.65650578E-04
  3.84187845E-14  1.88103694E-17  4.16980848E-01
Nonadiabatic coupling                      R   N=          12
  0.00000000E+00  0.00000000E+00 -0.00000000E+00  0.00000000E+00  0.00000000E+00
 -0.00000000E+00  0.00000000E+00  0.00000000E+00 -0.00000000E+00  0.00000000E+00
  0.00000000E+00 -0.00000000E+00
Dipole Moment                              R   N=           3
  3.95881798E-17 -4.25929717E-34 -5.19793740E-16
Dipole Derivatives                         R   N=          36
 -1.96597593E-01  1.26668538E-18  3.71365558E-13  8.50356523E-19 -1.96597593E-01
  6.55815440E-18 -1.21292606E-13 -2.59604407E-18 -1.91000705E-01 -1.96597593E-01
 -1.16165904E-18  3.70698158E-13 -1.08464836E-18 -1.96597593E-01  6.13012384E-18
 -1.41424052E-13 -2.32960360E-18 -1.91000705E-01  1.96597593E-01 -6.51594804E-19
 -5.43817731E-14 -1.83227802E-19  1.96597593E-01 -6.50726209E-18  9.34103680E-14
  2.84014328E-18  1.91000705E-01  1.96597593E-01  5.46568462E-19 -5.29036417E-14
  4.17519635E-19  1.96597593E-01 -6.18101615E-18  8.47976473E-14  2.08550439E-18
  1.91000705E-01
Polarizability                             R   N=           6
  7.86305043E+00  4.39194179E-18  7.86305043E+00 -2.18096005E-15  7.08742220E-32
  2.78466530E+01
Polarizability Derivatives                 R   N=          72
 -2.25713134E-12 -2.73336218E-15 -6.97410138E-13  6.66433359E+00 -4.92628575E-17
 -2.77210802E-12 -2.26268179E-16 -7.79856389E-13 -5.69995521E-15 -2.62977189E-17
  6.66433359E+00 -1.27005094E-14  1.27401272E-01  4.82422615E-17  1.27401272E-01
  2.48986858E-12 -1.14574805E-14  7.15336702E+00  2.75239231E-12  4.02925070E-15
  6.94704227E-13 -6.66433359E+00 -4.85692586E-17  2.74646174E-12  2.47768400E-16
  1.02882765E-12  8.29455339E-15 -3.66320760E-17 -6.66433359E+00  1.73865181E-14
 -1.27401272E-01  3.17959632E-17 -1.27401272E-01 -1.99248511E-12  9.47790617E-15
 -7.15336702E+00  6.15117102E-13 -1.07556083E-15  1.36844863E-13  7.62217686E-01
  5.72307522E-17  5.30681484E-13 -4.09779837E-17  2.39142167E-13 -2.17822269E-15
  3.28331323E-17  7.62217686E-01 -4.56256295E-15  7.55622502E-01 -3.62279868E-17
  7.55622502E-01 -2.74638561E-12  1.26828749E-15  7.24902517E+00 -1.11039621E-12
 -1.75275451E-16 -1.34174365E-13 -7.62217686E-01  3.92290196E-17 -5.05064032E-13
  2.51671464E-17 -4.88104473E-13 -3.17654272E-16  3.15378120E-17 -7.62217686E-01
 -2.02868876E-16 -7.55622502E-01 -4.27950152E-17 -7.55622502E-01  2.24904240E-12
  6.59862231E-16 -7.24902517E+00
HyperPolarizability                        R   N=          10
 -1.04815759E-11  9.62225286E-17 -3.49385864E-12  2.77341703E-16  7.02414141E-13
  5.26499227E-17 -1.27599150E-14 -1.30908295E-12  1.43425745E-15  7.86336916E-12
Quadrupole Moment                          R   N=           6
 -1.55215196E+00 -1.55215196E+00  3.10430392E+00  1.11463923E-33 -2.38757809E-16
  9.26260366E-18
QEq coupling tensors                       R   N=          24
 -9.13399325E-02  0.00000000E+00 -9.13399325E-02  2.93143758E-17  0.00000000E+00
  1.82679865E-01 -9.13399325E-02  0.00000000E+00 -9.13399325E-02  7.20933760E-18
  0.00000000E+00  1.82679865E-01  1.66536550E-01  0.00000000E+00  1.66536550E-01
  2.08569109E-18  0.00000000E+00 -3.33073101E-01  1.66536550E-01  0.00000000E+00
  1.66536550E-01  7.59028163E-17  0.00000000E+00 -3.33073101E-01
Number of Normal Modes                     I                7
Vib-LE2Fix                                 I               14
Vib-NDFDPol                                I                0
Vib-NumROA                                 I                0
Vib-NDim                                   I                4
Vib-NDim0                                  I                4
Vib-LFlags                                 I                8
Vib-IFlags                                 I   N=          56
           0           0           1           0           0           0
           0           0           0           0           2           0
           0           0           0           0           0           0
           3           0           0           0           0           0
           0           0           4           0           0           0
           0           0           0           0           5           0
           0           0           0           0           0           0
           6           0           0           0           0           0
           0           0           7           0           0           0
           0           0
Vib-AtMass                                 R   N=           4
  1.20000000E+01  1.20000000E+01  1.00782504E+00  1.00782504E+00
Vib-E2                                     R   N=          98
  5.34883953E+02  5.34883953E+02  7.75165456E+02  7.75165456E+02  2.08792226E+03
  3.44146293E+03  3.54161197E+03  1.57232368E+00  1.57232368E+00  1.08481584E+00
  1.08481584E+00  3.82593655E+00  1.08481584E+00  1.22820679E+00  2.65039923E-01
  2.65039923E-01  3.84056432E-01  3.84056432E-01  9.82690172E+00  7.56993956E+00
  9.07660945E+00  4.06644428E-23  2.95122989E-23  8.10542764E+01  8.10542764E+01
  3.87711098E-26  7.65049406E+01  1.01794152E-24  1.23500409E+00  1.23500409E+00
  8.30295279E-25  5.43769245E-25  5.02560987E+01  7.33398340E-25  6.34868332E+01
  7.50000000E-01  7.50000000E-01  0.00000000E+00  0.00000000E+00  2.58146298E-01
  0.00000000E+00  2.16716678E-01  8.57142857E-01  8.57142857E-01  0.00000000E+00
  0.00000000E+00  4.10359747E-01  0.00000000E+00  3.56231950E-01  0.00000000E+00
  0.00000000E+00  0.00000000E+00  0.00000000E+00  0.00000000E+00  0.00000000E+00
  0.00000000E+00  0.00000000E+00  0.00000000E+00  0.00000000E+00  0.00000000E+00
  0.00000000E+00  0.00000000E+00  0.00000000E+00  1.00000000E+02  1.00000000E+02
  1.00000000E+02  1.00000000E+02  1.00000000E+02  1.00000000E+02  1.00000000E+02
  0.00000000E+00  0.00000000E+00  0.00000000E+00  0.00000000E+00  0.00000000E+00
  0.00000000E+00  0.00000000E+00  0.00000000E+00  0.00000000E+00  0.00000000E+00
  0.00000000E+00  0.00000000E+00  0.00000000E+00  0.00000000E+00  0.00000000E+00
  0.00000000E+00  0.00000000E+00  0.00000000E+00  0.00000000E+00  0.00000000E+00
  0.00000000E+00  0.00000000E+00  0.00000000E+00  0.00000000E+00  0.00000000E+00
  0.00000000E+00  0.00000000E+00  0.00000000E+00
Vib-Modes                                  R   N=          84
 -3.61790737E-06 -1.60241366E-01  5.26966140E-17  3.61790737E-06  1.60241366E-01
 -4.61264629E-17  1.55496193E-05  6.88710900E-01 -9.86813193E-17 -1.55496193E-05
 -6.88710900E-01  2.04516556E-17 -1.60241366E-01  3.61790737E-06  4.24946102E-15
  1.60241366E-01 -3.61790737E-06 -4.33435466E-15  6.88710900E-01 -1.55496194E-05
 -8.83032816E-14 -6.88710900E-01  1.55496193E-05  8.93140956E-14  2.23159112E-05
 -5.91783137E-02 -7.53313267E-19  2.23159112E-05 -5.91783137E-02  8.71241696E-18
 -2.65711730E-04  7.04626040E-01 -1.16312295E-16 -2.65711730E-04  7.04626040E-01
  2.15446111E-17 -5.91783137E-02 -2.23159112E-05  8.23313367E-15 -5.91783137E-02
 -2.23159112E-05  8.15549012E-15  7.04626040E-01  2.65711730E-04 -9.69622389E-14
  7.04626040E-01  2.65711730E-04 -9.81742960E-14 -7.32526349E-15  2.91579734E-17
  3.58032353E-01  7.44292960E-15 -4.27936413E-17 -3.58032353E-01  3.09052691E-14
 -7.34437821E-17  6.09764573E-01 -3.23062993E-14  2.35801344E-16 -6.09764573E-01
 -8.09190983E-15 -1.65524795E-17 -5.91783179E-02 -8.25896499E-15  2.42384349E-17
 -5.91783179E-02  9.70120486E-14  4.19011725E-17  7.04626090E-01  9.76750157E-14
 -1.33416526E-16  7.04626090E-01 -1.37818520E-14 -2.50228371E-17 -1.00122343E-01
  1.38649671E-14  1.56844430E-17  1.00122343E-01  5.89009051E-14  1.43074450E-16
  6.99982512E-01 -5.98905418E-14 -3.18837915E-17 -6.99982512E-01
ClPar MaxAn                                I              200
ClPar NIntPar                              I                4
ClPar NRealPar                             I               16
ClPar NBits                                I               30
ClPar LenBitVec                            I                1
ClPar Read BitMap                          I   N=         200
           0           0           0           0           0           0
           0           0           0           0           0           0
           0           0           0           0           0           0
           0           0           0           0           0           0
           0           0           0           0           0           0
           0           0           0           0           0           0
           0           0           0           0           0           0
           0           0           0           0           0           0
           0           0           0           0           0           0
           0           0           0           0           0           0
           0           0           0           0           0           0
           0           0           0           0           0           0
           0           0           0           0           0           0
           0           0           0           0           0           0
           0           0           0           0           0           0
           0           0           0           0           0           0
           0           0           0           0           0           0
           0           0           0           0           0           0
           0           0           0           0           0           0
           0           0           0           0           0           0
           0           0           0           0           0           0
           0           0           0           0           0           0
           0           0           0           0           0           0
           0           0           0           0           0           0
           0           0           0           0           0           0
           0           0           0           0           0           0
           0           0           0           0           0           0
           0           0           0           0           0           0
           0           0           0           0           0           0
           0           0           0           0           0           0
           0           0           0           0           0           0
           0           0           0           0           0           0
           0           0           0           0           0           0
           0           0
ClPar Default BitMap                       I   N=         200
        2016        2016        2016        2016        2016        2016
        2016        2016        2016        2016        2016        2016
        2016        2016        2016        2016        2016        2016
        2016        2016        2016        2016        2016        2016
        2016        2016        2016        2016        2016        2016
        2016        2016        2016        2016        2016        2016
        2016        2016        2016        2016        2016        2016
        2016        2016        2016        2016        2016        2016
        2016        2016        2016        2016        2016        2016
        2016        2016        2016        2016        2016        2016
        2016        2016        2016        2016        2016        2016
        2016        2016        2016        2016        2016        2016
        2016        2016        2016        2016        2016        2016
        2016        2016        2016        2016        2016        2016
        2016        2016         480         480         480         480
         480         480         480         480         480         480
         480         480         480         480         480         480
         480         480         480         480         480         480
         480         480         480         480         480         480
         480         480         480         480         480         480
         480         480         480         480         480         480
         480         480         480         480         480         480
         480         480         480         480         480         480
         480         480         480         480         480         480
         480         480         480         480         480         480
         480         480         480         480         480         480
         480         480         480         480         480         480
         480         480         480         480         480         480
         480         480         480         480         480         480
         480         480         480         480         480         480
         480         480         480         480         480         480
         480         480         480         480         480         480
         480         480         480         480         480         480
         480         480
ClPar Int Params                           I   N=         800
           0           0           0           0           0           0
           0           0           0           0           0           0
           0           0           0           0           0           0
           0           0           0           0           0           0
           0           0           0           0           0           0
           0           0           0           0           0           0
           0           0           0           0           0           0
           0           0           0           0           0           0
           0           0           0           0           0           0
           0           0           0           0           0           0
           0           0           0           0           0           0
           0           0           0           0           0           0
           0           0           0           0           0           0
           0           0           0           0           0           0
           0           0           0           0           0           0
           0           0           0           0           0           0
           0           0           0           0           0           0
           0           0           0           0           0           0
           0           0           0           0           0           0
           0           0           0           0           0           0
           0           0           0           0           0           0
           0           0           0           0           0           0
           0           0           0           0           0           0
           0           0           0           0           0           0
           0           0           0           0           0           0
           0           0           0           0           0           0
           0           0           0           0           0           0
           0           0           0           0           0           0
           0           0           0           0           0           0
           0           0           0           0           0           0
           0           0           0           0           0           0
           0           0           0           0           0           0
           0           0           0           0           0           0
           0           0           0           0           0           0
           0           0           0           0           0           0
           0           0           0           0           0           0
           0           0           0           0           0           0
           0           0           0           0           0           0
           0           0           0           0           0           0
           0           0           0           0           0           0
           0           0           0           0           0           0
           0           0           0           0           0           0
           0           0           0           0           0           0
           0           0           0           0           0           0
           0           0           0           0           0           0
           0           0           0           0           0           0
           0           0           0           0           0           0
           0           0           0           0           0           0
           0           0           0           0           0           0
           0           0           0           0           0           0
           0           0           0           0           0           0
           0           0           0           0           0           0
           0           0           0           0           0           0
           0           0           0           0           0           0
           0           0           0           0           0           0
           0           0           0           0           0           0
           0           0           0           0           0           0
           0           0           0           0           0           0
           0           0           0           0           0           0
           0           0           0           0           0           0
           0           0           0           0           0           0
           0           0           0           0           0           0
           0           0           0           0           0           0
           0           0           0           0           0           0
           0           0           0           0           0           0
           0           0           0           0           0           0
           0           0           0           0           0           0
           0           0           0           0           0           0
           0           0           0           0           0           0
           0           0           0           0           0           0
           0           0           0           0           0           0
           0           0           0           0           0           0
           0           0           0           0           0           0
           0           0           0           0           0           0
           0           0           0           0           0           0
           0           0           0           0           0           0
           0           0           0           0           0           0
           0           0           0           0           0           0
           0           0           0           0           0           0
           0           0           0           0           0           0
           0           0           0           0           0           0
           0           0           0           0           0           0
           0           0           0           0           0           0
           0           0           0           0           0           0
           0           0           0           0           0           0
           0           0           0           0           0           0
           0           0           0           0           0           0
           0           0           0           0           0           0
           0           0           0           0           0           0
           0           0           0           0           0           0
           0           0           0           0           0           0
           0           0           0           0           0           0
           0           0           0           0           0           0
           0           0           0           0           0           0
           0           0           0           0           0           0
           0           0           0           0           0           0
           0           0           0           0           0           0
           0           0           0           0           0           0
           0           0           0           0           0           0
           0           0           0           0           0           0
           0           0           0           0           0           0
           0           0           0           0           0           0
           0           0           0           0           0           0
           0           0           0           0           0           0
           0           0           0           0           0           0
           0           0           0           0           0           0
           0           0           0           0           0           0
           0           0           0           0           0           0
           0           0           0           0           0           0
           0           0           0           0           0           0
           0           0           0           0           0           0
           0           0           0           0           0           0
           0           0           0           0           0           0
           0           0           0           0           0           0
           0           0           0           0           0           0
           0           0           0           0           0           0
           0           0           0           0           0           0
           0           0           0           0           0           0
           0           0           0           0           0           0
           0           0           0           0           0           0
           0           0           0           0           0           0
           0           0           0           0           0           0
           0           0           0           0           0           0
           0           0           0           0           0           0
           0           0           0           0           0           0
           0           0           0           0           0           0
           0           0           0           0           0           0
           0           0           0           0           0           0
           0           0           0           0           0           0
           0           0           0           0           0           0
           0           0           0           0           0           0
           0           0           0           0           0           0
           0           0           0           0           0           0
           0           0
ClPar Real Params                          R   N=        3200
  0.00000000E+00  0.00000000E+00  0.00000000E+00  0.00000000E+00  0.00000000E+00
  0.00000000E+00  0.00000000E+00  0.00000000E+00  0.00000000E+00  0.00000000E+00
  0.00000000E+00  0.00000000E+00  0.00000000E+00  0.00000000E+00  0.00000000E+00
  0.00000000E+00  0.00000000E+00  0.00000000E+00  0.00000000E+00  0.00000000E+00
  0.00000000E+00  0.00000000E+00  0.00000000E+00  0.00000000E+00  0.00000000E+00
  0.00000000E+00  0.00000000E+00  0.00000000E+00  0.00000000E+00  0.00000000E+00
  0.00000000E+00  0.00000000E+00  0.00000000E+00  0.00000000E+00  0.00000000E+00
  0.00000000E+00  0.00000000E+00  0.00000000E+00  0.00000000E+00  0.00000000E+00
  0.00000000E+00  0.00000000E+00  0.00000000E+00  0.00000000E+00  0.00000000E+00
  0.00000000E+00  0.00000000E+00  0.00000000E+00  0.00000000E+00  0.00000000E+00
  0.00000000E+00  0.00000000E+00  0.00000000E+00  0.00000000E+00  0.00000000E+00
  0.00000000E+00  0.00000000E+00  0.00000000E+00  0.00000000E+00  0.00000000E+00
  0.00000000E+00  0.00000000E+00  0.00000000E+00  0.00000000E+00  0.00000000E+00
  0.00000000E+00  0.00000000E+00  0.00000000E+00  0.00000000E+00  0.00000000E+00
  0.00000000E+00  0.00000000E+00  0.00000000E+00  0.00000000E+00  0.00000000E+00
  0.00000000E+00  0.00000000E+00  0.00000000E+00  0.00000000E+00  0.00000000E+00
  0.00000000E+00  0.00000000E+00  0.00000000E+00  0.00000000E+00  0.00000000E+00
  0.00000000E+00  0.00000000E+00  0.00000000E+00  0.00000000E+00  0.00000000E+00
  0.00000000E+00  0.00000000E+00  0.00000000E+00  0.00000000E+00  0.00000000E+00
  0.00000000E+00  0.00000000E+00  0.00000000E+00  0.00000000E+00  0.00000000E+00
  0.00000000E+00  0.00000000E+00  0.00000000E+00  0.00000000E+00  0.00000000E+00
  0.00000000E+00  0.00000000E+00  0.00000000E+00  0.00000000E+00  0.00000000E+00
  0.00000000E+00  0.00000000E+00  0.00000000E+00  0.00000000E+00  0.00000000E+00
  0.00000000E+00  0.00000000E+00  0.00000000E+00  0.00000000E+00  0.00000000E+00
  0.00000000E+00  0.00000000E+00  0.00000000E+00  0.00000000E+00  0.00000000E+00
  0.00000000E+00  0.00000000E+00  0.00000000E+00  0.00000000E+00  0.00000000E+00
  0.00000000E+00  0.00000000E+00  0.00000000E+00  0.00000000E+00  0.00000000E+00
  0.00000000E+00  0.00000000E+00  0.00000000E+00  0.00000000E+00  0.00000000E+00
  0.00000000E+00  0.00000000E+00  0.00000000E+00  0.00000000E+00  0.00000000E+00
  0.00000000E+00  0.00000000E+00  0.00000000E+00  0.00000000E+00  0.00000000E+00
  0.00000000E+00  0.00000000E+00  0.00000000E+00  0.00000000E+00  0.00000000E+00
  0.00000000E+00  0.00000000E+00  0.00000000E+00  0.00000000E+00  0.00000000E+00
  0.00000000E+00  0.00000000E+00  0.00000000E+00  0.00000000E+00  0.00000000E+00
  0.00000000E+00  0.00000000E+00  0.00000000E+00  0.00000000E+00  0.00000000E+00
  0.00000000E+00  0.00000000E+00  0.00000000E+00  0.00000000E+00  0.00000000E+00
  0.00000000E+00  0.00000000E+00  0.00000000E+00  0.00000000E+00  0.00000000E+00
  0.00000000E+00  0.00000000E+00  0.00000000E+00  0.00000000E+00  0.00000000E+00
  0.00000000E+00  0.00000000E+00  0.00000000E+00  0.00000000E+00  0.00000000E+00
  0.00000000E+00  0.00000000E+00  0.00000000E+00  0.00000000E+00  0.00000000E+00
  0.00000000E+00  0.00000000E+00  0.00000000E+00  0.00000000E+00  0.00000000E+00
  2.26000000E-01  4.43000000E-01  1.01000000E-01  1.47000000E-01  1.92000000E-01
  2.40000000E-01  2.75000000E-01  3.03000000E-01  3.25000000E-01  4.13000000E-01
  9.60000000E-02  1.35000000E-01  1.73000000E-01  2.11000000E-01  2.48000000E-01
  2.86000000E-01  3.23000000E-01  3.60000000E-01  8.20000000E-02  1.04000000E-01
  1.17000000E-01  1.23000000E-01  1.29000000E-01  1.34000000E-01  1.40000000E-01
  1.44000000E-01  1.48000000E-01  1.52000000E-01  1.55000000E-01  1.76000000E-01
  1.98000000E-01  2.19000000E-01  2.39000000E-01  2.60000000E-01  2.80000000E-01
  3.00000000E-01  7.90000000E-02  9.90000000E-02  1.19000000E-01  1.26000000E-01
  1.33000000E-01  1.40000000E-01  1.47000000E-01  1.53000000E-01  1.58000000E-01
  1.63000000E-01  1.57000000E-01  1.70000000E-01  1.87000000E-01  2.03000000E-01
  2.19000000E-01  2.34000000E-01  2.50000000E-01  2.65000000E-01  7.40000000E-02
  9.20000000E-02  1.05000000E-01  1.06000000E-01  1.07000000E-01  1.08000000E-01
  1.09000000E-01  1.10000000E-01  1.11000000E-01  1.12000000E-01  1.13000000E-01
  1.14000000E-01  1.15000000E-01  1.16000000E-01  1.17000000E-01  1.17000000E-01
  1.26000000E-01  1.36000000E-01  1.46000000E-01  1.55000000E-01  1.65000000E-01
  1.73000000E-01  1.82000000E-01  1.90000000E-01  1.62000000E-01  1.78000000E-01
  1.10000000E-01  1.35000000E-01  1.59000000E-01  1.83000000E-01  2.07000000E-01
  2.31000000E-01  6.90000000E-02  9.40000000E-02  1.02000000E-01  1.03000000E-01
  1.05000000E-01  1.07000000E-01  1.09000000E-01  1.11000000E-01  1.13000000E-01
  1.15000000E-01  1.17000000E-01  1.19000000E-01  1.20000000E-01  1.22000000E-01
  1.24000000E-01  1.26000000E-01  1.28000000E-01  1.28000000E-01  1.28000000E-01
  1.28000000E-01  1.28000000E-01  1.28000000E-01  1.28000000E-01  1.28000000E-01
  1.28000000E-01  1.28000000E-01  1.28000000E-01  1.28000000E-01  1.28000000E-01
  1.28000000E-01  1.28000000E-01  1.28000000E-01  1.28000000E-01  1.28000000E-01
  1.28000000E-01  1.28000000E-01  1.28000000E-01  1.28000000E-01  1.28000000E-01
  1.28000000E-01  1.28000000E-01  1.28000000E-01  1.28000000E-01  1.28000000E-01
  1.28000000E-01  1.28000000E-01  1.28000000E-01  1.28000000E-01  1.28000000E-01
  1.28000000E-01  1.28000000E-01  1.28000000E-01  1.28000000E-01  1.28000000E-01
  1.28000000E-01  1.28000000E-01  1.28000000E-01  1.28000000E-01  1.28000000E-01
  1.28000000E-01  1.28000000E-01  1.28000000E-01  1.28000000E-01  1.28000000E-01
  1.28000000E-01  1.28000000E-01  1.28000000E-01  1.28000000E-01  1.28000000E-01
  1.28000000E-01  1.28000000E-01  1.28000000E-01  1.28000000E-01  1.28000000E-01
  1.28000000E-01  1.28000000E-01  1.28000000E-01  1.28000000E-01  1.28000000E-01
  1.28000000E-01  1.28000000E-01  1.28000000E-01  1.28000000E-01  1.28000000E-01
  1.28000000E-01  1.28000000E-01  1.28000000E-01  1.28000000E-01  1.28000000E-01
  1.28000000E-01  1.28000000E-01  1.28000000E-01  1.28000000E-01  1.28000000E-01
  1.28000000E-01  1.28000000E-01  1.28000000E-01  1.28000000E-01  1.28000000E-01
  1.28000000E-01  1.28000000E-01  1.28000000E-01  1.28000000E-01  1.28000000E-01
  1.28000000E-01  1.28000000E-01  1.28000000E-01  1.28000000E-01  1.28000000E-01
  1.28000000E-01  1.28000000E-01  1.28000000E-01  1.28000000E-01  1.28000000E-01
  5.47000000E-01  5.92000000E-01  5.99000000E-01  6.68000000E-01  6.98000000E-01
  7.18000000E-01  7.26000000E-01  7.36000000E-01  7.43000000E-01  7.45000000E-01
  6.07000000E-01  6.66000000E-01  6.93000000E-01  7.09000000E-01  7.20000000E-01
  7.29000000E-01  7.35000000E-01  7.40000000E-01  6.08000000E-01  7.34000000E-01
  7.46000000E-01  7.55000000E-01  7.61000000E-01  7.65000000E-01  7.67000000E-01
  7.60000000E-01  7.49000000E-01  7.33000000E-01  7.08000000E-01  6.48000000E-01
  6.88000000E-01  7.09000000E-01  7.22000000E-01  7.31000000E-01  7.38000000E-01
  7.44000000E-01  6.09000000E-01  7.30000000E-01  7.41000000E-01  7.52000000E-01
  7.58000000E-01  7.63000000E-01  7.66000000E-01  7.58000000E-01  7.48000000E-01
  7.33000000E-01  7.01000000E-01  6.45000000E-01  6.86000000E-01  7.08000000E-01
  7.22000000E-01  7.31000000E-01  7.38000000E-01  7.44000000E-01  6.08000000E-01
  7.28000000E-01  7.32000000E-01  7.32000000E-01  7.32000000E-01  7.32000000E-01
  7.32000000E-01  7.32000000E-01  7.32000000E-01  7.32000000E-01  7.32000000E-01
  7.31000000E-01  7.31000000E-01  7.31000000E-01  7.31000000E-01  7.46000000E-01
  7.37000000E-01  7.46000000E-01  7.51000000E-01  7.55000000E-01  7.58000000E-01
  7.47000000E-01  7.32000000E-01  7.11000000E-01  7.41000000E-01  7.07000000E-01
  7.47000000E-01  7.43000000E-01  7.42000000E-01  7.42000000E-01  7.43000000E-01
  7.44000000E-01  6.05000000E-01  7.24000000E-01  7.26000000E-01  7.26000000E-01
  7.27000000E-01  7.27000000E-01  7.27000000E-01  7.28000000E-01  7.28000000E-01
  7.28000000E-01  7.28000000E-01  7.28000000E-01  7.29000000E-01  7.29000000E-01
  7.29000000E-01  7.29000000E-01  7.29000000E-01  7.29000000E-01  7.29000000E-01
  7.29000000E-01  7.29000000E-01  7.29000000E-01  7.29000000E-01  7.29000000E-01
  7.29000000E-01  7.29000000E-01  7.29000000E-01  7.29000000E-01  7.29000000E-01
  7.29000000E-01  7.29000000E-01  7.29000000E-01  7.29000000E-01  7.29000000E-01
  7.29000000E-01  7.29000000E-01  7.29000000E-01  7.29000000E-01  7.29000000E-01
  7.29000000E-01  7.29000000E-01  7.29000000E-01  7.29000000E-01  7.29000000E-01
  7.29000000E-01  7.29000000E-01  7.29000000E-01  7.29000000E-01  7.29000000E-01
  7.29000000E-01  7.29000000E-01  7.29000000E-01  7.29000000E-01  7.29000000E-01
  7.29000000E-01  7.29000000E-01  7.29000000E-01  7.29000000E-01  7.29000000E-01
  7.29000000E-01  7.29000000E-01  7.29000000E-01  7.29000000E-01  7.29000000E-01
  7.29000000E-01  7.29000000E-01  7.29000000E-01  7.29000000E-01  7.29000000E-01
  7.29000000E-01  7.29000000E-01  7.29000000E-01  7.29000000E-01  7.29000000E-01
  7.29000000E-01  7.29000000E-01  7.29000000E-01  7.29000000E-01  7.29000000E-01
  7.29000000E-01  7.29000000E-01  7.29000000E-01  7.29000000E-01  7.29000000E-01
  7.29000000E-01  7.29000000E-01  7.29000000E-01  7.29000000E-01  7.29000000E-01
  7.29000000E-01  7.29000000E-01  7.29000000E-01  7.29000000E-01  7.29000000E-01
  7.29000000E-01  7.29000000E-01  7.29000000E-01  7.29000000E-01  7.29000000E-01
  7.29000000E-01  7.29000000E-01  7.29000000E-01  7.29000000E-01  7.29000000E-01
  7.29000000E-01  7.29000000E-01  7.29000000E-01  7.29000000E-01  7.29000000E-01
  7.29000000E-01  7.29000000E-01  7.29000000E-01  7.29000000E-01  7.29000000E-01
  1.00000000E+00  1.70400000E+00  3.23000000E-01  3.89000000E-01  4.67000000E-01
  5.67000000E-01  6.36000000E-01  6.64000000E-01  6.96000000E-01  8.79000000E-01
  3.07000000E-01  3.48000000E-01  4.00000000E-01  4.54000000E-01  5.09000000E-01
  5.65000000E-01  6.21000000E-01  6.77000000E-01  2.56000000E-01  3.50000000E-01
  3.64000000E-01  3.62000000E-01  3.62000000E-01  3.62000000E-01  3.62000000E-01
  3.65000000E-01  3.69000000E-01  3.75000000E-01  3.86000000E-01  4.46000000E-01
  4.55000000E-01  4.74000000E-01  4.96000000E-01  5.20000000E-01  5.45000000E-01
  5.70000000E-01  2.45000000E-01  3.22000000E-01  3.55000000E-01  3.59000000E-01
  3.64000000E-01  3.70000000E-01  3.76000000E-01  3.85000000E-01  3.95000000E-01
  4.08000000E-01  3.76000000E-01  4.23000000E-01  4.22000000E-01  4.32000000E-01
  4.45000000E-01  4.59000000E-01  4.75000000E-01  4.91000000E-01  2.28000000E-01
  2.92000000E-01  2.89000000E-01  2.92000000E-01  2.95000000E-01  2.98000000E-01
  3.00000000E-01  3.03000000E-01  3.06000000E-01  3.09000000E-01  3.12000000E-01
  3.15000000E-01  3.18000000E-01  3.21000000E-01  3.24000000E-01  3.61000000E-01
  3.69000000E-01  3.70000000E-01  3.72000000E-01  3.75000000E-01  3.78000000E-01
  3.85000000E-01  3.94000000E-01  4.07000000E-01  5.26000000E-01  6.21000000E-01
  3.36000000E-01  3.54000000E-01  3.71000000E-01  3.86000000E-01  4.02000000E-01
  4.17000000E-01  2.09000000E-01  2.94000000E-01  2.65000000E-01  2.72000000E-01
  2.78000000E-01  2.84000000E-01  2.91000000E-01  2.97000000E-01  3.03000000E-01
  3.10000000E-01  3.16000000E-01  3.22000000E-01  3.29000000E-01  3.35000000E-01
  3.41000000E-01  3.48000000E-01  3.54000000E-01  3.54000000E-01  3.54000000E-01
  3.54000000E-01  3.54000000E-01  3.54000000E-01  3.54000000E-01  3.54000000E-01
  3.54000000E-01  3.54000000E-01  3.54000000E-01  3.54000000E-01  3.54000000E-01
  3.54000000E-01  3.54000000E-01  3.54000000E-01  3.54000000E-01  3.54000000E-01
  3.54000000E-01  3.54000000E-01  3.54000000E-01  3.54000000E-01  3.54000000E-01
  3.54000000E-01  3.54000000E-01  3.54000000E-01  3.54000000E-01  3.54000000E-01
  3.54000000E-01  3.54000000E-01  3.54000000E-01  3.54000000E-01  3.54000000E-01
  3.54000000E-01  3.54000000E-01  3.54000000E-01  3.54000000E-01  3.54000000E-01
  3.54000000E-01  3.54000000E-01  3.54000000E-01  3.54000000E-01  3.54000000E-01
  3.54000000E-01  3.54000000E-01  3.54000000E-01  3.54000000E-01  3.54000000E-01
  3.54000000E-01  3.54000000E-01  3.54000000E-01  3.54000000E-01  3.54000000E-01
  3.54000000E-01  3.54000000E-01  3.54000000E-01  3.54000000E-01  3.54000000E-01
  3.54000000E-01  3.54000000E-01  3.54000000E-01  3.54000000E-01  3.54000000E-01
  3.54000000E-01  3.54000000E-01  3.54000000E-01  3.54000000E-01  3.54000000E-01
  3.54000000E-01  3.54000000E-01  3.54000000E-01  3.54000000E-01  3.54000000E-01
  3.54000000E-01  3.54000000E-01  3.54000000E-01  3.54000000E-01  3.54000000E-01
  3.54000000E-01  3.54000000E-01  3.54000000E-01  3.54000000E-01  3.54000000E-01
  3.54000000E-01  3.54000000E-01  3.54000000E-01  3.54000000E-01  3.54000000E-01
  3.54000000E-01  3.54000000E-01  3.54000000E-01  3.54000000E-01  3.54000000E-01
  3.54000000E-01  3.54000000E-01  3.54000000E-01  3.54000000E-01  3.54000000E-01
  2.74000000E-01  2.96000000E-01  5.80000000E-02  4.40000000E-02  3.90000000E-02
  3.90000000E-02  3.60000000E-02  3.20000000E-02  2.90000000E-02  3.30000000E-02
  5.50000000E-02  3.90000000E-02  3.30000000E-02  3.00000000E-02  2.80000000E-02
  2.60000000E-02  2.50000000E-02  2.50000000E-02  4.50000000E-02  4.40000000E-02
  3.30000000E-02  2.50000000E-02  2.10000000E-02  1.80000000E-02  1.50000000E-02
  1.80000000E-02  2.10000000E-02  2.50000000E-02  3.30000000E-02  5.00000000E-02
  3.80000000E-02  3.10000000E-02  2.70000000E-02  2.40000000E-02  2.20000000E-02
  2.10000000E-02  4.30000000E-02  4.00000000E-02  3.20000000E-02  2.50000000E-02
  2.10000000E-02  1.80000000E-02  1.60000000E-02  1.90000000E-02  2.20000000E-02
  2.80000000E-02  3.10000000E-02  4.70000000E-02  3.40000000E-02  2.80000000E-02
  2.40000000E-02  2.10000000E-02  1.90000000E-02  1.80000000E-02  3.90000000E-02
  3.60000000E-02  2.50000000E-02  2.50000000E-02  2.50000000E-02  2.60000000E-02
  2.60000000E-02  2.60000000E-02  2.70000000E-02  2.70000000E-02  2.70000000E-02
  2.70000000E-02  2.80000000E-02  2.80000000E-02  2.80000000E-02  3.30000000E-02
  3.30000000E-02  2.60000000E-02  2.10000000E-02  1.80000000E-02  1.60000000E-02
  1.80000000E-02  2.20000000E-02  2.60000000E-02  4.90000000E-02  8.20000000E-02
  3.00000000E-02  2.40000000E-02  2.10000000E-02  1.80000000E-02  1.60000000E-02
  1.50000000E-02  3.50000000E-02  3.60000000E-02  2.20000000E-02  2.30000000E-02
  2.40000000E-02  2.40000000E-02  2.50000000E-02  2.50000000E-02  2.60000000E-02
  2.70000000E-02  2.70000000E-02  2.80000000E-02  2.80000000E-02  2.90000000E-02
  3.00000000E-02  3.00000000E-02  3.10000000E-02  3.10000000E-02  3.10000000E-02
  3.10000000E-02  3.10000000E-02  3.10000000E-02  3.10000000E-02  3.10000000E-02
  3.10000000E-02  3.10000000E-02  3.10000000E-02  3.10000000E-02  3.10000000E-02
  3.10000000E-02  3.10000000E-02  3.10000000E-02  3.10000000E-02  3.10000000E-02
  3.10000000E-02  3.10000000E-02  3.10000000E-02  3.10000000E-02  3.10000000E-02
  3.10000000E-02  3.10000000E-02  3.10000000E-02  3.10000000E-02  3.10000000E-02
  3.10000000E-02  3.10000000E-02  3.10000000E-02  3.10000000E-02  3.10000000E-02
  3.10000000E-02  3.10000000E-02  3.10000000E-02  3.10000000E-02  3.10000000E-02
  3.10000000E-02  3.10000000E-02  3.10000000E-02  3.10000000E-02  3.10000000E-02
  3.10000000E-02  3.10000000E-02  3.10000000E-02  3.10000000E-02  3.10000000E-02
  3.10000000E-02  3.10000000E-02  3.10000000E-02  3.10000000E-02  3.10000000E-02
  3.10000000E-02  3.10000000E-02  3.10000000E-02  3.10000000E-02  3.10000000E-02
  3.10000000E-02  3.10000000E-02  3.10000000E-02  3.10000000E-02  3.10000000E-02
  3.10000000E-02  3.10000000E-02  3.10000000E-02  3.10000000E-02  3.10000000E-02
  3.10000000E-02  3.10000000E-02  3.10000000E-02  3.10000000E-02  3.10000000E-02
  3.10000000E-02  3.10000000E-02  3.10000000E-02  3.10000000E-02  3.10000000E-02
  3.10000000E-02  3.10000000E-02  3.10000000E-02  3.10000000E-02  3.10000000E-02
  3.10000000E-02  3.10000000E-02  3.10000000E-02  3.10000000E-02  3.10000000E-02
  3.10000000E-02  3.10000000E-02  3.10000000E-02  3.10000000E-02  3.10000000E-02
  3.10000000E-02  3.10000000E-02  3.10000000E-02  3.10000000E-02  3.10000000E-02
 -5.92770000E-01 -9.17860000E-01 -2.48668000E+00 -8.36430000E-01 -3.18470000E-01
 -4.55790000E-01 -5.70730000E-01 -6.77940000E-01 -7.69860000E-01 -8.51140000E-01
 -1.51908000E+00 -3.18830000E-01 -2.17900000E-01 -3.01260000E-01 -3.72750000E-01
 -4.15890000E-01 -4.45930000E-01 -5.91320000E-01 -9.56370000E-01 -2.88450000E-01
 -4.87320000E-01 -6.34280000E-01 -7.17490000E-01 -7.91980000E-01 -8.68490000E-01
 -9.17520000E-01 -9.54890000E-01 -9.88460000E-01 -1.50055000E+00 -2.92560000E-01
 -2.14960000E-01 -2.91180000E-01 -3.42080000E-01 -3.84480000E-01 -4.34940000E-01
 -5.24310000E-01 -8.10070000E-01 -2.58460000E-01 -4.35550000E-01 -5.32740000E-01
 -6.08450000E-01 -6.10260000E-01 -7.58920000E-01 -8.90130000E-01 -8.45780000E-01
 -8.69340000E-01 -1.38234000E+00 -2.64850000E-01 -1.97280000E-01 -2.65040000E-01
 -2.94470000E-01 -3.16570000E-01 -3.63590000E-01 -4.57840000E-01 -8.61830000E-01
 -1.33004000E+00 -6.82880000E-01 -6.25540000E-01 -6.35430000E-01 -8.79690000E-01
 -9.02690000E-01 -9.59650000E-01 -1.01869000E+00 -6.81170000E-01 -7.96500000E-01
 -9.04950000E-01 -8.34790000E-01 -9.01560000E-01 -9.74130000E-01 -1.03326000E+00
 -7.15490000E-01 -7.83960000E-01 -8.28380000E-01 -5.61040000E-01 -1.03841000E+00
 -8.62500000E-01 -9.59300000E-01 -1.01755000E+00 -7.64900000E-01 -1.29467000E+00
 -1.92740000E-01 -2.56010000E-01 -3.19820000E-01 -1.94660000E-01 -2.60090000E-01
 -4.27990000E-01  0.00000000E+00  0.00000000E+00  0.00000000E+00  0.00000000E+00
  0.00000000E+00  0.00000000E+00  0.00000000E+00  0.00000000E+00  0.00000000E+00
  0.00000000E+00  0.00000000E+00  0.00000000E+00  0.00000000E+00  0.00000000E+00
  0.00000000E+00  0.00000000E+00  0.00000000E+00  0.00000000E+00  0.00000000E+00
  0.00000000E+00  0.00000000E+00  0.00000000E+00  0.00000000E+00  0.00000000E+00
  0.00000000E+00  0.00000000E+00  0.00000000E+00  0.00000000E+00  0.00000000E+00
  0.00000000E+00  0.00000000E+00  0.00000000E+00  0.00000000E+00  0.00000000E+00
  0.00000000E+00  0.00000000E+00  0.00000000E+00  0.00000000E+00  0.00000000E+00
  0.00000000E+00  0.00000000E+00  0.00000000E+00  0.00000000E+00  0.00000000E+00
  0.00000000E+00  0.00000000E+00  0.00000000E+00  0.00000000E+00  0.00000000E+00
  0.00000000E+00  0.00000000E+00  0.00000000E+00  0.00000000E+00  0.00000000E+00
  0.00000000E+00  0.00000000E+00  0.00000000E+00  0.00000000E+00  0.00000000E+00
  0.00000000E+00  0.00000000E+00  0.00000000E+00  0.00000000E+00  0.00000000E+00
  0.00000000E+00  0.00000000E+00  0.00000000E+00  0.00000000E+00  0.00000000E+00
  0.00000000E+00  0.00000000E+00  0.00000000E+00  0.00000000E+00  0.00000000E+00
  0.00000000E+00  0.00000000E+00  0.00000000E+00  0.00000000E+00  0.00000000E+00
  0.00000000E+00  0.00000000E+00  0.00000000E+00  0.00000000E+00  0.00000000E+00
  0.00000000E+00  0.00000000E+00  0.00000000E+00  0.00000000E+00  0.00000000E+00
  0.00000000E+00  0.00000000E+00  0.00000000E+00  0.00000000E+00  0.00000000E+00
  0.00000000E+00  0.00000000E+00  0.00000000E+00  0.00000000E+00  0.00000000E+00
  0.00000000E+00  0.00000000E+00  0.00000000E+00  0.00000000E+00  0.00000000E+00
  0.00000000E+00  0.00000000E+00  0.00000000E+00  0.00000000E+00  0.00000000E+00
  0.00000000E+00  0.00000000E+00  0.00000000E+00  0.00000000E+00  0.00000000E+00
  1.90440000E+00  1.36430000E+00  4.84000000E-01  7.31600000E+00  9.24030000E+00
  8.78200000E+00  5.61290000E+00  4.83340000E+00  3.24870000E+00  2.71090000E+00
  2.01130000E+00  1.50282000E+01  1.46788000E+01  2.13546000E+01  2.38290000E+01
  1.98022000E+01  1.50468000E+01  1.09745000E+01  1.27219000E+01  1.51949000E+01
  1.57342000E+01  2.79222000E+01  1.61366000E+01  2.21252000E+01  2.45676000E+01
  1.96016000E+01  1.79818000E+01  1.72396000E+01  5.01500000E+00  1.92898000E+01
  2.34477000E+01  2.23993000E+01  2.96586000E+01  2.60081000E+01  2.15580000E+01
  1.69594000E+01  1.56479000E+01  1.86897000E+01  1.93530000E+01  3.43444000E+01
  1.98480000E+01  2.72140000E+01  3.02182000E+01  2.41099000E+01  2.21176000E+01
  2.12047000E+01  7.56690000E+00  2.37264000E+01  2.93879000E+01  3.01278000E+01
  4.19382000E+01  3.85203000E+01  3.39511000E+01  2.75774000E+01  1.56460000E+01
  1.04460000E+01  2.01830000E+01  4.99540000E+01  4.76430000E+01  1.18690000E+01
  1.08670000E+01  9.96100000E+00  9.18700000E+00  3.67980000E+01  1.34070000E+01
  9.38200000E+00  9.81700000E+00  8.90800000E+00  8.40700000E+00  8.05800000E+00
  1.29600000E+01  2.67920000E+01  2.49300000E+01  3.45630000E+01  1.11860000E+01
  1.09440000E+01  1.01270000E+01  9.40400000E+00  1.36660000E+01  7.81000000E+00
  6.93600000E+01  5.86630000E+01  4.79690000E+01  4.52740000E+01  3.92290000E+01
  3.30660000E+01  0.00000000E+00  0.00000000E+00  0.00000000E+00  0.00000000E+00
  0.00000000E+00  0.00000000E+00  0.00000000E+00  0.00000000E+00  0.00000000E+00
  0.00000000E+00  0.00000000E+00  0.00000000E+00  0.00000000E+00  0.00000000E+00
  0.00000000E+00  0.00000000E+00  0.00000000E+00  0.00000000E+00  0.00000000E+00
  0.00000000E+00  0.00000000E+00  0.00000000E+00  0.00000000E+00  0.00000000E+00
  0.00000000E+00  0.00000000E+00  0.00000000E+00  0.00000000E+00  0.00000000E+00
  0.00000000E+00  0.00000000E+00  0.00000000E+00  0.00000000E+00  0.00000000E+00
  0.00000000E+00  0.00000000E+00  0.00000000E+00  0.00000000E+00  0.00000000E+00
  0.00000000E+00  0.00000000E+00  0.00000000E+00  0.00000000E+00  0.00000000E+00
  0.00000000E+00  0.00000000E+00  0.00000000E+00  0.00000000E+00  0.00000000E+00
  0.00000000E+00  0.00000000E+00  0.00000000E+00  0.00000000E+00  0.00000000E+00
  0.00000000E+00  0.00000000E+00  0.00000000E+00  0.00000000E+00  0.00000000E+00
  0.00000000E+00  0.00000000E+00  0.00000000E+00  0.00000000E+00  0.00000000E+00
  0.00000000E+00  0.00000000E+00  0.00000000E+00  0.00000000E+00  0.00000000E+00
  0.00000000E+00  0.00000000E+00  0.00000000E+00  0.00000000E+00  0.00000000E+00
  0.00000000E+00  0.00000000E+00  0.00000000E+00  0.00000000E+00  0.00000000E+00
  0.00000000E+00  0.00000000E+00  0.00000000E+00  0.00000000E+00  0.00000000E+00
  0.00000000E+00  0.00000000E+00  0.00000000E+00  0.00000000E+00  0.00000000E+00
  0.00000000E+00  0.00000000E+00  0.00000000E+00  0.00000000E+00  0.00000000E+00
  0.00000000E+00  0.00000000E+00  0.00000000E+00  0.00000000E+00  0.00000000E+00
  0.00000000E+00  0.00000000E+00  0.00000000E+00  0.00000000E+00  0.00000000E+00
  0.00000000E+00  0.00000000E+00  0.00000000E+00  0.00000000E+00  0.00000000E+00
  0.00000000E+00  0.00000000E+00  0.00000000E+00  0.00000000E+00  0.00000000E+00
  0.00000000E+00  0.00000000E+00  0.00000000E+00  0.00000000E+00  0.00000000E+00
  0.00000000E+00  0.00000000E+00  0.00000000E+00  0.00000000E+00  0.00000000E+00
  0.00000000E+00  0.00000000E+00  0.00000000E+00  0.00000000E+00  0.00000000E+00
  0.00000000E+00  0.00000000E+00  0.00000000E+00  0.00000000E+00  0.00000000E+00
  0.00000000E+00  0.00000000E+00  0.00000000E+00  0.00000000E+00  0.00000000E+00
  0.00000000E+00  0.00000000E+00  0.00000000E+00  0.00000000E+00  0.00000000E+00
  0.00000000E+00  0.00000000E+00  0.00000000E+00  0.00000000E+00  0.00000000E+00
  0.00000000E+00  0.00000000E+00  0.00000000E+00  0.00000000E+00  0.00000000E+00
  0.00000000E+00  0.00000000E+00  0.00000000E+00  0.00000000E+00  0.00000000E+00
  0.00000000E+00  0.00000000E+00  0.00000000E+00  0.00000000E+00  0.00000000E+00
  0.00000000E+00  0.00000000E+00  0.00000000E+00  0.00000000E+00  0.00000000E+00
  0.00000000E+00  0.00000000E+00  0.00000000E+00  0.00000000E+00  0.00000000E+00
  0.00000000E+00  0.00000000E+00  0.00000000E+00  0.00000000E+00  0.00000000E+00
  0.00000000E+00  0.00000000E+00  0.00000000E+00  0.00000000E+00  0.00000000E+00
  0.00000000E+00  0.00000000E+00  0.00000000E+00  0.00000000E+00  0.00000000E+00
  0.00000000E+00  0.00000000E+00  0.00000000E+00  0.00000000E+00  0.00000000E+00
  0.00000000E+00  0.00000000E+00  0.00000000E+00  0.00000000E+00  0.00000000E+00
  0.00000000E+00  0.00000000E+00  0.00000000E+00  0.00000000E+00  0.00000000E+00
  0.00000000E+00  0.00000000E+00  0.00000000E+00  0.00000000E+00  0.00000000E+00
  0.00000000E+00  0.00000000E+00  0.00000000E+00  0.00000000E+00  0.00000000E+00
  0.00000000E+00  0.00000000E+00  0.00000000E+00  0.00000000E+00  0.00000000E+00
  0.00000000E+00  0.00000000E+00  0.00000000E+00  0.00000000E+00  0.00000000E+00
  0.00000000E+00  0.00000000E+00  0.00000000E+00  0.00000000E+00  0.00000000E+00
  0.00000000E+00  0.00000000E+00  0.00000000E+00  0.00000000E+00  0.00000000E+00
  0.00000000E+00  0.00000000E+00  0.00000000E+00  0.00000000E+00  0.00000000E+00
  0.00000000E+00  0.00000000E+00  0.00000000E+00  0.00000000E+00  0.00000000E+00
  0.00000000E+00  0.00000000E+00  0.00000000E+00  0.00000000E+00  0.00000000E+00
  0.00000000E+00  0.00000000E+00  0.00000000E+00  0.00000000E+00  0.00000000E+00
  0.00000000E+00  0.00000000E+00  0.00000000E+00  0.00000000E+00  0.00000000E+00
  0.00000000E+00  0.00000000E+00  0.00000000E+00  0.00000000E+00  0.00000000E+00
  0.00000000E+00  0.00000000E+00  0.00000000E+00  0.00000000E+00  0.00000000E+00
  0.00000000E+00  0.00000000E+00  0.00000000E+00  0.00000000E+00  0.00000000E+00
  0.00000000E+00  0.00000000E+00  0.00000000E+00  0.00000000E+00  0.00000000E+00
  0.00000000E+00  0.00000000E+00  0.00000000E+00  0.00000000E+00  0.00000000E+00
  0.00000000E+00  0.00000000E+00  0.00000000E+00  0.00000000E+00  0.00000000E+00
  0.00000000E+00  0.00000000E+00  0.00000000E+00  0.00000000E+00  0.00000000E+00
  0.00000000E+00  0.00000000E+00  0.00000000E+00  0.00000000E+00  0.00000000E+00
  0.00000000E+00  0.00000000E+00  0.00000000E+00  0.00000000E+00  0.00000000E+00
  0.00000000E+00  0.00000000E+00  0.00000000E+00  0.00000000E+00  0.00000000E+00
  0.00000000E+00  0.00000000E+00  0.00000000E+00  0.00000000E+00  0.00000000E+00
  0.00000000E+00  0.00000000E+00  0.00000000E+00  0.00000000E+00  0.00000000E+00
  0.00000000E+00  0.00000000E+00  0.00000000E+00  0.00000000E+00  0.00000000E+00
  0.00000000E+00  0.00000000E+00  0.00000000E+00  0.00000000E+00  0.00000000E+00
  0.00000000E+00  0.00000000E+00  0.00000000E+00  0.00000000E+00  0.00000000E+00
  0.00000000E+00  0.00000000E+00  0.00000000E+00  0.00000000E+00  0.00000000E+00
  0.00000000E+00  0.00000000E+00  0.00000000E+00  0.00000000E+00  0.00000000E+00
  0.00000000E+00  0.00000000E+00  0.00000000E+00  0.00000000E+00  0.00000000E+00
  0.00000000E+00  0.00000000E+00  0.00000000E+00  0.00000000E+00  0.00000000E+00
  0.00000000E+00  0.00000000E+00  0.00000000E+00  0.00000000E+00  0.00000000E+00
  0.00000000E+00  0.00000000E+00  0.00000000E+00  0.00000000E+00  0.00000000E+00
  0.00000000E+00  0.00000000E+00  0.00000000E+00  0.00000000E+00  0.00000000E+00
  0.00000000E+00  0.00000000E+00  0.00000000E+00  0.00000000E+00  0.00000000E+00
  0.00000000E+00  0.00000000E+00  0.00000000E+00  0.00000000E+00  0.00000000E+00
  0.00000000E+00  0.00000000E+00  0.00000000E+00  0.00000000E+00  0.00000000E+00
  0.00000000E+00  0.00000000E+00  0.00000000E+00  0.00000000E+00  0.00000000E+00
  0.00000000E+00  0.00000000E+00  0.00000000E+00  0.00000000E+00  0.00000000E+00
  0.00000000E+00  0.00000000E+00  0.00000000E+00  0.00000000E+00  0.00000000E+00
  0.00000000E+00  0.00000000E+00  0.00000000E+00  0.00000000E+00  0.00000000E+00
  0.00000000E+00  0.00000000E+00  0.00000000E+00  0.00000000E+00  0.00000000E+00
  0.00000000E+00  0.00000000E+00  0.00000000E+00  0.00000000E+00  0.00000000E+00
  0.00000000E+00  0.00000000E+00  0.00000000E+00  0.00000000E+00  0.00000000E+00
  0.00000000E+00  0.00000000E+00  0.00000000E+00  0.00000000E+00  0.00000000E+00
  0.00000000E+00  0.00000000E+00  0.00000000E+00  0.00000000E+00  0.00000000E+00
  0.00000000E+00  0.00000000E+00  0.00000000E+00  0.00000000E+00  0.00000000E+00
  0.00000000E+00  0.00000000E+00  0.00000000E+00  0.00000000E+00  0.00000000E+00
  0.00000000E+00  0.00000000E+00  0.00000000E+00  0.00000000E+00  0.00000000E+00
  0.00000000E+00  0.00000000E+00  0.00000000E+00  0.00000000E+00  0.00000000E+00
  0.00000000E+00  0.00000000E+00  0.00000000E+00  0.00000000E+00  0.00000000E+00
  0.00000000E+00  0.00000000E+00  0.00000000E+00  0.00000000E+00  0.00000000E+00
  0.00000000E+00  0.00000000E+00  0.00000000E+00  0.00000000E+00  0.00000000E+00
  0.00000000E+00  0.00000000E+00  0.00000000E+00  0.00000000E+00  0.00000000E+00
  0.00000000E+00  0.00000000E+00  0.00000000E+00  0.00000000E+00  0.00000000E+00
  0.00000000E+00  0.00000000E+00  0.00000000E+00  0.00000000E+00  0.00000000E+00
  0.00000000E+00  0.00000000E+00  0.00000000E+00  0.00000000E+00  0.00000000E+00
  0.00000000E+00  0.00000000E+00  0.00000000E+00  0.00000000E+00  0.00000000E+00
  0.00000000E+00  0.00000000E+00  0.00000000E+00  0.00000000E+00  0.00000000E+00
  0.00000000E+00  0.00000000E+00  0.00000000E+00  0.00000000E+00  0.00000000E+00
  0.00000000E+00  0.00000000E+00  0.00000000E+00  0.00000000E+00  0.00000000E+00
  0.00000000E+00  0.00000000E+00  0.00000000E+00  0.00000000E+00  0.00000000E+00
  0.00000000E+00  0.00000000E+00  0.00000000E+00  0.00000000E+00  0.00000000E+00
  0.00000000E+00  0.00000000E+00  0.00000000E+00  0.00000000E+00  0.00000000E+00
  0.00000000E+00  0.00000000E+00  0.00000000E+00  0.00000000E+00  0.00000000E+00
  0.00000000E+00  0.00000000E+00  0.00000000E+00  0.00000000E+00  0.00000000E+00
  0.00000000E+00  0.00000000E+00  0.00000000E+00  0.00000000E+00  0.00000000E+00
  0.00000000E+00  0.00000000E+00  0.00000000E+00  0.00000000E+00  0.00000000E+00
  0.00000000E+00  0.00000000E+00  0.00000000E+00  0.00000000E+00  0.00000000E+00
  0.00000000E+00  0.00000000E+00  0.00000000E+00  0.00000000E+00  0.00000000E+00
  0.00000000E+00  0.00000000E+00  0.00000000E+00  0.00000000E+00  0.00000000E+00
  0.00000000E+00  0.00000000E+00  0.00000000E+00  0.00000000E+00  0.00000000E+00
  0.00000000E+00  0.00000000E+00  0.00000000E+00  0.00000000E+00  0.00000000E+00
  0.00000000E+00  0.00000000E+00  0.00000000E+00  0.00000000E+00  0.00000000E+00
  0.00000000E+00  0.00000000E+00  0.00000000E+00  0.00000000E+00  0.00000000E+00
  0.00000000E+00  0.00000000E+00  0.00000000E+00  0.00000000E+00  0.00000000E+00
  0.00000000E+00  0.00000000E+00  0.00000000E+00  0.00000000E+00  0.00000000E+00
  0.00000000E+00  0.00000000E+00  0.00000000E+00  0.00000000E+00  0.00000000E+00
  0.00000000E+00  0.00000000E+00  0.00000000E+00  0.00000000E+00  0.00000000E+00
  0.00000000E+00  0.00000000E+00  0.00000000E+00  0.00000000E+00  0.00000000E+00
  0.00000000E+00  0.00000000E+00  0.00000000E+00  0.00000000E+00  0.00000000E+00
  0.00000000E+00  0.00000000E+00  0.00000000E+00  0.00000000E+00  0.00000000E+00
  0.00000000E+00  0.00000000E+00  0.00000000E+00  0.00000000E+00  0.00000000E+00
  0.00000000E+00  0.00000000E+00  0.00000000E+00  0.00000000E+00  0.00000000E+00
  0.00000000E+00  0.00000000E+00  0.00000000E+00  0.00000000E+00  0.00000000E+00
  0.00000000E+00  0.00000000E+00  0.00000000E+00  0.00000000E+00  0.00000000E+00
  0.00000000E+00  0.00000000E+00  0.00000000E+00  0.00000000E+00  0.00000000E+00
  0.00000000E+00  0.00000000E+00  0.00000000E+00  0.00000000E+00  0.00000000E+00
  0.00000000E+00  0.00000000E+00  0.00000000E+00  0.00000000E+00  0.00000000E+00
  0.00000000E+00  0.00000000E+00  0.00000000E+00  0.00000000E+00  0.00000000E+00
  0.00000000E+00  0.00000000E+00  0.00000000E+00  0.00000000E+00  0.00000000E+00
  0.00000000E+00  0.00000000E+00  0.00000000E+00  0.00000000E+00  0.00000000E+00
  0.00000000E+00  0.00000000E+00  0.00000000E+00  0.00000000E+00  0.00000000E+00
  0.00000000E+00  0.00000000E+00  0.00000000E+00  0.00000000E+00  0.00000000E+00
  0.00000000E+00  0.00000000E+00  0.00000000E+00  0.00000000E+00  0.00000000E+00
  0.00000000E+00  0.00000000E+00  0.00000000E+00  0.00000000E+00  0.00000000E+00
  0.00000000E+00  0.00000000E+00  0.00000000E+00  0.00000000E+00  0.00000000E+00
  0.00000000E+00  0.00000000E+00  0.00000000E+00  0.00000000E+00  0.00000000E+00
  0.00000000E+00  0.00000000E+00  0.00000000E+00  0.00000000E+00  0.00000000E+00
  0.00000000E+00  0.00000000E+00  0.00000000E+00  0.00000000E+00  0.00000000E+00
  0.00000000E+00  0.00000000E+00  0.00000000E+00  0.00000000E+00  0.00000000E+00
  0.00000000E+00  0.00000000E+00  0.00000000E+00  0.00000000E+00  0.00000000E+00
  0.00000000E+00  0.00000000E+00  0.00000000E+00  0.00000000E+00  0.00000000E+00
  0.00000000E+00  0.00000000E+00  0.00000000E+00  0.00000000E+00  0.00000000E+00
  0.00000000E+00  0.00000000E+00  0.00000000E+00  0.00000000E+00  0.00000000E+00
  0.00000000E+00  0.00000000E+00  0.00000000E+00  0.00000000E+00  0.00000000E+00
  0.00000000E+00  0.00000000E+00  0.00000000E+00  0.00000000E+00  0.00000000E+00
  0.00000000E+00  0.00000000E+00  0.00000000E+00  0.00000000E+00  0.00000000E+00
  0.00000000E+00  0.00000000E+00  0.00000000E+00  0.00000000E+00  0.00000000E+00
  0.00000000E+00  0.00000000E+00  0.00000000E+00  0.00000000E+00  0.00000000E+00
  0.00000000E+00  0.00000000E+00  0.00000000E+00  0.00000000E+00  0.00000000E+00
  0.00000000E+00  0.00000000E+00  0.00000000E+00  0.00000000E+00  0.00000000E+00
  0.00000000E+00  0.00000000E+00  0.00000000E+00  0.00000000E+00  0.00000000E+00
  0.00000000E+00  0.00000000E+00  0.00000000E+00  0.00000000E+00  0.00000000E+00
  0.00000000E+00  0.00000000E+00  0.00000000E+00  0.00000000E+00  0.00000000E+00
  0.00000000E+00  0.00000000E+00  0.00000000E+00  0.00000000E+00  0.00000000E+00
  0.00000000E+00  0.00000000E+00  0.00000000E+00  0.00000000E+00  0.00000000E+00
  0.00000000E+00  0.00000000E+00  0.00000000E+00  0.00000000E+00  0.00000000E+00
  0.00000000E+00  0.00000000E+00  0.00000000E+00  0.00000000E+00  0.00000000E+00
  0.00000000E+00  0.00000000E+00  0.00000000E+00  0.00000000E+00  0.00000000E+00
  0.00000000E+00  0.00000000E+00  0.00000000E+00  0.00000000E+00  0.00000000E+00
  0.00000000E+00  0.00000000E+00  0.00000000E+00  0.00000000E+00  0.00000000E+00
  0.00000000E+00  0.00000000E+00  0.00000000E+00  0.00000000E+00  0.00000000E+00
  0.00000000E+00  0.00000000E+00  0.00000000E+00  0.00000000E+00  0.00000000E+00
  0.00000000E+00  0.00000000E+00  0.00000000E+00  0.00000000E+00  0.00000000E+00
  0.00000000E+00  0.00000000E+00  0.00000000E+00  0.00000000E+00  0.00000000E+00
  0.00000000E+00  0.00000000E+00  0.00000000E+00  0.00000000E+00  0.00000000E+00
  0.00000000E+00  0.00000000E+00  0.00000000E+00  0.00000000E+00  0.00000000E+00
  0.00000000E+00  0.00000000E+00  0.00000000E+00  0.00000000E+00  0.00000000E+00
  0.00000000E+00  0.00000000E+00  0.00000000E+00  0.00000000E+00  0.00000000E+00
  0.00000000E+00  0.00000000E+00  0.00000000E+00  0.00000000E+00  0.00000000E+00
  0.00000000E+00  0.00000000E+00  0.00000000E+00  0.00000000E+00  0.00000000E+00
  0.00000000E+00  0.00000000E+00  0.00000000E+00  0.00000000E+00  0.00000000E+00
  0.00000000E+00  0.00000000E+00  0.00000000E+00  0.00000000E+00  0.00000000E+00
  0.00000000E+00  0.00000000E+00  0.00000000E+00  0.00000000E+00  0.00000000E+00
  0.00000000E+00  0.00000000E+00  0.00000000E+00  0.00000000E+00  0.00000000E+00
  0.00000000E+00  0.00000000E+00  0.00000000E+00  0.00000000E+00  0.00000000E+00
  0.00000000E+00  0.00000000E+00  0.00000000E+00  0.00000000E+00  0.00000000E+00
  0.00000000E+00  0.00000000E+00  0.00000000E+00  0.00000000E+00  0.00000000E+00
  0.00000000E+00  0.00000000E+00  0.00000000E+00  0.00000000E+00  0.00000000E+00
  0.00000000E+00  0.00000000E+00  0.00000000E+00  0.00000000E+00  0.00000000E+00
  0.00000000E+00  0.00000000E+00  0.00000000E+00  0.00000000E+00  0.00000000E+00
  0.00000000E+00  0.00000000E+00  0.00000000E+00  0.00000000E+00  0.00000000E+00
  0.00000000E+00  0.00000000E+00  0.00000000E+00  0.00000000E+00  0.00000000E+00
  0.00000000E+00  0.00000000E+00  0.00000000E+00  0.00000000E+00  0.00000000E+00
  0.00000000E+00  0.00000000E+00  0.00000000E+00  0.00000000E+00  0.00000000E+00
  0.00000000E+00  0.00000000E+00  0.00000000E+00  0.00000000E+00  0.00000000E+00
  0.00000000E+00  0.00000000E+00  0.00000000E+00  0.00000000E+00  0.00000000E+00
  0.00000000E+00  0.00000000E+00  0.00000000E+00  0.00000000E+00  0.00000000E+00
  0.00000000E+00  0.00000000E+00  0.00000000E+00  0.00000000E+00  0.00000000E+00
  0.00000000E+00  0.00000000E+00  0.00000000E+00  0.00000000E+00  0.00000000E+00
  0.00000000E+00  0.00000000E+00  0.00000000E+00  0.00000000E+00  0.00000000E+00
  0.00000000E+00  0.00000000E+00  0.00000000E+00  0.00000000E+00  0.00000000E+00
  0.00000000E+00  0.00000000E+00  0.00000000E+00  0.00000000E+00  0.00000000E+00
  0.00000000E+00  0.00000000E+00  0.00000000E+00  0.00000000E+00  0.00000000E+00
  0.00000000E+00  0.00000000E+00  0.00000000E+00  0.00000000E+00  0.00000000E+00
  0.00000000E+00  0.00000000E+00  0.00000000E+00  0.00000000E+00  0.00000000E+00
  0.00000000E+00  0.00000000E+00  0.00000000E+00  0.00000000E+00  0.00000000E+00
  0.00000000E+00  0.00000000E+00  0.00000000E+00  0.00000000E+00  0.00000000E+00
  0.00000000E+00  0.00000000E+00  0.00000000E+00  0.00000000E+00  0.00000000E+00
  0.00000000E+00  0.00000000E+00  0.00000000E+00  0.00000000E+00  0.00000000E+00
  0.00000000E+00  0.00000000E+00  0.00000000E+00  0.00000000E+00  0.00000000E+00
  0.00000000E+00  0.00000000E+00  0.00000000E+00  0.00000000E+00  0.00000000E+00
  0.00000000E+00  0.00000000E+00  0.00000000E+00  0.00000000E+00  0.00000000E+00
  0.00000000E+00  0.00000000E+00  0.00000000E+00  0.00000000E+00  0.00000000E+00
  0.00000000E+00  0.00000000E+00  0.00000000E+00  0.00000000E+00  0.00000000E+00
  0.00000000E+00  0.00000000E+00  0.00000000E+00  0.00000000E+00  0.00000000E+00
  0.00000000E+00  0.00000000E+00  0.00000000E+00  0.00000000E+00  0.00000000E+00
  0.00000000E+00  0.00000000E+00  0.00000000E+00  0.00000000E+00  0.00000000E+00
  0.00000000E+00  0.00000000E+00  0.00000000E+00  0.00000000E+00  0.00000000E+00
  0.00000000E+00  0.00000000E+00  0.00000000E+00  0.00000000E+00  0.00000000E+00
  0.00000000E+00  0.00000000E+00  0.00000000E+00  0.00000000E+00  0.00000000E+00
  0.00000000E+00  0.00000000E+00  0.00000000E+00  0.00000000E+00  0.00000000E+00
  0.00000000E+00  0.00000000E+00  0.00000000E+00  0.00000000E+00  0.00000000E+00
  0.00000000E+00  0.00000000E+00  0.00000000E+00  0.00000000E+00  0.00000000E+00
  0.00000000E+00  0.00000000E+00  0.00000000E+00  0.00000000E+00  0.00000000E+00
  0.00000000E+00  0.00000000E+00  0.00000000E+00  0.00000000E+00  0.00000000E+00
  0.00000000E+00  0.00000000E+00  0.00000000E+00  0.00000000E+00  0.00000000E+00
  0.00000000E+00  0.00000000E+00  0.00000000E+00  0.00000000E+00  0.00000000E+00
  0.00000000E+00  0.00000000E+00  0.00000000E+00  0.00000000E+00  0.00000000E+00
  0.00000000E+00  0.00000000E+00  0.00000000E+00  0.00000000E+00  0.00000000E+00
  0.00000000E+00  0.00000000E+00  0.00000000E+00  0.00000000E+00  0.00000000E+00
  0.00000000E+00  0.00000000E+00  0.00000000E+00  0.00000000E+00  0.00000000E+00
  0.00000000E+00  0.00000000E+00  0.00000000E+00  0.00000000E+00  0.00000000E+00
  0.00000000E+00  0.00000000E+00  0.00000000E+00  0.00000000E+00  0.00000000E+00
  0.00000000E+00  0.00000000E+00  0.00000000E+00  0.00000000E+00  0.00000000E+00
  0.00000000E+00  0.00000000E+00  0.00000000E+00  0.00000000E+00  0.00000000E+00
  0.00000000E+00  0.00000000E+00  0.00000000E+00  0.00000000E+00  0.00000000E+00
  0.00000000E+00  0.00000000E+00  0.00000000E+00  0.00000000E+00  0.00000000E+00
  0.00000000E+00  0.00000000E+00  0.00000000E+00  0.00000000E+00  0.00000000E+00
  0.00000000E+00  0.00000000E+00  0.00000000E+00  0.00000000E+00  0.00000000E+00
  0.00000000E+00  0.00000000E+00  0.00000000E+00  0.00000000E+00  0.00000000E+00
  0.00000000E+00  0.00000000E+00  0.00000000E+00  0.00000000E+00  0.00000000E+00
  0.00000000E+00  0.00000000E+00  0.00000000E+00  0.00000000E+00  0.00000000E+00
  0.00000000E+00  0.00000000E+00  0.00000000E+00  0.00000000E+00  0.00000000E+00
  0.00000000E+00  0.00000000E+00  0.00000000E+00  0.00000000E+00  0.00000000E+00
  0.00000000E+00  0.00000000E+00  0.00000000E+00  0.00000000E+00  0.00000000E+00
  0.00000000E+00  0.00000000E+00  0.00000000E+00  0.00000000E+00  0.00000000E+00
  0.00000000E+00  0.00000000E+00  0.00000000E+00  0.00000000E+00  0.00000000E+00
  0.00000000E+00  0.00000000E+00  0.00000000E+00  0.00000000E+00  0.00000000E+00
  0.00000000E+00  0.00000000E+00  0.00000000E+00  0.00000000E+00  0.00000000E+00
  0.00000000E+00  0.00000000E+00  0.00000000E+00  0.00000000E+00  0.00000000E+00
  0.00000000E+00  0.00000000E+00  0.00000000E+00  0.00000000E+00  0.00000000E+00
  0.00000000E+00  0.00000000E+00  0.00000000E+00  0.00000000E+00  0.00000000E+00
  0.00000000E+00  0.00000000E+00  0.00000000E+00  0.00000000E+00  0.00000000E+00
  0.00000000E+00  0.00000000E+00  0.00000000E+00  0.00000000E+00  0.00000000E+00
  0.00000000E+00  0.00000000E+00  0.00000000E+00  0.00000000E+00  0.00000000E+00
  0.00000000E+00  0.00000000E+00  0.00000000E+00  0.00000000E+00  0.00000000E+00
  0.00000000E+00  0.00000000E+00  0.00000000E+00  0.00000000E+00  0.00000000E+00
  0.00000000E+00  0.00000000E+00  0.00000000E+00  0.00000000E+00  0.00000000E+00
  0.00000000E+00  0.00000000E+00  0.00000000E+00  0.00000000E+00  0.00000000E+00
  0.00000000E+00  0.00000000E+00  0.00000000E+00  0.00000000E+00  0.00000000E+00
  0.00000000E+00  0.00000000E+00  0.00000000E+00  0.00000000E+00  0.00000000E+00
  0.00000000E+00  0.00000000E+00  0.00000000E+00  0.00000000E+00  0.00000000E+00
  0.00000000E+00  0.00000000E+00  0.00000000E+00  0.00000000E+00  0.00000000E+00
  0.00000000E+00  0.00000000E+00  0.00000000E+00  0.00000000E+00  0.00000000E+00
  0.00000000E+00  0.00000000E+00  0.00000000E+00  0.00000000E+00  0.00000000E+00
  0.00000000E+00  0.00000000E+00  0.00000000E+00  0.00000000E+00  0.00000000E+00
  0.00000000E+00  0.00000000E+00  0.00000000E+00  0.00000000E+00  0.00000000E+00
  0.00000000E+00  0.00000000E+00  0.00000000E+00  0.00000000E+00  0.00000000E+00
  0.00000000E+00  0.00000000E+00  0.00000000E+00  0.00000000E+00  0.00000000E+00
  0.00000000E+00  0.00000000E+00  0.00000000E+00  0.00000000E+00  0.00000000E+00
  0.00000000E+00  0.00000000E+00  0.00000000E+00  0.00000000E+00  0.00000000E+00
  0.00000000E+00  0.00000000E+00  0.00000000E+00  0.00000000E+00  0.00000000E+00
  0.00000000E+00  0.00000000E+00  0.00000000E+00  0.00000000E+00  0.00000000E+00
  0.00000000E+00  0.00000000E+00  0.00000000E+00  0.00000000E+00  0.00000000E+00
  0.00000000E+00  0.00000000E+00  0.00000000E+00  0.00000000E+00  0.00000000E+00
  0.00000000E+00  0.00000000E+00  0.00000000E+00  0.00000000E+00  0.00000000E+00
  0.00000000E+00  0.00000000E+00  0.00000000E+00  0.00000000E+00  0.00000000E+00
  0.00000000E+00  0.00000000E+00  0.00000000E+00  0.00000000E+00  0.00000000E+00
  0.00000000E+00  0.00000000E+00  0.00000000E+00  0.00000000E+00  0.00000000E+00
  0.00000000E+00  0.00000000E+00  0.00000000E+00  0.00000000E+00  0.00000000E+00
  0.00000000E+00  0.00000000E+00  0.00000000E+00  0.00000000E+00  0.00000000E+00
  0.00000000E+00  0.00000000E+00  0.00000000E+00  0.00000000E+00  0.00000000E+00
  0.00000000E+00  0.00000000E+00  0.00000000E+00  0.00000000E+00  0.00000000E+00
  0.00000000E+00  0.00000000E+00  0.00000000E+00  0.00000000E+00  0.00000000E+00
  0.00000000E+00  0.00000000E+00  0.00000000E+00  0.00000000E+00  0.00000000E+00
  0.00000000E+00  0.00000000E+00  0.00000000E+00  0.00000000E+00  0.00000000E+00
  0.00000000E+00  0.00000000E+00  0.00000000E+00  0.00000000E+00  0.00000000E+00
  0.00000000E+00  0.00000000E+00  0.00000000E+00  0.00000000E+00  0.00000000E+00
  0.00000000E+00  0.00000000E+00  0.00000000E+00  0.00000000E+00  0.00000000E+00
  0.00000000E+00  0.00000000E+00  0.00000000E+00  0.00000000E+00  0.00000000E+00
  0.00000000E+00  0.00000000E+00  0.00000000E+00  0.00000000E+00  0.00000000E+00
  0.00000000E+00  0.00000000E+00  0.00000000E+00  0.00000000E+00  0.00000000E+00
  0.00000000E+00  0.00000000E+00  0.00000000E+00  0.00000000E+00  0.00000000E+00
  0.00000000E+00  0.00000000E+00  0.00000000E+00  0.00000000E+00  0.00000000E+00
  0.00000000E+00  0.00000000E+00  0.00000000E+00  0.00000000E+00  0.00000000E+00
  0.00000000E+00  0.00000000E+00  0.00000000E+00  0.00000000E+00  0.00000000E+00
  0.00000000E+00  0.00000000E+00  0.00000000E+00  0.00000000E+00  0.00000000E+00
  0.00000000E+00  0.00000000E+00  0.00000000E+00  0.00000000E+00  0.00000000E+00
  0.00000000E+00  0.00000000E+00  0.00000000E+00  0.00000000E+00  0.00000000E+00
  0.00000000E+00  0.00000000E+00  0.00000000E+00  0.00000000E+00  0.00000000E+00
  0.00000000E+00  0.00000000E+00  0.00000000E+00  0.00000000E+00  0.00000000E+00
  0.00000000E+00  0.00000000E+00  0.00000000E+00  0.00000000E+00  0.00000000E+00
  0.00000000E+00  0.00000000E+00  0.00000000E+00  0.00000000E+00  0.00000000E+00
  0.00000000E+00  0.00000000E+00  0.00000000E+00  0.00000000E+00  0.00000000E+00
  0.00000000E+00  0.00000000E+00  0.00000000E+00  0.00000000E+00  0.00000000E+00
  0.00000000E+00  0.00000000E+00  0.00000000E+00  0.00000000E+00  0.00000000E+00
  0.00000000E+00  0.00000000E+00  0.00000000E+00  0.00000000E+00  0.00000000E+00
  0.00000000E+00  0.00000000E+00  0.00000000E+00  0.00000000E+00  0.00000000E+00
  0.00000000E+00  0.00000000E+00  0.00000000E+00  0.00000000E+00  0.00000000E+00
  0.00000000E+00  0.00000000E+00  0.00000000E+00  0.00000000E+00  0.00000000E+00
  0.00000000E+00  0.00000000E+00  0.00000000E+00  0.00000000E+00  0.00000000E+00
  0.00000000E+00  0.00000000E+00  0.00000000E+00  0.00000000E+00  0.00000000E+00
  0.00000000E+00  0.00000000E+00  0.00000000E+00  0.00000000E+00  0.00000000E+00
  0.00000000E+00  0.00000000E+00  0.00000000E+00  0.00000000E+00  0.00000000E+00
  0.00000000E+00  0.00000000E+00  0.00000000E+00  0.00000000E+00  0.00000000E+00
  0.00000000E+00  0.00000000E+00  0.00000000E+00  0.00000000E+00  0.00000000E+00
  0.00000000E+00  0.00000000E+00  0.00000000E+00  0.00000000E+00  0.00000000E+00
  0.00000000E+00  0.00000000E+00  0.00000000E+00  0.00000000E+00  0.00000000E+00
  0.00000000E+00  0.00000000E+00  0.00000000E+00  0.00000000E+00  0.00000000E+00
  0.00000000E+00  0.00000000E+00  0.00000000E+00  0.00000000E+00  0.00000000E+00
  0.00000000E+00  0.00000000E+00  0.00000000E+00  0.00000000E+00  0.00000000E+00
  0.00000000E+00  0.00000000E+00  0.00000000E+00  0.00000000E+00  0.00000000E+00
  0.00000000E+00  0.00000000E+00  0.00000000E+00  0.00000000E+00  0.00000000E+00
  0.00000000E+00  0.00000000E+00  0.00000000E+00  0.00000000E+00  0.00000000E+00
  0.00000000E+00  0.00000000E+00  0.00000000E+00  0.00000000E+00  0.00000000E+00
  0.00000000E+00  0.00000000E+00  0.00000000E+00  0.00000000E+00  0.00000000E+00
  0.00000000E+00  0.00000000E+00  0.00000000E+00  0.00000000E+00  0.00000000E+00
  0.00000000E+00  0.00000000E+00  0.00000000E+00  0.00000000E+00  0.00000000E+00
  0.00000000E+00  0.00000000E+00  0.00000000E+00  0.00000000E+00  0.00000000E+00
  0.00000000E+00  0.00000000E+00  0.00000000E+00  0.00000000E+00  0.00000000E+00
  0.00000000E+00  0.00000000E+00  0.00000000E+00  0.00000000E+00  0.00000000E+00
  0.00000000E+00  0.00000000E+00  0.00000000E+00  0.00000000E+00  0.00000000E+00
  0.00000000E+00  0.00000000E+00  0.00000000E+00  0.00000000E+00  0.00000000E+00
  0.00000000E+00  0.00000000E+00  0.00000000E+00  0.00000000E+00  0.00000000E+00
  0.00000000E+00  0.00000000E+00  0.00000000E+00  0.00000000E+00  0.00000000E+00
  0.00000000E+00  0.00000000E+00  0.00000000E+00  0.00000000E+00  0.00000000E+00
  0.00000000E+00  0.00000000E+00  0.00000000E+00  0.00000000E+00  0.00000000E+00
  0.00000000E+00  0.00000000E+00  0.00000000E+00  0.00000000E+00  0.00000000E+00
  0.00000000E+00  0.00000000E+00  0.00000000E+00  0.00000000E+00  0.00000000E+00
  0.00000000E+00  0.00000000E+00  0.00000000E+00  0.00000000E+00  0.00000000E+00
  0.00000000E+00  0.00000000E+00  0.00000000E+00  0.00000000E+00  0.00000000E+00
  0.00000000E+00  0.00000000E+00  0.00000000E+00  0.00000000E+00  0.00000000E+00
  0.00000000E+00  0.00000000E+00  0.00000000E+00  0.00000000E+00  0.00000000E+00
  0.00000000E+00  0.00000000E+00  0.00000000E+00  0.00000000E+00  0.00000000E+00
  0.00000000E+00  0.00000000E+00  0.00000000E+00  0.00000000E+00  0.00000000E+00
  0.00000000E+00  0.00000000E+00  0.00000000E+00  0.00000000E+00  0.00000000E+00
  0.00000000E+00  0.00000000E+00  0.00000000E+00  0.00000000E+00  0.00000000E+00
  0.00000000E+00  0.00000000E+00  0.00000000E+00  0.00000000E+00  0.00000000E+00
  0.00000000E+00  0.00000000E+00  0.00000000E+00  0.00000000E+00  0.00000000E+00
  0.00000000E+00  0.00000000E+00  0.00000000E+00  0.00000000E+00  0.00000000E+00
  0.00000000E+00  0.00000000E+00  0.00000000E+00  0.00000000E+00  0.00000000E+00
  0.00000000E+00  0.00000000E+00  0.00000000E+00  0.00000000E+00  0.00000000E+00
  0.00000000E+00  0.00000000E+00  0.00000000E+00  0.00000000E+00  0.00000000E+00
  0.00000000E+00  0.00000000E+00  0.00000000E+00  0.00000000E+00  0.00000000E+00
  0.00000000E+00  0.00000000E+00  0.00000000E+00  0.00000000E+00  0.00000000E+00
  0.00000000E+00  0.00000000E+00  0.00000000E+00  0.00000000E+00  0.00000000E+00
  0.00000000E+00  0.00000000E+00  0.00000000E+00  0.00000000E+00  0.00000000E+00
  0.00000000E+00  0.00000000E+00  0.00000000E+00  0.00000000E+00  0.00000000E+00
  0.00000000E+00  0.00000000E+00  0.00000000E+00  0.00000000E+00  0.00000000E+00
  0.00000000E+00  0.00000000E+00  0.00000000E+00  0.00000000E+00  0.00000000E+00
  0.00000000E+00  0.00000000E+00  0.00000000E+00  0.00000000E+00  0.00000000E+00
  0.00000000E+00  0.00000000E+00  0.00000000E+00  0.00000000E+00  0.00000000E+00
  0.00000000E+00  0.00000000E+00  0.00000000E+00  0.00000000E+00  0.00000000E+00
  0.00000000E+00  0.00000000E+00  0.00000000E+00  0.00000000E+00  0.00000000E+00
  0.00000000E+00  0.00000000E+00  0.00000000E+00  0.00000000E+00  0.00000000E+00
  0.00000000E+00  0.00000000E+00  0.00000000E+00  0.00000000E+00  0.00000000E+00
  0.00000000E+00  0.00000000E+00  0.00000000E+00  0.00000000E+00  0.00000000E+00
  0.00000000E+00  0.00000000E+00  0.00000000E+00  0.00000000E+00  0.00000000E+00
  0.00000000E+00  0.00000000E+00  0.00000000E+00  0.00000000E+00  0.00000000E+00
  0.00000000E+00  0.00000000E+00  0.00000000E+00  0.00000000E+00  0.00000000E+00
  0.00000000E+00  0.00000000E+00  0.00000000E+00  0.00000000E+00  0.00000000E+00
  0.00000000E+00  0.00000000E+00  0.00000000E+00  0.00000000E+00  0.00000000E+00
  0.00000000E+00  0.00000000E+00  0.00000000E+00  0.00000000E+00  0.00000000E+00
  0.00000000E+00  0.00000000E+00  0.00000000E+00  0.00000000E+00  0.00000000E+00
  0.00000000E+00  0.00000000E+00  0.00000000E+00  0.00000000E+00  0.00000000E+00
  0.00000000E+00  0.00000000E+00  0.00000000E+00  0.00000000E+00  0.00000000E+00
  0.00000000E+00  0.00000000E+00  0.00000000E+00  0.00000000E+00  0.00000000E+00
  0.00000000E+00  0.00000000E+00  0.00000000E+00  0.00000000E+00  0.00000000E+00
  0.00000000E+00  0.00000000E+00  0.00000000E+00  0.00000000E+00  0.00000000E+00
  0.00000000E+00  0.00000000E+00  0.00000000E+00  0.00000000E+00  0.00000000E+00
  0.00000000E+00  0.00000000E+00  0.00000000E+00  0.00000000E+00  0.00000000E+00
  0.00000000E+00  0.00000000E+00  0.00000000E+00  0.00000000E+00  0.00000000E+00
  0.00000000E+00  0.00000000E+00  0.00000000E+00  0.00000000E+00  0.00000000E+00
  0.00000000E+00  0.00000000E+00  0.00000000E+00  0.00000000E+00  0.00000000E+00
  0.00000000E+00  0.00000000E+00  0.00000000E+00  0.00000000E+00  0.00000000E+00
  0.00000000E+00  0.00000000E+00  0.00000000E+00  0.00000000E+00  0.00000000E+00
  0.00000000E+00  0.00000000E+00  0.00000000E+00  0.00000000E+00  0.00000000E+00
  0.00000000E+00  0.00000000E+00  0.00000000E+00  0.00000000E+00  0.00000000E+00
  0.00000000E+00  0.00000000E+00  0.00000000E+00  0.00000000E+00  0.00000000E+00
  0.00000000E+00  0.00000000E+00  0.00000000E+00  0.00000000E+00  0.00000000E+00
  0.00000000E+00  0.00000000E+00  0.00000000E+00  0.00000000E+00  0.00000000E+00
Gaussian Version                           C   N=           2
ES64L-G16RevC.01        
