energy: -21.035173275587 gnorm: 0.000616568508 xtb: 6.7.1 (edcfbbe)     
Freq      RB3LYP                                                      6-31G(d)            
Number of atoms                            I               13
Info1-9                                    I   N=           9
          21          21        1002           0           0         100
           6          18        -502
Full Title                                 C   N=           6
energy: -21.035173275587 gnorm: 0.000616568508 xtb: 6.7.1 (e
dcfbbe)     
Route                                      C   N=           3
#p B3LYP/6-31G(d) Opt Freq=VCD      
Charge                                     I                0
Multiplicity                               I                1
Number of electrons                        I               48
Number of alpha electrons                  I               24
Number of beta electrons                   I               24
Number of basis functions                  I              104
Number of independent functions            I              104
Number of point charges in /Mol/           I                0
Number of translation vectors              I                0
Atomic numbers                             I   N=          13
           6           6           6           8           8           7
           1           1           1           1           1           1
           1
Nuclear charges                            R   N=          13
  6.00000000E+00  6.00000000E+00  6.00000000E+00  8.00000000E+00  8.00000000E+00
  7.00000000E+00  1.00000000E+00  1.00000000E+00  1.00000000E+00  1.00000000E+00
  1.00000000E+00  1.00000000E+00  1.00000000E+00
Current cartesian coordinates              R   N=          39
 -2.25181686E+00  2.39764273E+00  9.33232084E-01 -1.22709127E+00  2.58611373E-01
 -7.51753701E-01  1.51897176E+00 -3.62281446E-01 -6.30544351E-04  2.13328305E+00
 -2.27053082E+00  1.08250561E+00  3.28325272E+00  1.41724586E+00 -5.85334818E-01
 -2.90123936E+00 -1.92073466E+00 -6.10841395E-01 -1.10442663E+00  4.11688227E+00
  8.06174818E-01 -2.27338702E+00  1.80052370E+00  2.91647634E+00 -4.18754494E+00
  2.84358224E+00  3.67850763E-01 -1.21511601E+00  9.18718122E-01 -2.72314839E+00
  2.49348067E+00  2.81342538E+00 -1.47956679E+00 -2.71232916E+00 -2.70332941E+00
  1.14233521E+00 -2.26466937E+00 -3.28221599E+00 -1.81668557E+00
Number of symbols in /Mol/                 I                0
Int Atom Types                             I   N=          13
           0           0           0           0           0           0
           0           0           0           0           0           0
           0
Force Field                                I                0
Atom Types                                 C   N=          13
                                                            
                                                            
                                    
MM charges                                 R   N=          13
  0.00000000E+00  0.00000000E+00  0.00000000E+00  0.00000000E+00  0.00000000E+00
  0.00000000E+00  0.00000000E+00  0.00000000E+00  0.00000000E+00  0.00000000E+00
  0.00000000E+00  0.00000000E+00  0.00000000E+00
Integer atomic weights                     I   N=          13
          12          12          12          16          16          14
           1           1           1           1           1           1
           1
Real atomic weights                        R   N=          13
  1.20000000E+01  1.20000000E+01  1.20000000E+01  1.59949146E+01  1.59949146E+01
  1.40030740E+01  1.00782504E+00  1.00782504E+00  1.00782504E+00  1.00782504E+00
  1.00782504E+00  1.00782504E+00  1.00782504E+00
Atom fragment info                         I   N=          13
           0           0           0           0           0           0
           0           0           0           0           0           0
           0
Atom residue num                           I   N=          13
           0           0           0           0           0           0
           0           0           0           0           0           0
           0
Nuclear spins                              I   N=          13
           0           0           0           0           0           2
           1           1           1           1           1           1
           1
Nuclear ZEff                               R   N=          13
 -3.60000000E+00 -3.60000000E+00 -3.60000000E+00 -5.60000000E+00 -5.60000000E+00
 -4.55000000E+00 -1.00000000E+00 -1.00000000E+00 -1.00000000E+00 -1.00000000E+00
 -1.00000000E+00 -1.00000000E+00 -1.00000000E+00
Nuclear ZNuc                               R   N=          13
  6.00000000E+00  6.00000000E+00  6.00000000E+00  8.00000000E+00  8.00000000E+00
  7.00000000E+00  1.00000000E+00  1.00000000E+00  1.00000000E+00  1.00000000E+00
  1.00000000E+00  1.00000000E+00  1.00000000E+00
Nuclear QMom                               R   N=          13
  0.00000000E+00  0.00000000E+00  0.00000000E+00  0.00000000E+00  0.00000000E+00
  2.04400000E+00  0.00000000E+00  0.00000000E+00  0.00000000E+00  0.00000000E+00
  0.00000000E+00  0.00000000E+00  0.00000000E+00
Nuclear GFac                               R   N=          13
  0.00000000E+00  0.00000000E+00  0.00000000E+00  0.00000000E+00  0.00000000E+00
  4.03761000E-01  2.79284600E+00  2.79284600E+00  2.79284600E+00  2.79284600E+00
  2.79284600E+00  2.79284600E+00  2.79284600E+00
MicOpt                                     I   N=          13
          -1          -1          -1          -1          -1          -1
          -1          -1          -1          -1          -1          -1
          -1
Number of residues                         I                0
Number of secondary structures             I                0
Redundant internal dimensions              I   N=           4
          54          12          19          23
Redundant internal coordinate indices      I   N=         216
           1           2           0           0           1           7
           0           0           1           8           0           0
           1           9           0           0           2           3
           0           0           2           6           0           0
           2          10           0           0           3           4
           0           0           3           5           0           0
           5          11           0           0           6          12
           0           0           6          13           0           0
           2           1           7           0           2           1
           8           0           2           1           9           0
           7           1           8           0           7           1
           9           0           8           1           9           0
           1           2           3           0           1           2
           6           0           1           2          10           0
           3           2           6           0           3           2
          10           0           6           2          10           0
           2           3           4           0           2           3
           5           0           4           3           5           0
           3           5          11           0           2           6
          12           0           2           6          13           0
          12           6          13           0           7           1
           2           3           7           1           2           6
           7           1           2          10           8           1
           2           3           8           1           2           6
           8           1           2          10           9           1
           2           3           9           1           2           6
           9           1           2          10           1           2
           3           4           1           2           3           5
           6           2           3           4           6           2
           3           5          10           2           3           4
          10           2           3           5           1           2
           6          12           1           2           6          13
           3           2           6          12           3           2
           6          13          10           2           6          12
          10           2           6          13           2           3
           5          11           4           3           5          11
Redundant internal coordinates             R   N=          54
  2.90941485E+00  2.07085308E+00  2.07129770E+00  2.06532354E+00  2.91385588E+00
  2.75175893E+00  2.07900970E+00  2.27859122E+00  2.57318554E+00  1.83649338E+00
  1.92918890E+00  1.92689204E+00  1.96026403E+00  1.92436571E+00  1.90743098E+00
  1.87952884E+00  1.89995535E+00  1.89082834E+00  1.91696691E+00  1.91594319E+00
  1.89416573E+00  1.97294861E+00  1.88247911E+00  1.87918576E+00  2.15923344E+00
  2.02664359E+00  2.09708729E+00  1.91935725E+00  1.88413537E+00  1.90345314E+00
  1.82319332E+00  1.01619028E+00 -3.08744943E+00 -1.03790215E+00 -1.08003824E+00
  1.09950736E+00 -3.13413067E+00  3.12662501E+00 -9.77014698E-01  1.07253258E+00
  1.89201179E+00 -1.22696077E+00 -2.54301060E-01  2.90991170E+00 -2.32982669E+00
  8.34386064E-01 -1.23159877E+00  3.08050782E+00  9.15281949E-01 -1.05579676E+00
  2.99271308E+00  1.02163437E+00 -4.20526151E-02  3.12130019E+00
ZRed-IntVec                                I   N=          54
           0           0           0           0           0           0
           0           0           0           0           0           0
           0           0           0           0           0           0
           0           0           0           0           0           0
           0           0           0           0           0           0
           0           0           0           0           0           0
           0           0           0           0           0           0
           0           0           0           0           0           0
           0           0           0           0           0           0
ZRed-FPVec                                 R   N=          54
  0.00000000E+00  0.00000000E+00  0.00000000E+00  0.00000000E+00  0.00000000E+00
  0.00000000E+00  0.00000000E+00  0.00000000E+00  0.00000000E+00  0.00000000E+00
  0.00000000E+00  0.00000000E+00  0.00000000E+00  0.00000000E+00  0.00000000E+00
  0.00000000E+00  0.00000000E+00  0.00000000E+00  0.00000000E+00  0.00000000E+00
  0.00000000E+00  0.00000000E+00  0.00000000E+00  0.00000000E+00  0.00000000E+00
  0.00000000E+00  0.00000000E+00  0.00000000E+00  0.00000000E+00  0.00000000E+00
  0.00000000E+00  0.00000000E+00  0.00000000E+00  0.00000000E+00  0.00000000E+00
  0.00000000E+00  0.00000000E+00  0.00000000E+00  0.00000000E+00  0.00000000E+00
  0.00000000E+00  0.00000000E+00  0.00000000E+00  0.00000000E+00  0.00000000E+00
  0.00000000E+00  0.00000000E+00  0.00000000E+00  0.00000000E+00  0.00000000E+00
  0.00000000E+00  0.00000000E+00  0.00000000E+00  0.00000000E+00
ZRed-Constraint1                           R   N=          54
  2.90941485E+00  2.07085308E+00  2.07129770E+00  2.06532354E+00  2.91385588E+00
  2.75175893E+00  2.07900970E+00  2.27859122E+00  2.57318554E+00  1.83649338E+00
  1.92918890E+00  1.92689204E+00  1.96026403E+00  1.92436571E+00  1.90743098E+00
  1.87952884E+00  1.89995535E+00  1.89082834E+00  1.91696691E+00  1.91594319E+00
  1.89416573E+00  1.97294861E+00  1.88247911E+00  1.87918576E+00  2.15923344E+00
  2.02664359E+00  2.09708729E+00  1.91935725E+00  1.88413537E+00  1.90345314E+00
  1.82319332E+00  1.01619028E+00 -3.08744943E+00 -1.03790215E+00 -1.08003824E+00
  1.09950736E+00 -3.13413067E+00  3.12662501E+00 -9.77014698E-01  1.07253258E+00
  1.89201179E+00 -1.22696077E+00 -2.54301060E-01  2.90991170E+00 -2.32982669E+00
  8.34386064E-01 -1.23159877E+00  3.08050782E+00  9.15281949E-01 -1.05579676E+00
  2.99271308E+00  1.02163437E+00 -4.20526151E-02  3.12130019E+00
ZRed-Constraint2                           R   N=          54
  2.89709954E+00  2.05523152E+00  2.05573663E+00  2.05222168E+00  2.90094028E+00
  2.73795021E+00  2.07789145E+00  2.26205603E+00  2.54084485E+00  1.82554060E+00
  1.91967228E+00  1.91810565E+00  1.95273380E+00  1.91803389E+00  1.89845702E+00
  1.89838317E+00  1.90131428E+00  1.89399870E+00  1.90805621E+00  1.90810359E+00
  1.91382959E+00  1.95974975E+00  1.89544614E+00  1.87814384E+00  2.14585037E+00
  2.01971287E+00  2.11762020E+00  1.96380951E+00  1.90953569E+00  1.92327165E+00
  1.86149103E+00  1.12637328E+00 -3.00504553E+00 -9.49836564E-01 -9.84397530E-01
  1.16736897E+00 -3.06060737E+00 -3.05557297E+00 -9.03806465E-01  1.15140250E+00
  1.94292754E+00 -1.19660829E+00 -1.77912589E-01  2.96573688E+00 -2.25267864E+00
  8.90970837E-01 -1.08765974E+00 -3.12901952E+00  1.03315329E+00 -1.00820648E+00
  3.11805586E+00  1.07669609E+00 -2.97287468E-03  3.14064044E+00
SymInf integers                            I   N=          26
           1           1           1           1           1           0
           0           0           0           0           0           0
           0           0           0           0           0           0
           0           0           0           0           0           0
           0           0
RotTr to input orientation                 R   N=          12
  3.35052735E-01  9.03827933E-01 -2.66147952E-01 -7.38592556E-01  7.65679712E-02
 -6.69789804E-01 -5.84996325E-01  4.20989802E-01  6.93214891E-01  5.02164315E+00
  1.63681382E+00  3.57401478E-01
Number of contracted shells                I               38
Number of primitive shells                 I               94
Pure/Cartesian d shells                    I                1
Pure/Cartesian f shells                    I                0
Highest angular momentum                   I                2
Largest degree of contraction              I                6
Shell types                                I   N=          38
           0          -1          -1           2           0          -1
          -1           2           0          -1          -1           2
           0          -1          -1           2           0          -1
          -1           2           0          -1          -1           2
           0           0           0           0           0           0
           0           0           0           0           0           0
           0           0
Number of primitives per shell             I   N=          38
           6           3           1           1           6           3
           1           1           6           3           1           1
           6           3           1           1           6           3
           1           1           6           3           1           1
           3           1           3           1           3           1
           3           1           3           1           3           1
           3           1
Shell to atom map                          I   N=          38
           1           1           1           1           2           2
           2           2           3           3           3           3
           4           4           4           4           5           5
           5           5           6           6           6           6
           7           7           8           8           9           9
          10          10          11          11          12          12
          13          13
Primitive exponents                        R   N=          94
  3.04752488E+03  4.57369518E+02  1.03948685E+02  2.92101553E+01  9.28666296E+00
  3.16392696E+00  7.86827235E+00  1.88128854E+00  5.44249258E-01  1.68714478E-01
  8.00000000E-01  3.04752488E+03  4.57369518E+02  1.03948685E+02  2.92101553E+01
  9.28666296E+00  3.16392696E+00  7.86827235E+00  1.88128854E+00  5.44249258E-01
  1.68714478E-01  8.00000000E-01  3.04752488E+03  4.57369518E+02  1.03948685E+02
  2.92101553E+01  9.28666296E+00  3.16392696E+00  7.86827235E+00  1.88128854E+00
  5.44249258E-01  1.68714478E-01  8.00000000E-01  5.48467166E+03  8.25234946E+02
  1.88046958E+02  5.29645000E+01  1.68975704E+01  5.79963534E+00  1.55396162E+01
  3.59993359E+00  1.01376175E+00  2.70005823E-01  8.00000000E-01  5.48467166E+03
  8.25234946E+02  1.88046958E+02  5.29645000E+01  1.68975704E+01  5.79963534E+00
  1.55396162E+01  3.59993359E+00  1.01376175E+00  2.70005823E-01  8.00000000E-01
  4.17351146E+03  6.27457911E+02  1.42902093E+02  4.02343293E+01  1.28202129E+01
  4.39043701E+00  1.16263619E+01  2.71627981E+00  7.72218397E-01  2.12031498E-01
  8.00000000E-01  1.87311370E+01  2.82539436E+00  6.40121692E-01  1.61277759E-01
  1.87311370E+01  2.82539436E+00  6.40121692E-01  1.61277759E-01  1.87311370E+01
  2.82539436E+00  6.40121692E-01  1.61277759E-01  1.87311370E+01  2.82539436E+00
  6.40121692E-01  1.61277759E-01  1.87311370E+01  2.82539436E+00  6.40121692E-01
  1.61277759E-01  1.87311370E+01  2.82539436E+00  6.40121692E-01  1.61277759E-01
  1.87311370E+01  2.82539436E+00  6.40121692E-01  1.61277759E-01
Contraction coefficients                   R   N=          94
  1.83473713E-03  1.40373228E-02  6.88426223E-02  2.32184443E-01  4.67941348E-01
  3.62311985E-01 -1.19332420E-01 -1.60854152E-01  1.14345644E+00  1.00000000E+00
  1.00000000E+00  1.83473713E-03  1.40373228E-02  6.88426223E-02  2.32184443E-01
  4.67941348E-01  3.62311985E-01 -1.19332420E-01 -1.60854152E-01  1.14345644E+00
  1.00000000E+00  1.00000000E+00  1.83473713E-03  1.40373228E-02  6.88426223E-02
  2.32184443E-01  4.67941348E-01  3.62311985E-01 -1.19332420E-01 -1.60854152E-01
  1.14345644E+00  1.00000000E+00  1.00000000E+00  1.83107443E-03  1.39501722E-02
  6.84450781E-02  2.32714336E-01  4.70192898E-01  3.58520853E-01 -1.10777550E-01
 -1.48026263E-01  1.13076702E+00  1.00000000E+00  1.00000000E+00  1.83107443E-03
  1.39501722E-02  6.84450781E-02  2.32714336E-01  4.70192898E-01  3.58520853E-01
 -1.10777550E-01 -1.48026263E-01  1.13076702E+00  1.00000000E+00  1.00000000E+00
  1.83477216E-03  1.39946270E-02  6.85865518E-02  2.32240873E-01  4.69069948E-01
  3.60455199E-01 -1.14961182E-01 -1.69117479E-01  1.14585195E+00  1.00000000E+00
  1.00000000E+00  3.34946043E-02  2.34726953E-01  8.13757326E-01  1.00000000E+00
  3.34946043E-02  2.34726953E-01  8.13757326E-01  1.00000000E+00  3.34946043E-02
  2.34726953E-01  8.13757326E-01  1.00000000E+00  3.34946043E-02  2.34726953E-01
  8.13757326E-01  1.00000000E+00  3.34946043E-02  2.34726953E-01  8.13757326E-01
  1.00000000E+00  3.34946043E-02  2.34726953E-01  8.13757326E-01  1.00000000E+00
  3.34946043E-02  2.34726953E-01  8.13757326E-01  1.00000000E+00
P(S=P) Contraction coefficients            R   N=          94
  0.00000000E+00  0.00000000E+00  0.00000000E+00  0.00000000E+00  0.00000000E+00
  0.00000000E+00  6.89990666E-02  3.16423961E-01  7.44308291E-01  1.00000000E+00
  0.00000000E+00  0.00000000E+00  0.00000000E+00  0.00000000E+00  0.00000000E+00
  0.00000000E+00  0.00000000E+00  6.89990666E-02  3.16423961E-01  7.44308291E-01
  1.00000000E+00  0.00000000E+00  0.00000000E+00  0.00000000E+00  0.00000000E+00
  0.00000000E+00  0.00000000E+00  0.00000000E+00  6.89990666E-02  3.16423961E-01
  7.44308291E-01  1.00000000E+00  0.00000000E+00  0.00000000E+00  0.00000000E+00
  0.00000000E+00  0.00000000E+00  0.00000000E+00  0.00000000E+00  7.08742682E-02
  3.39752839E-01  7.27158577E-01  1.00000000E+00  0.00000000E+00  0.00000000E+00
  0.00000000E+00  0.00000000E+00  0.00000000E+00  0.00000000E+00  0.00000000E+00
  7.08742682E-02  3.39752839E-01  7.27158577E-01  1.00000000E+00  0.00000000E+00
  0.00000000E+00  0.00000000E+00  0.00000000E+00  0.00000000E+00  0.00000000E+00
  0.00000000E+00  6.75797439E-02  3.23907296E-01  7.40895140E-01  1.00000000E+00
  0.00000000E+00  0.00000000E+00  0.00000000E+00  0.00000000E+00  0.00000000E+00
  0.00000000E+00  0.00000000E+00  0.00000000E+00  0.00000000E+00  0.00000000E+00
  0.00000000E+00  0.00000000E+00  0.00000000E+00  0.00000000E+00  0.00000000E+00
  0.00000000E+00  0.00000000E+00  0.00000000E+00  0.00000000E+00  0.00000000E+00
  0.00000000E+00  0.00000000E+00  0.00000000E+00  0.00000000E+00  0.00000000E+00
  0.00000000E+00  0.00000000E+00  0.00000000E+00  0.00000000E+00
Coordinates of each shell                  R   N=         114
 -2.25181686E+00  2.39764273E+00  9.33232084E-01 -2.25181686E+00  2.39764273E+00
  9.33232084E-01 -2.25181686E+00  2.39764273E+00  9.33232084E-01 -2.25181686E+00
  2.39764273E+00  9.33232084E-01 -1.22709127E+00  2.58611373E-01 -7.51753701E-01
 -1.22709127E+00  2.58611373E-01 -7.51753701E-01 -1.22709127E+00  2.58611373E-01
 -7.51753701E-01 -1.22709127E+00  2.58611373E-01 -7.51753701E-01  1.51897176E+00
 -3.62281446E-01 -6.30544351E-04  1.51897176E+00 -3.62281446E-01 -6.30544351E-04
  1.51897176E+00 -3.62281446E-01 -6.30544351E-04  1.51897176E+00 -3.62281446E-01
 -6.30544351E-04  2.13328305E+00 -2.27053082E+00  1.08250561E+00  2.13328305E+00
 -2.27053082E+00  1.08250561E+00  2.13328305E+00 -2.27053082E+00  1.08250561E+00
  2.13328305E+00 -2.27053082E+00  1.08250561E+00  3.28325272E+00  1.41724586E+00
 -5.85334818E-01  3.28325272E+00  1.41724586E+00 -5.85334818E-01  3.28325272E+00
  1.41724586E+00 -5.85334818E-01  3.28325272E+00  1.41724586E+00 -5.85334818E-01
 -2.90123936E+00 -1.92073466E+00 -6.10841395E-01 -2.90123936E+00 -1.92073466E+00
 -6.10841395E-01 -2.90123936E+00 -1.92073466E+00 -6.10841395E-01 -2.90123936E+00
 -1.92073466E+00 -6.10841395E-01 -1.10442663E+00  4.11688227E+00  8.06174818E-01
 -1.10442663E+00  4.11688227E+00  8.06174818E-01 -2.27338702E+00  1.80052370E+00
  2.91647634E+00 -2.27338702E+00  1.80052370E+00  2.91647634E+00 -4.18754494E+00
  2.84358224E+00  3.67850763E-01 -4.18754494E+00  2.84358224E+00  3.67850763E-01
 -1.21511601E+00  9.18718122E-01 -2.72314839E+00 -1.21511601E+00  9.18718122E-01
 -2.72314839E+00  2.49348067E+00  2.81342538E+00 -1.47956679E+00  2.49348067E+00
  2.81342538E+00 -1.47956679E+00 -2.71232916E+00 -2.70332941E+00  1.14233521E+00
 -2.71232916E+00 -2.70332941E+00  1.14233521E+00 -2.26466937E+00 -3.28221599E+00
 -1.81668557E+00 -2.26466937E+00 -3.28221599E+00 -1.81668557E+00
Num ILSW                                   I              100
ILSW                                       I   N=         100
           0           1           0           0           2           0
           0           0           0           0         402          -1
           5           0           0           0           2           0
           0           0           0           0           1           0
           1           0           0           0           0           0
           0           0      100000           0          -1           0
           0           0           0           0           0           0
           0           0           0           1           0           0
           0 -2000000000           1           0           0           0
           0           0           4          52           0           0
           0           0           5           0           0           0
           0           0           0          13           0           1
           0           0           0           0           0           0
           0           0           0           0           0           0
           0           0           0           0           0           0
           0           0           0           0           0           0
           0           0           0           0
Num RLSW                                   I               52
RLSW                                       R   N=          52
  8.00000000E-01  7.20000000E-01  1.00000000E+00  8.10000000E-01  2.00000000E-01
  0.00000000E+00  0.00000000E+00  1.00000000E+00  0.00000000E+00  0.00000000E+00
  0.00000000E+00  0.00000000E+00  1.00000000E+00  0.00000000E+00  0.00000000E+00
  0.00000000E+00  0.00000000E+00  1.00000000E+00  0.00000000E+00  0.00000000E+00
  0.00000000E+00  0.00000000E+00  1.00000000E+00  0.00000000E+00  0.00000000E+00
  0.00000000E+00  0.00000000E+00  1.00000000E+00  0.00000000E+00  0.00000000E+00
  0.00000000E+00  0.00000000E+00  1.00000000E+00  0.00000000E+00  0.00000000E+00
  0.00000000E+00  0.00000000E+00  0.00000000E+00  1.00000000E+00  1.00000000E+00
  0.00000000E+00  1.00000000E+00  0.00000000E+00  0.00000000E+00  0.00000000E+00
  0.00000000E+00  0.00000000E+00  0.00000000E+00  0.00000000E+00  0.00000000E+00
  0.00000000E+00  0.00000000E+00
MxBond                                     I                4
NBond                                      I   N=          13
           4           4           3           1           2           3
           1           1           1           1           1           1
           1
IBond                                      I   N=          52
           2           7           8           9           1           3
           6          10           2           4           5           0
           3           0           0           0           3          11
           0           0           2          12          13           0
           1           0           0           0           1           0
           0           0           1           0           0           0
           2           0           0           0           5           0
           0           0           6           0           0           0
           6           0           0           0
RBond                                      R   N=          52
  1.00000000E+00  1.00000000E+00  1.00000000E+00  1.00000000E+00  1.00000000E+00
  1.00000000E+00  1.00000000E+00  1.00000000E+00  1.00000000E+00  2.00000000E+00
  1.50000000E+00  0.00000000E+00  2.00000000E+00  0.00000000E+00  0.00000000E+00
  0.00000000E+00  1.50000000E+00  1.00000000E+00  0.00000000E+00  0.00000000E+00
  1.00000000E+00  1.00000000E+00  1.00000000E+00  0.00000000E+00  1.00000000E+00
  0.00000000E+00  0.00000000E+00  0.00000000E+00  1.00000000E+00  0.00000000E+00
  0.00000000E+00  0.00000000E+00  1.00000000E+00  0.00000000E+00  0.00000000E+00
  0.00000000E+00  1.00000000E+00  0.00000000E+00  0.00000000E+00  0.00000000E+00
  1.00000000E+00  0.00000000E+00  0.00000000E+00  0.00000000E+00  1.00000000E+00
  0.00000000E+00  0.00000000E+00  0.00000000E+00  1.00000000E+00  0.00000000E+00
  0.00000000E+00  0.00000000E+00
Virial Ratio                               R      2.009017633404206E+00
SCF Energy                                 R     -3.237303314981865E+02
Total Energy                               R     -3.237303314981865E+02
RMS Force                                  R      2.033908670991109E-05
RMS Density                                R      5.594914220005888E-09
NImag                                      I                0
Job Status                                 I                1
Nuclear derivative order                   I                2
Thermal Energy                             R     -3.236152622287377E+02
Thermal Enthalpy                           R     -3.236143180439240E+02
Thermal Free Energy                        R     -3.236530621555748E+02
External E-field                           R   N=          35
  0.00000000E+00  0.00000000E+00  0.00000000E+00  0.00000000E+00  0.00000000E+00
  0.00000000E+00  0.00000000E+00  0.00000000E+00  0.00000000E+00  0.00000000E+00
  0.00000000E+00  0.00000000E+00  0.00000000E+00  0.00000000E+00  0.00000000E+00
  0.00000000E+00  0.00000000E+00  0.00000000E+00  0.00000000E+00  0.00000000E+00
  0.00000000E+00  0.00000000E+00  0.00000000E+00  0.00000000E+00  0.00000000E+00
  0.00000000E+00  0.00000000E+00  0.00000000E+00  0.00000000E+00  0.00000000E+00
  0.00000000E+00  0.00000000E+00  0.00000000E+00  0.00000000E+00  0.00000000E+00
IOpCl                                      I                0
IROHF                                      I                0
Alpha Orbital Energies                     R   N=         104
 -1.92010901E+01 -1.91396388E+01 -1.43237847E+01 -1.03180788E+01 -1.02429197E+01
 -1.01989723E+01 -1.10294237E+00 -1.02266847E+00 -9.00069085E-01 -7.58244782E-01
 -6.57945015E-01 -6.11593229E-01 -5.36386188E-01 -5.07390892E-01 -4.61649339E-01
 -4.45002728E-01 -4.31309899E-01 -4.11811122E-01 -3.90312553E-01 -3.88072790E-01
 -3.67830466E-01 -3.20229579E-01 -2.79308705E-01 -2.51118011E-01  5.25262896E-03
  4.11316556E-02  8.69231265E-02  1.18390400E-01  1.42105260E-01  1.53410442E-01
  1.66085188E-01  1.74449973E-01  2.02736802E-01  2.31296237E-01  2.38130678E-01
  3.41508171E-01  3.78011851E-01  5.03265719E-01  5.17819794E-01  5.27180519E-01
  5.63160166E-01  6.03968381E-01  6.18733037E-01  6.70605799E-01  7.05636772E-01
  7.20231160E-01  7.28139915E-01  7.66128880E-01  7.82873772E-01  8.14298487E-01
  8.56147544E-01  8.71155586E-01  8.77852782E-01  8.99011438E-01  9.21474049E-01
  9.27992361E-01  9.44491926E-01  9.74355180E-01  9.85411971E-01  1.03595306E+00
  1.05316797E+00  1.10811399E+00  1.12264915E+00  1.28015845E+00  1.31968133E+00
  1.37577113E+00  1.41054964E+00  1.46538336E+00  1.54195693E+00  1.63801558E+00
  1.64487506E+00  1.68491267E+00  1.74215521E+00  1.74780586E+00  1.79532462E+00
  1.82403667E+00  1.84801303E+00  1.90684830E+00  1.94904139E+00  1.97517485E+00
  1.99852043E+00  2.08176427E+00  2.09517601E+00  2.14385172E+00  2.17137096E+00
  2.27285402E+00  2.32726648E+00  2.35249539E+00  2.39476097E+00  2.47601327E+00
  2.52064628E+00  2.60441699E+00  2.61217103E+00  2.67414928E+00  2.78931352E+00
  2.85756991E+00  2.98873579E+00  3.07892370E+00  3.73254202E+00  3.91583053E+00
  4.07883439E+00  4.25116352E+00  4.29649999E+00  4.57025006E+00
Alpha MO coefficients                      R   N=       10816
 -4.40084403E-06 -4.79964785E-05  1.28416186E-05 -8.23394837E-06 -1.63988326E-05
  2.45049382E-04  1.37189565E-05 -3.11659300E-04  9.83188874E-05  1.05642367E-05
  2.85966680E-05 -1.11478923E-05 -1.25948968E-05  1.48837919E-07 -3.27404799E-06
  4.24627766E-05  2.49529354E-04 -4.40644624E-05 -3.38046974E-05  2.68216895E-05
 -1.69950071E-03 -7.64679250E-06  7.13123746E-04 -5.53820242E-04 -9.78869622E-06
  8.39178751E-06  7.56891677E-05  2.61472395E-06 -2.27248769E-05  2.03749150E-05
 -6.00091697E-06  3.12572526E-04  3.23520572E-04  2.36192426E-04 -4.74211590E-05
 -1.81680511E-03 -2.52857293E-03 -1.46343861E-03  2.86194954E-04  4.66913630E-05
 -7.65550075E-07 -1.18614738E-05  2.91346365E-05 -1.40076616E-05  5.34616129E-06
 -3.38251510E-05  6.62239253E-05 -5.04555834E-05 -1.31179009E-05 -6.10850022E-06
 -3.01007160E-05  4.69545198E-04  1.46340838E-04  2.46534842E-05 -3.56801230E-05
 -2.08429173E-05  3.47974664E-05 -1.45810529E-05 -1.62673285E-05  4.74061561E-05
  9.92698367E-01  2.57248477E-02 -9.34437827E-04  2.14227026E-04 -2.95520626E-04
  1.34829331E-02 -5.24397214E-04 -8.86646055E-04  3.49847940E-04 -8.23907874E-03
 -8.17866824E-03 -8.19991754E-03  4.29782639E-05 -3.15626148E-05 -2.62554608E-06
  1.01640278E-05  1.95203226E-05  4.65686728E-05  1.77386856E-05  4.49836522E-06
  3.69274053E-04  1.07725153E-05  2.39172427E-04  2.04899090E-05 -1.40925389E-06
  5.97896106E-05  4.13167478E-05  2.49188788E-05 -6.46850095E-06  1.13607984E-05
 -8.66898742E-06  2.07949171E-04 -3.49784732E-05 -1.02417467E-04  4.63712445E-06
 -1.94319102E-05 -3.18899946E-05  3.28042626E-05  4.32337848E-04 -1.14520062E-03
  2.47912690E-05 -2.06654346E-05  2.75903101E-05  2.68463335E-05  1.65830271E-06
  2.24140443E-05  2.26084566E-05  6.70356949E-06  1.62626582E-05  2.10254184E-05
  3.38765897E-05  2.05913306E-04 -2.93561916E-04 -1.47885103E-05 -3.10645011E-05
  2.75109499E-05 -1.17563562E-05 -2.35404629E-05 -9.00801602E-06  2.60530913E-06
  2.92720290E-05  2.30230864E-05  2.01653162E-05 -2.42665479E-05 -4.17310646E-04
 -1.19542485E-03 -1.12434578E-03  3.83884433E-04 -1.76197408E-05  4.56083007E-05
 -1.80845309E-05  3.18316335E-05 -2.40813964E-06  1.19438047E-06 -9.25124870E-06
  3.88985793E-04  8.78059889E-06  1.08193897E-04 -5.52847574E-05 -3.05341439E-03
 -1.25280598E-03  3.81567633E-03 -2.15121987E-03 -8.65287622E-05 -6.96127416E-04
 -2.60509800E-04  2.54748613E-04 -1.36726510E-04  4.29982819E-04  9.92691083E-01
  2.54720122E-02 -3.30546621E-04  1.01899985E-03 -5.70936166E-04  1.55289826E-02
 -5.50295916E-04  1.71459329E-03 -9.85895538E-04 -8.26533142E-03 -7.86169238E-03
 -8.17282261E-03 -1.66697901E-04  9.77893577E-05 -3.02479161E-04  6.51623766E-05
  1.57008152E-04 -4.61552071E-05  2.17744017E-05 -2.28484023E-05 -8.74105644E-04
  5.36757325E-04 -1.29317563E-04  1.71300220E-04  6.66377130E-05  1.32016150E-05
  6.17107617E-05  1.38278841E-05 -1.39099904E-05  4.82284002E-05  2.44686889E-05
  9.22686907E-05  2.09290391E-05  6.87777306E-06 -5.94702387E-06 -9.65813847E-04
 -2.27485871E-04 -4.69314899E-04  6.04532319E-05  8.93764095E-05 -5.90698399E-06
  5.41531409E-05 -3.13346733E-05 -2.84433512E-06  2.19176869E-07  4.62507467E-06
 -1.36472564E-04 -1.50657069E-05  2.83959297E-04 -5.46276681E-06 -1.13746160E-04
  8.61969280E-05  1.50851940E-04  1.01590916E-04 -1.13655489E-04  9.56501493E-05
 -2.43497611E-04  4.00580646E-05 -1.33129288E-05  2.56727004E-06  7.09564574E-05
 -1.40719382E-05  5.83663625E-07  1.16236661E-05 -1.05238056E-04  2.47834894E-05
  2.42494766E-04 -4.18903667E-06 -8.54908474E-06 -6.23399647E-05 -1.16571928E-05
  8.14236185E-07 -8.68023899E-06 -1.99102602E-05 -1.58148140E-05  6.51083282E-05
 -1.86255816E-04 -1.99369621E-04  6.77978414E-06  4.26646839E-04  3.66962545E-04
  6.22915493E-05  1.45814835E-04  3.22062977E-05  8.31207803E-06 -4.76175180E-05
  5.00645832E-05 -8.30005933E-06  8.76099964E-06 -5.97345954E-07  6.70498918E-05
  3.83771061E-05  3.59444446E-07  1.63179535E-05 -2.95426308E-04  8.99445840E-05
 -4.51253243E-04  1.98116181E-04 -8.28491912E-05 -2.75286871E-05 -1.64078742E-05
 -3.73650906E-05  2.80709122E-06  4.33537112E-07  1.21409364E-05  6.35634121E-05
  6.09684072E-06  8.58693386E-06 -2.18342454E-06 -4.06137695E-04  2.66894828E-05
 -9.01907693E-05  5.97760925E-05  2.46824488E-05  3.10280757E-05  2.99994901E-05
  5.58595711E-06 -4.54304982E-06  5.55184858E-06 -1.39404621E-05 -6.61350937E-05
  5.64122939E-06 -9.14344544E-07 -1.45190759E-06  3.85668004E-04 -1.47650161E-04
 -6.19553319E-05  1.93166631E-05 -2.23267423E-05 -2.95600028E-05 -4.16565455E-05
  2.15702640E-05 -7.07188291E-06 -8.23178909E-06  9.92710070E-01  3.47172725E-02
  1.18884455E-03 -3.27925594E-04  2.24970869E-04  3.56511652E-03 -5.56380381E-04
  1.29087327E-04 -5.86795306E-05 -8.24448559E-03 -8.19466542E-03 -8.17138325E-03
 -4.77210402E-05 -6.59666836E-06 -4.70211452E-06 -9.62576875E-06 -1.07144208E-04
  2.43077228E-05  3.79087584E-05  5.19408321E-05 -9.74498184E-05 -2.26522048E-05
 -4.84468193E-05 -2.49157798E-05  2.60512656E-05  2.81208684E-04 -3.78680835E-04
  2.99834606E-04 -3.23514054E-04 -9.86497716E-05 -3.51591754E-04 -2.13676392E-04
  7.94116028E-05 -2.36790009E-05  1.13081095E-03  1.03158869E-03 -7.31927434E-04
  1.01421839E-04 -6.79260013E-05 -4.37071749E-05 -1.04026533E-04 -4.39031795E-05
  6.86629817E-08  5.47996481E-05  1.20260824E-03 -1.20808712E-04 -1.50100024E-04
  4.38648308E-05 -2.52058556E-05  4.00559440E-03  3.14613005E-03 -3.29817759E-04
 -1.48516276E-04 -3.40348587E-04 -2.45221296E-04 -1.62665804E-04  4.20905021E-05
 -5.85908726E-05 -3.25434320E-05  9.92941630E-01  4.84364770E-02  8.60954130E-04
  7.36829376E-05  1.97116939E-04 -7.75811331E-03  4.43467535E-03 -2.94457412E-03
  2.02529297E-03 -8.92552195E-03 -8.38229837E-03 -9.23381782E-03  5.30394851E-05
  7.97298471E-05 -6.66642695E-04 -1.15841587E-04  5.93099215E-04  7.56592163E-05
  6.65588952E-06 -1.73441038E-05 -4.34103366E-03 -1.86649728E-04 -2.07013608E-03
  1.16113748E-03  4.11799641E-04 -2.48983727E-05  3.22663905E-04 -2.18975502E-05
 -1.38156780E-05  3.14979285E-04 -6.75798743E-05  1.13754882E-04  1.44393387E-04
  2.73006496E-05  1.58637901E-05  4.80386324E-06  3.23657739E-05  1.39915443E-03
 -6.67541234E-04 -1.64747201E-04 -4.42788188E-04  1.31164148E-04 -5.37124933E-04
  1.90580816E-04  2.66956990E-04 -3.79150095E-05 -1.75923706E-04 -5.10123805E-05
 -2.89987938E-05 -1.30067578E-05  7.76211041E-04  1.21775980E-04  3.93409275E-04
  1.13649639E-04 -4.34316168E-05 -1.29935404E-05 -1.36436470E-04  8.93930409E-06
  5.91810266E-05 -1.98776777E-05 -1.38944909E-04 -2.88964773E-05 -1.59683026E-04
 -1.99350728E-04  2.73245440E-05  7.19344425E-04 -2.53461156E-04  6.22461316E-05
 -9.69493324E-05 -5.32295050E-05 -7.31232614E-05  4.85111800E-05 -4.90327375E-05
  9.13401253E-05  2.18537860E-03 -2.62399437E-04  4.41537264E-05 -4.51909464E-05
 -1.31389993E-05  6.05653187E-03  8.49486695E-04 -2.30706569E-03 -1.18545118E-03
 -1.86609031E-04 -1.90202090E-04 -2.43981727E-04  3.50135996E-05  6.97213313E-05
 -1.65650029E-04  9.93228690E-01  5.04270313E-02 -8.61369288E-06 -1.51118797E-04
  1.61175318E-04 -2.46151132E-02 -5.04843977E-04  1.01064272E-03 -2.29546102E-03
 -8.68937477E-03 -8.68668272E-03 -8.51785936E-03  9.04924102E-05 -2.48846695E-05
 -5.12523888E-05 -1.45647929E-03 -4.15967975E-04 -3.15870197E-05  5.89559026E-06
  3.25258541E-05  5.44706322E-03 -4.95738669E-03 -7.27992606E-04 -3.27145891E-04
 -4.32018953E-04 -1.51576272E-04 -1.91699843E-04  2.98305048E-05 -1.26674873E-04
 -2.01049660E-05 -1.87653203E-05 -1.01291352E-04 -2.26526420E-05 -5.04285104E-05
 -2.27268966E-06 -1.68131021E-04  7.91038879E-04  2.93662426E-04  4.15866647E-05
 -4.96179085E-05  3.73884685E-05 -1.46623340E-04  9.21034503E-05 -5.06136801E-05
 -1.12190875E-04 -1.10846243E-04 -5.20888232E-04  5.96902391E-05  9.32395220E-05
 -2.66217165E-05  2.58363378E-03 -3.09522666E-04 -8.61495059E-04  3.54746211E-04
 -2.69509336E-04 -2.44687757E-04 -3.94958838E-04  4.79737881E-05 -4.32326904E-06
 -9.58230071E-05 -1.64434776E-04 -3.51968033E-04 -6.50909401E-05 -1.35994714E-04
  4.60205612E-05  5.19952306E-03  1.38746423E-03  1.80185444E-03  2.34256618E-05
 -3.32708966E-04 -4.14875341E-04 -9.84525256E-05 -1.72229992E-04  5.26160699E-05
  7.36402131E-05 -1.68291377E-04 -9.90565369E-06 -2.52282941E-04 -2.12103338E-04
 -1.97322674E-04 -1.60069426E-04  1.37656104E-04  2.78843553E-03  1.64915938E-05
  1.68992475E-04 -1.24338329E-04  3.53206707E-04 -9.54493789E-05  1.12657609E-04
  9.92923787E-01  5.00910898E-02  1.69950808E-04 -1.12994222E-04 -2.95003206E-05
 -1.69941614E-02 -5.44865453E-04  8.07272400E-04  4.05796627E-04 -9.10179535E-03
 -9.12932182E-03 -9.14396530E-03  4.33605986E-05  3.63561389E-05 -7.05169842E-05
 -2.39584710E-03 -1.05231438E-04  1.36866750E-05 -5.72044698E-05 -8.54579152E-05
  2.40684819E-03 -1.04677522E-03  1.99999880E-03  8.08750938E-04 -2.18568905E-04
 -2.67189753E-04 -1.49657472E-04  5.37771389E-05  7.54628536E-05 -1.40123498E-04
 -4.13887155E-05 -3.60067161E-04  1.37276692E-04 -9.72258116E-05 -5.64222053E-06
  2.26308459E-03 -6.72000029E-04  6.75725906E-04 -3.81029566E-05 -3.86628092E-05
 -7.16795636E-05 -1.53057481E-04  1.12167298E-05 -1.62039331E-05  1.31591950E-05
  2.41835332E-05  1.05083513E-04 -4.39064975E-05  4.33144640E-05  1.57412224E-05
 -4.41449670E-04  2.22991956E-04 -2.41248289E-04 -6.07631050E-05  6.96181997E-05
  6.11356255E-05  9.64571555E-05  4.51465095E-05 -2.19498196E-06 -1.02140066E-05
  3.05551986E-05  1.60162427E-04 -2.62240773E-05 -1.12582098E-05 -2.05371370E-06
 -8.78639865E-04  4.36491268E-04  1.35613208E-04 -8.32155773E-05  1.32218454E-05
  1.20325372E-04  8.25609968E-05 -1.92144127E-05  3.77457620E-06  5.25550327E-06
 -5.30587337E-05 -2.45306023E-04 -1.73120202E-05 -9.08188907E-05 -8.24619005E-05
  9.09463873E-04  2.95338604E-04  4.95065489E-04  4.69986189E-04 -1.31306003E-04
 -4.24664736E-05 -1.03805287E-04  6.36913818E-05 -3.11400639E-05  5.23133625E-05
 -7.14900495E-05  2.76501175E-03  4.44764315E-06  2.82853147E-03 -3.27981271E-05
  2.52590570E-03 -1.38834371E-04  3.10250291E-05  5.81744974E-05 -1.87563873E-04
 -1.41791890E-04 -1.99254926E-04  1.15683126E-05  3.93723711E-04 -4.46072106E-03
  8.04844353E-03  3.96923716E-03 -3.21344520E-03 -2.31358547E-03  2.08814453E-03
 -3.52109680E-04 -3.83874227E-03 -1.66082195E-04  1.74953230E-04  3.35821345E-04
 -1.14350230E-05 -3.84547933E-04 -3.92971409E-04  5.26750590E-04 -1.89564042E-02
  3.53327149E-02  2.27382388E-02 -4.76810036E-03  5.69194169E-03 -1.53642930E-03
  2.80098399E-03  6.93423844E-03 -2.45955667E-03  6.16857027E-03 -6.62239150E-04
 -4.54615855E-04 -1.09744569E-03  1.99386467E-03 -5.93046455E-04 -1.16448909E-01
  2.26127016E-01  8.59898991E-02 -2.03747641E-04  1.61096977E-02  5.36015426E-02
 -3.44559413E-02  5.53997549E-03 -9.24733803E-03 -7.25040956E-03  8.11372894E-03
 -1.37745949E-02  8.33789168E-03 -1.62222556E-03 -1.51032415E-02 -9.77333592E-02
  2.11014188E-01 -1.83789935E-02  8.17052691E-02 -4.48132554E-02  1.95276653E-01
  1.05370848E-04  3.27015849E-02 -1.64341069E-02 -6.25334590E-03  5.77397018E-03
 -1.06619616E-03 -1.80583218E-03  3.33815706E-04 -5.85280741E-03 -1.66524561E-01
  3.67549019E-01 -1.00265898E-01 -1.79617006E-02 -1.05522498E-02  3.59209124E-01
 -4.89751230E-02 -1.11932247E-02 -4.03919250E-03  5.39039079E-03  8.24727639E-03
 -4.02630679E-03  1.93029148E-03  2.33161460E-03 -1.01845332E-02 -6.40476610E-03
  1.37212095E-02  7.26527545E-03  2.39458846E-03  1.11012780E-03  1.32437562E-02
  1.97308285E-03  2.54341276E-03 -2.45771185E-04  7.83368733E-04  7.58271650E-04
  3.83818799E-04  6.08282267E-04  3.36009630E-05  6.37618296E-05  2.33951212E-03
  5.94427718E-03  1.63070781E-03 -2.11617570E-05  1.12783985E-03 -2.00542111E-04
  7.10196003E-03  1.64468082E-03  9.60160023E-02 -7.39733910E-03  4.52559793E-03
  3.65682213E-05  3.80352238E-03  1.58458539E-04 -7.51576214E-04  3.42882783E-03
  3.06251764E-04 -2.83163901E-03  2.48614229E-04 -2.32774549E-03 -1.68056293E-03
  9.41003099E-03 -5.24053097E-03 -1.48446621E-04  3.85789186E-05  6.02103692E-04
 -1.41463831E-04 -1.27710321E-04  3.38368348E-05 -9.50551243E-03  1.65769140E-02
  3.17029128E-03 -1.54436901E-02  7.02989684E-03  7.87971128E-03 -2.26024587E-02
 -2.24460590E-02  1.20793930E-02  6.99169816E-04  1.54665980E-03 -4.72065463E-04
 -2.18301963E-03  1.83286274E-03 -1.10840454E-03 -5.99632949E-02  1.19189481E-01
 -3.92685914E-03 -2.08083576E-01  1.05161838E-01  4.38633267E-02 -8.15353921E-03
  3.79376125E-02 -1.99976809E-02 -1.55913867E-02  3.83327457E-03 -3.60972514E-03
 -2.18808895E-02  1.01926911E-02 -1.26524285E-02 -1.69261553E-01  3.64596952E-01
 -4.52988915E-02  1.10911138E-01 -6.44326722E-02  3.60982687E-01 -1.91957843E-02
  3.64361277E-02 -2.23301612E-02 -7.53417454E-03  8.56453876E-04 -4.10298053E-03
 -6.10574051E-03  2.99124233E-03 -5.87803228E-03  1.21595719E-01 -2.68268325E-01
  6.35754562E-02 -3.34361064E-02  2.99906022E-02 -2.87490465E-01  3.90317855E-02
 -1.90487482E-02  1.75279870E-02 -1.79894173E-03 -2.87353952E-04  3.27557616E-03
  6.42376690E-03 -5.29961637E-03  5.67645110E-03 -1.10670589E-02  2.34375463E-02
  9.57388956E-03  1.12907509E-03  2.35179477E-03  3.01921294E-03  3.08188498E-03
 -8.32962196E-03  6.15705267E-04  1.36857185E-03 -3.25690121E-04  2.96743607E-04
 -1.80966746E-04  3.40122860E-04  7.03518988E-06 -2.96547256E-07 -8.69966660E-03
  1.25626256E-03  6.56690499E-03  2.17201742E-04 -2.93614597E-03  2.57994088E-03
  3.22973104E-04 -8.74466609E-02  5.28308338E-05  7.91009140E-03  1.17436628E-03
  6.11360388E-03  5.08103782E-04 -4.18909197E-02  7.77981394E-02  8.38464658E-03
 -3.32611826E-02 -1.91813445E-02  5.46970614E-02 -3.73647756E-04 -5.88982364E-03
 -4.15157427E-03 -8.94524988E-04  3.20533043E-03  7.26398550E-04 -1.77344400E-03
 -9.72370570E-04  3.51072613E-03 -1.12661683E-01  2.14044957E-01 -5.26332399E-02
 -7.02328947E-02  1.04284280E-02  1.47291695E-01  1.26104885E-02 -3.71852520E-03
  2.18324352E-03 -2.77462786E-03  6.47260541E-03 -5.54353613E-03  1.12008369E-02
 -1.72752411E-03 -1.29632042E-03 -7.11187880E-03  1.57330062E-02 -6.82988066E-02
  3.02353865E-02 -2.78022060E-02  2.01200350E-03  7.51111674E-03  6.30867718E-04
  2.41533240E-04  7.99113440E-03 -3.81188710E-03 -1.56562327E-04 -1.49947478E-04
  1.43998192E-03  2.90039494E-03  3.06207099E-02 -6.75494720E-02 -8.22880819E-03
 -1.96923736E-02  7.99458717E-03 -6.82215210E-02 -6.40532120E-03 -7.69275495E-03
  3.02231515E-03  2.81462561E-03 -1.12189026E-03  6.65050272E-04 -7.67005468E-04
  7.66847979E-04  1.16301990E-03  1.08664574E-02 -2.33531491E-02 -4.12853369E-03
  3.57413517E-03 -2.23989326E-03 -3.18084106E-02 -1.22195111E-03  3.73805392E-03
 -1.87398504E-03  1.78281170E-03 -9.63745477E-04  3.83373606E-04 -1.14882509E-04
  2.21687140E-04  1.02315082E-03 -1.70087377E-01  3.52806559E-01  9.77778182E-02
  5.63080214E-03  1.61288718E-02  3.53433419E-01  4.44614587E-02 -2.46126018E-03
  7.97324665E-03 -5.98506986E-03  3.72752208E-03  4.48308870E-03  3.01427446E-03
 -2.35916864E-03  1.16859985E-03  1.65600886E-02  9.24658117E-04  1.99670421E-02
  5.08088865E-03  1.97111425E-02  2.14782765E-03  5.00165775E-02  5.48433269E-03
 -2.80708679E-03 -3.68751481E-04  1.07633894E-01  1.07982405E-04  1.07109940E-01
  1.64901364E-03 -1.45975553E-01  2.79377835E-01  2.64281927E-02 -2.16880499E-02
 -2.38552966E-02  2.42579615E-01  6.57546662E-03  6.26450998E-03 -2.20733991E-03
  5.37845390E-04 -2.67926570E-04  3.57594025E-05 -8.96778142E-04 -1.09654279E-03
  6.35122789E-04 -9.69861570E-02  1.88350201E-01  3.63164258E-02  1.22567527E-01
  3.67364509E-02  1.81088056E-01  1.65470286E-02  3.21056641E-02  1.30371700E-02
 -3.91571558E-03 -7.61559348E-03  3.66533809E-03 -1.06270704E-02 -1.40674336E-03
  5.49748977E-03 -3.43052750E-02  7.11398965E-02 -8.09008465E-02  4.39870306E-02
 -1.84895831E-02  3.53350201E-02 -1.11102025E-02  1.82854861E-02 -7.27499284E-03
  3.62757886E-03 -4.67672173E-03 -2.67995833E-03 -4.98096282E-03  1.92177982E-03
  1.28691163E-03  1.55355944E-02 -3.64573343E-02 -1.12867050E-02  1.81235253E-03
  2.73988045E-03 -2.74462641E-02 -5.70482821E-03  6.49410416E-03 -1.89384998E-03
  1.25769421E-04  4.68323747E-04 -3.05170013E-04 -2.18494916E-03  8.39342982E-04
 -2.70259356E-04  2.64623908E-02 -6.00770766E-02 -2.49053424E-02 -1.72017533E-02
  1.09171665E-02 -8.04801543E-02 -1.07238338E-02 -1.01213072E-02  7.38171449E-03
  4.96086088E-03 -2.14652442E-03 -5.97752274E-04  2.21128730E-03 -1.09302572E-03
  2.09936896E-03  9.19006443E-02 -1.95612875E-01 -2.49980531E-02  9.08392624E-02
 -7.16568942E-03 -2.24497757E-01 -1.67549696E-02  3.85740946E-02 -6.87744376E-03
  7.15953879E-03  1.48392606E-03 -6.07337276E-03  8.20933044E-03  1.79198323E-03
 -1.97200112E-04  9.36177611E-02  1.74293487E-02  8.64468763E-02  1.69253174E-02
  8.39568525E-02  1.47010204E-02  6.44794603E-02  1.24114263E-02 -1.63661077E-02
  2.79820295E-03 -8.00625096E-02 -8.66985211E-03 -9.09573802E-02 -1.42869253E-02
 -1.15707660E-01  2.25894206E-01 -4.67037899E-02  5.30592899E-02  4.85519363E-02
  2.30774784E-01 -9.18033117E-03  1.40665695E-02  1.33051482E-02  9.73187309E-04
 -2.84020095E-03 -9.63327785E-04  5.58676570E-03  4.54770490E-03 -6.87994536E-03
  8.74994228E-02 -1.79126308E-01 -1.40675372E-01  4.07525200E-02  6.76536657E-02
 -1.75599197E-01 -4.53835270E-02  7.48283481E-03  2.78771075E-02 -3.98771779E-03
  1.27726684E-02  1.04824767E-03  6.83637598E-04 -5.47699172E-03  6.97505688E-03
  9.35739542E-02 -2.02601889E-01  9.66603308E-02 -9.46528525E-02  8.69183471E-02
 -1.38543178E-01  3.71700851E-02 -3.36196339E-02  3.00122585E-02 -5.88104206E-03
  1.25510472E-02  8.27044398E-03 -2.72836795E-03 -2.89305189E-03 -2.34305964E-03
 -4.85445558E-02  1.12122704E-01  2.55631108E-02 -2.39831259E-02  2.47865231E-02
  1.17655494E-01  1.19310236E-02 -2.17835082E-02  1.69560788E-02 -6.41821186E-04
 -2.77873359E-03 -1.38334391E-03  3.60195129E-03 -2.54513339E-03  3.61466780E-03
 -3.68450039E-02  8.56661687E-02  8.24321732E-02  1.46739132E-01 -5.14112001E-02
  1.13985718E-01  3.93162310E-02  7.54144282E-02 -2.49176754E-02 -9.73182103E-03
  5.92608760E-03  3.35678982E-03 -1.19384262E-02  2.73049218E-03 -5.73921305E-03
 -3.73947187E-02  8.08545174E-02 -3.40354996E-02 -6.23644783E-02  4.12774214E-02
  1.00211603E-01 -1.06353169E-02 -2.77030430E-02  1.68595023E-02 -8.58348130E-03
  8.42937375E-04  5.32048556E-03 -6.84156412E-03  1.48920545E-03  3.52955820E-04
  9.22774910E-02  3.64863873E-02  9.74891937E-02  3.42546737E-02  1.00992148E-01
  3.56408355E-02 -8.61393130E-02 -2.47938539E-02  7.82552148E-02  3.17362349E-02
  5.73029038E-02  2.07914964E-02  3.13709557E-02  8.58161737E-03  4.07163794E-02
 -7.98351918E-02  2.02042858E-02 -3.36732193E-02 -4.57223975E-02 -9.48759613E-02
  2.24579725E-03 -1.16649639E-02 -1.83497821E-02 -1.37299819E-03  1.62261740E-03
  8.20826058E-04 -2.18872078E-03 -2.26267544E-03  4.77545711E-03 -5.97257335E-02
  1.20282509E-01  6.64811620E-03 -8.48264320E-03 -5.74811587E-02  1.45812392E-01
  3.24489434E-02  3.93176056E-03 -1.46951149E-02 -6.21875848E-03 -4.77665185E-03
  1.21652915E-03 -8.63166723E-04  8.14143353E-04 -4.59012130E-03  6.30954317E-02
 -1.41586443E-01 -2.07140768E-01 -1.30298838E-01  1.22093791E-02 -1.23149563E-01
 -8.14409624E-03 -2.77145687E-02  5.23480493E-03 -8.15919589E-03  1.05191445E-02
  1.18009825E-02 -1.56142712E-02  5.24178288E-03 -4.78575798E-03 -4.59889854E-02
  1.00708390E-01 -6.34784905E-02 -7.62386288E-02  2.05476159E-02  1.41544646E-01
 -3.54918550E-02 -3.78737095E-02  1.03469393E-02  1.71917169E-03 -1.00850265E-02
 -1.93859705E-03 -3.08811504E-03  2.27562619E-03  4.39570805E-03 -5.87095036E-03
  1.32294968E-02  5.41153473E-02  3.84312242E-01 -1.99593502E-01  1.46920384E-02
  1.96691799E-02  1.89633168E-01 -1.00966899E-01 -3.41590483E-03  6.74308127E-03
  4.96165760E-03 -2.32195839E-02  1.26998510E-02 -9.80704622E-03  2.44955511E-02
 -5.68439038E-02  2.54235044E-02  7.72099330E-02 -3.29095800E-02 -6.11642033E-02
  1.63760272E-02  3.95232054E-02 -1.57903662E-02  5.42578097E-03 -7.46375626E-04
 -5.63536716E-03  6.27821382E-03 -7.51830670E-04 -3.42891432E-04 -3.59344447E-02
 -8.45222277E-03 -4.74632676E-02 -1.74760889E-02 -3.79126352E-02 -1.53892351E-02
  7.30115339E-02  3.61737962E-02  2.06023045E-01  9.68126497E-02 -4.88901156E-02
 -1.13901529E-02 -3.32717252E-02 -8.49703218E-03 -5.70615248E-03  1.15095826E-02
  7.95543374E-02  1.81799655E-02  1.07350954E-01  5.28932023E-04  3.75382789E-02
  2.30387314E-03  4.76719588E-02  2.78760628E-04  9.71635620E-04 -1.84419002E-03
 -9.47562044E-05 -1.59413477E-03 -6.73992632E-03  4.31946111E-02 -9.22869244E-02
  2.30695231E-01 -3.58170656E-02  1.99736597E-01 -1.08790610E-01  6.49103316E-02
 -1.00973874E-03  8.11977602E-02  9.67423749E-03 -1.09907154E-03 -6.32322581E-03
 -6.42299484E-03  4.14407251E-03  1.16685703E-03 -6.41335693E-02  1.40214758E-01
 -2.20505169E-01  2.70739225E-02  1.33751748E-02  1.30609167E-01 -8.75779137E-02
  2.40046739E-02 -3.11272896E-03 -9.92722393E-03 -1.95954822E-03 -3.94063879E-03
 -2.44264813E-03 -2.45366352E-03 -8.68762843E-05  2.94155723E-02 -7.09469636E-02
 -1.29612436E-01  3.03084073E-02 -1.81235914E-03 -8.00315682E-02 -6.82382637E-02
  2.26514183E-02 -4.31457991E-03  3.45926606E-03  1.37073759E-03 -2.60175179E-03
 -8.79317698E-03  4.37155710E-03 -7.99184192E-04  3.00473816E-02 -7.28303009E-02
 -1.10535315E-01  1.28070011E-01 -4.53845613E-02 -9.51279678E-02 -7.05262025E-02
  6.09279657E-02 -1.80734530E-02  1.07255319E-02 -2.59031180E-03 -2.42246264E-03
 -5.03454300E-03  2.21266405E-03 -2.08217591E-03  2.61333659E-03 -9.88425665E-03
 -7.63204293E-03 -1.61916487E-01  1.58259162E-01  1.00187469E-02  9.34796750E-03
 -7.21516633E-02  7.53330446E-02  1.69498102E-04 -5.14352988E-03  6.16036461E-03
 -8.16511354E-03  9.99468450E-03 -3.01968106E-03  3.44453106E-02  2.67383563E-02
  5.63368220E-02  3.36187290E-02 -4.55317187E-02 -2.11198708E-02 -1.42033545E-01
 -8.34780684E-02  6.93831973E-02  3.53088626E-02  1.13999989E-01  5.93594818E-02
  1.68266570E-03 -1.08806136E-03  2.28126949E-02 -4.08758486E-02 -2.70877491E-02
 -1.95510272E-01 -5.77760465E-03 -8.11511439E-02 -1.27285661E-02 -6.47761845E-02
  4.29150976E-03 -5.05255459E-03  1.62430986E-03  1.79096585E-03 -7.02890539E-03
  6.83756898E-05  3.69098406E-03 -3.63561404E-02  7.77706665E-02 -1.50293790E-01
 -5.79189232E-02  1.83192362E-01  1.13415922E-01 -6.65294455E-02 -2.93036273E-02
  1.01063954E-01  1.14947873E-03 -3.83051646E-03 -5.75167165E-03  5.92389627E-03
 -5.54739978E-03 -3.64203065E-03  1.49802217E-02 -2.95154845E-02  1.39220050E-02
 -2.26627113E-03  9.35396647E-02 -3.14702986E-02  1.99863693E-02 -5.16419664E-03
  4.26892879E-02  7.70637504E-03 -2.68742393E-03 -1.26741968E-04  2.95425314E-03
 -2.10658559E-03  1.87938744E-03  6.71301274E-03 -1.12626724E-02 -7.06597955E-03
  3.98424656E-02  4.08723162E-02 -4.19083941E-02 -3.21502558E-03  1.54972459E-02
  2.67658478E-02  2.52053465E-03  4.63788184E-03 -2.29748541E-03 -1.18726940E-03
 -1.32187065E-03  1.83171987E-03 -2.46656909E-02  5.65035846E-02  8.69028664E-02
 -4.74666777E-03  6.97276862E-02  9.36446853E-02  5.22855381E-02  4.96710005E-03
  3.71865205E-02 -7.55873168E-03  1.26702840E-03  6.26155294E-04  5.34202248E-05
 -5.61117768E-03 -1.22202630E-03  5.21196117E-03 -6.75576235E-03 -2.32159989E-03
  2.53381839E-01  2.56139121E-01 -4.03091592E-02 -1.34571406E-02  1.11832583E-01
  1.23041467E-01  1.78073993E-04 -4.97062284E-03  3.50859473E-03  1.59231967E-02
  1.62286759E-02 -8.03843596E-03 -1.19442138E-01 -8.15928132E-02  9.59737623E-03
  1.51490973E-02 -2.75932601E-02 -1.56331425E-02 -7.39980283E-02 -4.94176792E-02
 -3.19633115E-02 -2.92086591E-02  7.36904382E-02  4.20696383E-02 -2.03286878E-01
 -1.22591604E-01  1.33128632E-02 -2.57566777E-02  1.16310062E-01 -1.33176718E-02
 -1.35017739E-01 -6.19952656E-02  4.78279597E-02 -1.25795512E-02 -5.28273746E-02
 -8.42201198E-04  2.51616570E-03 -3.97520990E-03  1.08931201E-03 -4.86847290E-03
  5.61130304E-03 -1.02336813E-02  1.96562578E-02  1.52307008E-02  2.07367766E-01
 -1.38502978E-02  2.43800476E-02  3.50815327E-02  1.31472602E-01 -4.13278946E-03
 -5.48845175E-03 -2.96292838E-03  6.09350045E-03  7.04878900E-04 -2.60568151E-03
 -3.42660510E-03  4.35170829E-02 -1.07782519E-01  3.18158662E-02  2.41184908E-01
 -4.92481702E-03 -9.70605287E-02  1.55591102E-02  4.96740836E-02  2.70616394E-02
  4.18287755E-03  6.59508151E-03  4.82170017E-03  1.88619727E-03  1.26570936E-03
 -1.69689110E-03 -7.20777300E-02  1.49993864E-01  1.31334449E-01 -2.10295051E-01
  2.17755224E-01  3.08629257E-01  6.38407866E-02 -1.00236434E-01  1.12278977E-01
 -5.89653511E-03 -1.17130881E-02 -1.05859165E-02  7.73609275E-03 -7.17937349E-03
  1.37690598E-02  1.91042888E-02 -4.23398646E-02 -1.63681318E-01 -1.77643280E-02
  8.32381720E-02 -7.37349740E-02 -1.02144935E-01 -7.36904252E-03  5.34194202E-02
  1.35949415E-02 -7.40035030E-03 -3.37345712E-03 -2.60606701E-03 -2.33290278E-03
  2.00112077E-03 -8.57143939E-03  1.34022941E-02 -9.95277955E-02 -1.07180990E-01
  1.61067777E-01  6.20432283E-02 -3.83128999E-02 -3.63634186E-02  7.70832262E-02
 -1.15146651E-02  3.25510651E-03  8.81462793E-03 -3.42720553E-03  6.51365248E-03
 -8.52526302E-03  2.66474175E-02  3.59963709E-02 -8.59349882E-02 -5.52875784E-02
 -5.65092803E-02 -3.23806577E-02  5.98403524E-02  4.26088458E-02 -7.52495294E-04
  4.37180100E-03  1.19064378E-01  9.13925708E-02 -3.05759451E-02 -1.65183358E-02
  4.39743915E-03 -1.34635941E-02  1.37746915E-01 -3.55390370E-02  1.98596033E-02
  7.45184207E-04  9.20937178E-02 -2.81049717E-02  1.08437316E-02 -5.11039191E-03
  3.12625036E-03  2.30524570E-04  6.91236337E-04 -3.40849780E-03  1.75047035E-03
 -1.20870363E-02  2.92824495E-02 -2.95909874E-02  8.90849882E-03  5.96144118E-02
  2.97328299E-02 -2.24961788E-02 -1.27138388E-02  3.86116734E-03 -5.89314847E-03
  2.90056978E-03  1.07235119E-03  6.04220649E-03  1.09772503E-02  8.13349680E-03
  8.72502325E-03 -1.71709596E-02 -3.92691727E-02  7.42726577E-02  2.80467734E-01
 -4.08111073E-03 -8.84327215E-03  4.29055852E-02  1.44339980E-01  1.23694570E-03
 -1.76376078E-03  3.74021427E-03  1.60817214E-03  9.80653116E-03  2.77229442E-03
  8.94354193E-03 -1.41189607E-02 -3.67531395E-02  1.46606721E-01  1.82222355E-01
 -6.07063829E-02 -1.62067334E-02  7.33471330E-02  1.05967569E-01  3.15246584E-03
  1.51785351E-02 -1.08893014E-02 -4.76539677E-03 -2.31967160E-03  8.43292587E-03
 -1.70760958E-02  3.68160957E-02  6.62275569E-02  1.41019470E-01  2.94179321E-01
  6.91268713E-02  3.87569253E-02  9.73370076E-02  1.91608608E-01 -3.22795080E-03
 -2.20923409E-04 -2.80555878E-03 -7.91928901E-03 -1.93311397E-02 -3.85364099E-03
 -2.86421332E-03  8.67748779E-03  4.24971587E-02 -3.59967497E-03 -2.23291795E-01
 -6.42997484E-04  1.95578071E-02 -9.58958581E-03 -1.22119690E-01  3.03828739E-03
  3.72268513E-03 -7.13564970E-03 -1.35189717E-03 -9.58931630E-03  1.21839719E-02
  2.35328014E-02  2.87119708E-02  1.03321265E-02  5.37704459E-03 -9.01950715E-02
 -5.10568144E-02 -2.38657220E-02 -4.23641264E-02 -2.39702133E-02 -1.31681656E-02
 -1.20492420E-01 -7.94195912E-02  1.01340894E-01  5.73801300E-02  4.76207495E-03
 -6.22331251E-03  2.81524451E-02  1.06213426E-01 -2.42586207E-01 -3.46571360E-02
  4.36102906E-03  5.85817325E-02 -1.20071442E-01  6.46435299E-03  3.06722279E-03
 -1.06923002E-02  3.15672437E-03 -1.44667308E-03  6.00630358E-03  1.48329702E-03
 -4.47360976E-03 -1.09746071E-02  1.57918740E-01 -5.86179919E-02 -1.29131600E-02
 -3.44006389E-02  6.65515536E-02 -1.14355948E-02 -4.39294776E-03  4.13855261E-03
  3.62095568E-03 -6.96071033E-03 -9.50183233E-05 -7.64975875E-03 -2.67627551E-02
  6.98111652E-02  5.04291763E-02 -1.75090069E-01  1.43008877E-01  3.54287445E-02
 -9.66286116E-03 -5.09139290E-03  2.14264063E-02 -1.00647111E-02 -2.69949965E-03
 -1.37602456E-03 -1.02430552E-02  6.35628428E-03 -3.09119983E-03  5.84451921E-02
 -1.22551942E-01 -8.19402600E-02  3.05131447E-01 -1.29991670E-01 -2.44758947E-01
 -3.83228175E-02  1.64526496E-01 -6.75708498E-02  1.60297522E-03  1.83460918E-02
  2.19281311E-03 -5.97983254E-03  2.91240613E-03 -1.02181501E-02 -2.18841603E-03
  4.71521891E-03  1.05095500E-01  8.08603495E-02  3.39336059E-02 -2.32635138E-03
  6.83935982E-02  3.87546808E-02  3.11629239E-02 -7.37840744E-03  6.96981761E-03
  2.14662056E-03 -2.01079441E-03 -4.41589135E-03 -3.96448157E-03 -5.00501336E-03
  8.55252760E-03 -9.09533691E-02 -8.80222110E-02  1.55295751E-01  2.54424942E-02
 -4.93296799E-02 -5.79747825E-02  8.45486442E-02 -9.30548765E-03  1.12240037E-03
  8.30925823E-03 -3.64926877E-03  5.80320587E-03 -9.85936968E-03  7.31134253E-02
  6.37661664E-02 -1.65819668E-01 -1.15681887E-01  3.50649625E-02  2.31710350E-02
  7.04660481E-02  6.11205794E-02  1.81495626E-02  3.66414962E-02  1.10191085E-01
  5.73147510E-02 -3.90096839E-02 -3.56660360E-02 -2.05470227E-03  1.88329331E-03
  2.82554261E-01  4.38124886E-02  7.00146227E-02  1.99693857E-02  1.33520479E-01
  2.67013037E-02  2.92125050E-02 -1.17265373E-02  7.91359661E-03  2.67978637E-03
  9.17063809E-03 -7.16035956E-03  1.70354207E-04 -2.66666375E-02  5.34944467E-02
  7.14179563E-02  2.44718960E-02 -1.03457335E-03  1.22083022E-01  4.77518102E-02
 -1.67782657E-02  1.15871300E-02 -1.01704991E-02  2.41787498E-03  4.51127128E-03
 -1.72394171E-05 -6.34172812E-04 -2.27584073E-04  3.42303111E-02 -8.09097616E-02
 -4.49702969E-02 -8.78391766E-02 -8.94857236E-02 -4.27043169E-02  6.69566147E-02
 -6.79344634E-02 -1.85079117E-02  1.81130478E-02 -5.81872948E-03 -5.83373122E-04
 -5.01606771E-03 -2.15453391E-03  7.82407422E-03 -5.91025594E-03  1.91198446E-02
  1.89029715E-02 -1.20029701E-01 -6.26666301E-02 -1.86723874E-02  7.84598035E-03
 -8.69171447E-02 -2.95662839E-02  5.50888561E-03 -9.13447928E-03  6.99418944E-03
  1.97197963E-03  1.76945442E-03 -3.82834186E-04 -5.06831572E-02  1.13135570E-01
  3.87326301E-01 -1.21541071E-01 -1.59423472E-02  1.93014946E-01  2.51585132E-01
 -6.00764782E-02 -2.18223325E-02 -2.45669333E-02  3.26918740E-03  3.96503723E-03
  7.63001484E-03 -2.42590266E-03  4.70161588E-03  1.22175694E-02 -2.58034365E-02
  3.62520946E-02 -4.29756795E-02  6.96519783E-02 -5.90574612E-02  2.44291752E-02
 -2.93377556E-02  3.96398615E-02  3.63330286E-03 -2.10979273E-03  2.04324086E-03
 -8.79252194E-04  3.83054768E-03 -4.14472972E-03  1.21199752E-01  8.34363922E-02
  3.55770623E-02  2.71318620E-02 -1.75651322E-01 -1.43353339E-01  3.40021234E-02
  2.24506560E-02 -1.09911518E-01 -5.28616663E-02  4.28873401E-02  3.18575283E-02
 -1.46606384E-02 -7.01287288E-03  1.01863140E-02 -2.17037775E-02  1.69742342E-01
  2.66729104E-01  1.60378598E-02 -4.23954731E-02  7.89092046E-02  1.11005519E-01
  6.26024388E-03 -2.42635238E-03  1.43978507E-02 -9.19016171E-03  1.82597706E-02
  4.65993391E-04 -6.63184327E-04  1.28199737E-02 -2.34877540E-02 -1.21628303E-01
 -2.23964802E-01 -1.76177104E-02 -6.92598075E-02 -3.11011974E-02 -6.77111195E-02
 -1.04933028E-02  2.74796412E-03  8.49309182E-03 -1.17975991E-02  1.82658428E-02
  1.91153300E-03 -1.72811952E-03 -2.64410423E-03  9.65508111E-03  9.63130918E-02
  1.43053882E-02 -1.00672056E-02 -3.60015921E-02  4.15131846E-03  8.60821029E-03
 -1.10334225E-02 -5.33729510E-03  4.51669825E-03 -2.05547976E-03  5.05810181E-03
 -7.87361056E-04 -5.60936219E-04 -5.79587479E-04 -1.19018861E-03  5.67634196E-02
  2.84810194E-02 -2.65191075E-02  1.96595674E-02  3.36668727E-02  2.50092177E-02
 -2.06342239E-02 -4.40089112E-03  2.08556076E-03  2.25761982E-04  2.93909819E-03
 -1.57930805E-03 -2.81771741E-03  2.78696532E-02 -6.10470545E-02 -2.17413134E-01
  1.76296261E-02 -2.06664572E-02 -1.11456786E-01 -1.45981545E-01  2.71362235E-03
 -2.81443051E-03  1.24759335E-02 -5.65972503E-04 -2.08464716E-03 -3.30955301E-03
  2.90200558E-03 -3.70014348E-04 -2.60035236E-02  5.77493415E-02  7.87930562E-02
  2.82557803E-01  3.31565552E-02  1.27402572E-01  4.84132955E-02  1.63216495E-01
  1.73391958E-02  4.26332114E-03 -9.72097289E-03 -5.01581060E-03  1.55582040E-02
  2.58160686E-03 -3.48545543E-03  2.16707441E-01  2.20834543E-01 -5.68347744E-02
 -4.95512250E-02 -8.13856690E-02 -6.33995698E-02 -5.47907158E-02 -4.75866193E-02
  5.70187809E-02  4.47880399E-02 -3.08810353E-02 -4.28172090E-02 -1.12202742E-01
 -9.86748552E-02  3.83497663E-03 -9.28550682E-03 -1.93479262E-01  2.17687263E-01
 -1.22495293E-01 -1.58864880E-02 -8.65154449E-02  1.12071191E-01 -6.04331855E-02
  1.64017995E-02  1.42554397E-03 -1.49516969E-02 -1.36755262E-03  6.49700518E-03
 -1.52153171E-03 -7.14392067E-04  1.96520925E-03  1.15782376E-01 -1.75024883E-01
 -2.77638246E-03  2.39684674E-02  4.78339690E-02 -7.65357059E-02 -4.51038193E-03
  7.73394610E-03  3.04302566E-03 -1.12491243E-02 -3.30789199E-03  3.69914374E-03
 -6.09341903E-03  2.15529862E-03 -9.78950357E-03 -1.93596065E-01  9.03715716E-02
 -2.10774788E-02  4.89932808E-02 -4.73283813E-02 -2.30886348E-02  3.36012909E-02
  1.03314596E-02 -3.43344254E-03  2.31220840E-04  1.64811299E-02  2.45447660E-03
  6.11367209E-03 -1.70704640E-02  3.56613536E-02 -1.23307558E-01 -1.90784315E-01
  1.41292886E-01  5.46538260E-02 -7.81069428E-02 -1.17160702E-01  8.57711144E-02
  7.82602013E-03 -1.02820083E-02 -4.70863745E-03 -4.92697526E-03  3.26605496E-03
  9.69707859E-03 -3.72094734E-02  7.73554351E-02  1.57854643E-01 -1.81675662E-02
  1.83390773E-01  1.82744350E-01  9.59400722E-02  3.72710931E-03  1.18008851E-01
 -9.05664435E-03 -5.69022437E-03 -4.35986740E-03  2.52913646E-03 -1.10040593E-02
  3.61211435E-03  1.43966094E-02 -3.30052128E-02  1.08783780E-01  3.32727047E-02
  4.71202056E-02 -5.35230158E-02  7.58858436E-02  1.63078805E-02  2.76859885E-02
  1.19421145E-02 -7.75673483E-03 -3.99002379E-03  1.20082621E-03  4.35437084E-03
 -2.80215922E-03  4.95425770E-02  4.36572343E-02 -1.25653145E-01 -1.04980842E-01
  1.71741777E-01  1.49786109E-01 -4.24318944E-02 -5.41610839E-02 -9.26184299E-02
 -7.44641390E-02  9.94803532E-03  1.59438906E-02 -3.22191676E-02 -2.47904614E-02
 -1.97073767E-02  4.06530795E-02  8.85552422E-02 -9.23309790E-02 -2.86238489E-01
  8.86770324E-02  5.10332239E-02 -4.23077822E-02 -1.37117545E-01  2.34056981E-03
  8.29474751E-03 -1.74169965E-02 -4.49251338E-03 -1.63235725E-03  9.22155804E-03
 -6.03824528E-03  2.65822092E-02 -7.39971083E-02  6.99621933E-02  3.32673581E-01
 -2.02023787E-02 -4.34910763E-02  4.27193419E-02  1.36115510E-01  4.25189564E-03
  1.16824532E-02 -1.98243445E-02 -3.72515434E-03  2.73387421E-03  1.79422558E-02
 -3.18604539E-03  6.65111570E-03 -1.54748672E-02 -5.46674065E-03 -6.91608618E-02
  2.86439655E-02 -2.45784289E-02 -2.32340272E-02 -3.88158104E-02  5.86789762E-03
  3.01879186E-03 -7.82708403E-03 -3.37920826E-03 -1.39030615E-02  1.90362899E-03
 -4.20161540E-03  9.27631555E-03  4.47899801E-03 -8.83149503E-02 -7.96270397E-02
  1.55660460E-02  7.61779915E-03 -5.46062372E-02 -5.39768765E-02  1.35743314E-04
 -6.03694475E-03  4.68380364E-03  1.49798706E-03  1.08813526E-03 -2.52462649E-03
 -8.19579265E-04  9.33712107E-04 -1.61519560E-04 -8.30226686E-02 -1.50613100E-01
  1.51351805E-02 -9.56729904E-05 -6.00758965E-02 -1.03811650E-01 -1.14397280E-03
 -6.08213545E-04  6.25848193E-04  3.60351233E-03  6.79181641E-03  1.49145014E-03
 -5.44334841E-03  9.82564782E-03  3.01862119E-02 -3.36089107E-03 -1.68944912E-01
  3.80124522E-02  2.51690325E-02 -1.05590115E-03 -9.35386852E-02  1.21676053E-03
  5.57427346E-03 -9.67029486E-03 -2.47784772E-03 -3.48040431E-03  1.67792361E-02
  1.47620363E-02 -4.69666288E-03 -1.62657732E-01 -1.73495697E-01  4.30569011E-03
 -2.51437120E-03 -2.10673884E-01 -2.12683181E-01 -4.10406971E-04 -7.45927213E-03
 -1.09736465E-01 -1.03452204E-01  9.32917853E-02  8.20939862E-02 -3.96409084E-03
  3.57612319E-03 -1.18116748E-03 -5.48349351E-02 -7.39840101E-03  3.17105773E-02
  2.08516613E-02 -5.86143306E-02  5.47745489E-03 -1.27711911E-03 -1.19613673E-03
  3.02231454E-04 -1.69936577E-03 -1.19468557E-03  1.01811185E-03 -1.70978368E-03
  9.92850402E-03 -7.32313436E-03  2.34921558E-02  1.98066374E-02 -2.12239374E-02
 -2.66284734E-03  3.08844026E-02 -4.31947472E-02  1.61931639E-04  1.50340976E-03
 -1.59921297E-03 -2.78903038E-03 -3.04512346E-03  2.56064237E-03  8.50081877E-04
 -1.36752475E-03  2.87454139E-02 -6.46037287E-02 -1.19454503E-01  1.31905769E-02
 -8.72909610E-04 -5.08932271E-02 -5.38055330E-02 -1.18842948E-03  2.86054371E-02
 -2.59079735E-02 -4.75607996E-03  8.05925239E-03  2.32710008E-02  5.67215319E-04
  1.57325203E-03  8.13829037E-02 -1.89271496E-01 -3.94631331E-01 -1.80781867E-02
  6.01642811E-02 -1.35500828E-01 -2.72030447E-01 -1.99229061E-03 -1.43781665E-02
  1.87306791E-02  7.92603500E-03  5.35208199E-03 -1.25563132E-02  3.17663780E-05
 -3.97563104E-03 -8.26228161E-02  2.17352026E-01  4.01553212E-01  1.62782904E-02
 -6.73079013E-02  1.65151646E-01  3.10152306E-01  5.26270532E-03  3.86710878E-03
 -1.27764927E-02 -1.10746151E-02 -1.71737760E-02  1.86395255E-03  3.09985209E-03
 -1.20288366E-02 -8.12854796E-04 -1.37969710E-02  1.46483957E-02  9.89166924E-03
  1.24051740E-02 -1.28444656E-03  2.63829028E-02 -3.33143844E-04 -2.12231431E-04
 -1.28329895E-03 -7.52350666E-04  7.64659944E-04  3.87685952E-04 -2.78504359E-02
  8.74178774E-03  7.78082227E-03 -1.80050351E-02 -4.15815993E-03  6.74984837E-03
 -1.11400717E-02 -6.19348095E-02  2.42419522E-03 -4.02119287E-03  4.33557118E-03
 -1.64449743E-02 -3.63057409E-04  2.88290109E-02 -3.62534102E-04 -4.86693563E-04
 -6.22427806E-02  1.61682616E-02 -1.77977907E-02  1.82796822E-02 -4.17431061E-02
  1.99236719E-02 -1.02574534E-02  5.64725326E-03 -5.68220985E-04 -4.75901087E-03
 -5.79350580E-03  6.05682702E-04 -1.26423574E-03 -3.14529244E-02  6.01995461E-02
  1.32932229E-01 -9.14126189E-02  6.67691417E-02  2.20009718E-01  1.41829526E-01
 -6.95043483E-02  4.12171436E-02 -3.47786726E-03  3.12411980E-03 -5.66651600E-03
 -1.67283127E-03 -1.57716352E-03  7.38239157E-05 -2.97928296E-03  1.35487449E-02
 -1.95982302E-03  2.74778518E-02 -5.50784187E-03 -2.50011141E-03  1.41015704E-01
  1.99223195E-02  1.82114682E-02  1.99787461E-02 -1.92630800E-02  3.56033502E-03
 -3.11785479E-02  2.04226507E-02  6.29615923E-03  2.25072069E-03 -6.83581076E-04
  5.36739832E-01  1.61207060E-01  3.75108243E-02 -3.60873073E-02  3.62784581E-01
  1.00626912E-01  2.92489630E-02 -8.02737673E-03  1.14209222E-02  7.79016218E-04
  1.69934046E-02 -1.07392527E-02 -9.67275147E-04  2.19077531E-02 -4.44844325E-02
  9.55696373E-02  1.09393731E-01 -3.84005820E-02 -1.66108180E-01  8.86456699E-02
  8.72085413E-02 -2.86417207E-02 -4.63778151E-04  7.50765129E-03  5.21991075E-03
 -4.81663795E-03  1.71824012E-03 -3.91275730E-03  2.24404425E-02 -4.46183623E-02
  2.17193301E-01 -7.64236590E-02  5.96064991E-02 -8.75832336E-02  1.41672845E-01
 -5.93908025E-02  5.16658158E-02  1.18515673E-02 -2.25505551E-03 -1.23381311E-03
 -3.01520863E-03  2.82874759E-03  1.60456993E-04 -1.74964087E-02 -2.77200305E-02
 -2.21766936E-02 -3.23609184E-02  5.36670236E-02  4.39579875E-02 -3.60911004E-02
 -6.17865291E-02  4.31022897E-02  6.26024772E-02  2.98499719E-02 -3.56746773E-02
  3.10026827E-02  3.01605261E-03 -1.59504799E-02  3.36616192E-02  2.73914615E-02
 -7.57211814E-02 -4.23293326E-02  9.01681106E-02  1.24327750E-02 -2.71081145E-02
 -4.74140349E-02 -6.74072189E-03  7.56615301E-04  4.40352993E-03 -3.73802153E-04
 -5.14330980E-04  2.04003817E-03 -5.30911084E-03  2.17129138E-02 -1.76659166E-01
  1.44014837E-02 -3.23596056E-02 -9.68054676E-02 -2.44126488E-02  5.86075406E-02
 -1.91844384E-02 -2.76660609E-02  1.71017715E-02  7.90706810E-03 -5.25900735E-03
 -6.75983668E-03 -3.20025622E-03  3.61905599E-02 -8.30519242E-02  1.76657637E-01
 -3.87536160E-02  5.91339614E-02 -1.73420706E-01 -5.27115134E-04 -1.15723507E-01
  5.61602227E-02 -8.75172850E-03  1.04020970E-02 -8.98325404E-04  1.76677559E-02
 -8.55574382E-03 -5.59647281E-03  4.79586669E-03 -3.04974862E-03 -1.73434300E-01
  6.81444038E-03 -8.20457267E-03 -6.42490194E-02 -1.21722238E-01 -1.16904983E-02
  3.64120312E-03  5.22487597E-03  2.43762888E-03  4.55958107E-04 -9.69579066E-04
  1.55781018E-03  4.07667101E-04 -5.77292366E-03  7.80804268E-03 -1.56742369E-01
 -6.23060019E-02 -6.08858670E-04  9.85824751E-02 -1.43157281E-01 -6.49380984E-02
  5.18347569E-03  1.56531980E-03 -3.74320973E-03 -3.72411244E-03  3.71231537E-04
  1.30940342E-03 -8.32684536E-04  6.20811590E-02 -1.39478337E-01  4.63734013E-01
 -1.31408404E-01  9.10818178E-02 -2.32342202E-01  4.06067800E-01 -6.83434310E-02
  7.32722724E-02  2.34174485E-02  2.37455068E-04 -5.83094831E-03 -1.09002733E-02
  7.81683839E-03 -3.03437250E-03 -1.71558032E-02 -3.58139633E-02  1.12156505E-02
  2.03449684E-02 -2.20260970E-02 -7.66105658E-02  5.52365068E-02  7.69218439E-02
  1.53092490E-02  5.67084131E-03  6.14442495E-02  6.97444217E-02  6.52875634E-02
  6.74116311E-02 -4.39158626E-02  8.09382245E-02  4.41094862E-02 -8.14822783E-02
 -5.68519114E-02  5.00787759E-01 -7.62313808E-02 -1.63089309E-01 -9.98555617E-02
 -9.70310352E-03  3.68238113E-03  2.70511878E-03  7.65877758E-03 -2.83352635E-03
  3.74025227E-03 -5.06381062E-03  9.50759490E-03 -1.78332928E-02 -4.94907803E-04
 -2.29975339E-02  7.62005929E-02  9.27140656E-02 -1.27720584E-01 -2.34092205E-01
  6.88751642E-03  4.62918569E-03 -1.31020611E-02 -1.69151221E-02 -2.47350684E-02
  9.95253819E-03 -1.40008053E-03  3.75898014E-03  7.76105436E-02 -2.40108036E-01
 -4.71139049E-01 -3.51850778E-02  9.72836299E-02 -1.80273941E-01 -4.22674879E-01
 -7.08078445E-03 -1.34001989E-02  1.78202716E-02  1.18806381E-02  1.34764455E-02
 -8.98782369E-03 -1.48558152E-03  1.45631444E-03 -5.79547110E-02  1.77771933E-01
  3.39543281E-01  2.80982211E-02 -6.57837583E-02  1.86724568E-01  3.42547111E-01
 -2.04585440E-03 -2.85321468E-03  3.67718040E-03  9.78486645E-04  2.62598424E-03
 -2.83631588E-03 -5.86423753E-03  1.29156084E-02 -5.33530026E-02  1.27939758E-01
  1.87925592E-01  5.13997428E-02 -5.24405018E-02  1.46436680E-01  1.81854552E-01
 -2.47184249E-03  1.22828619E-02 -1.19915916E-02 -6.89281632E-05  8.72194296E-03
  1.08016294E-02  7.25053372E-03 -9.73050035E-03 -4.54022028E-02 -1.40416825E-02
  1.43045637E-02 -9.12890500E-02 -7.25530884E-02 -1.85529071E-03  6.46389302E-02
  8.60943693E-04  4.90501738E-03  4.34341743E-04  7.26290842E-06 -1.61106626E-03
  1.32057930E-03  2.33645879E-02  2.39457898E-02  8.96096454E-03 -9.48365780E-02
 -5.04725710E-02 -2.99662095E-01 -7.96444788E-02 -3.54424644E-01 -1.36270717E-02
 -1.12181837E-01 -3.11164043E-03 -2.11062162E-03  5.59141940E-03  5.63112295E-02
  4.11890216E-02 -6.81062939E-02 -4.99689019E-02 -1.26972325E-01 -1.27691256E-02
 -5.21014119E-01 -9.96523071E-02 -3.74782832E-01 -1.84507069E-01  6.17429461E-03
  2.45301436E-03 -2.01281564E-04  1.38775265E-03 -1.50874412E-03 -4.26780893E-03
  4.60268196E-02 -4.88306058E-02 -1.52246770E-02 -4.94140159E-02  1.14311499E-01
 -6.62561207E-01  1.64885705E-01 -9.48503872E-02  2.45904442E-01  8.81035525E-03
  2.26771356E-03  2.58040372E-04  2.53737875E-03 -8.53607019E-03 -1.30780144E-03
 -1.33434175E-02  1.09731988E-02  7.29296442E-02 -7.69812738E-03 -7.58282278E-02
  2.15683670E-01  1.40752609E-01 -1.83119931E-01 -7.79378817E-03  1.50780141E-03
 -7.13210346E-03  5.82890266E-03 -8.74855672E-05 -5.63276647E-04  5.01438425E-03
  1.90813273E-02 -2.37801992E-02 -4.36817933E-02 -3.75522231E-02  6.98158077E-02
 -2.64892974E-01 -2.57595534E-02 -9.23677358E-02  1.16451235E-01  1.04429989E-02
  1.92441126E-03  8.29498878E-03  4.18146744E-03 -2.50069494E-03  5.48624202E-03
  6.89925017E-02 -1.06086666E-01  1.33665864E-01 -1.71814455E-01  1.52997407E-01
 -7.92311342E-01  1.93985781E-01 -2.65152891E-01  2.25931491E-01  1.66765963E-02
  2.67055257E-02  2.56910202E-02  7.38331382E-03 -6.19334395E-03  8.55378638E-03
  1.33910166E-02 -2.64954044E-02  1.80194206E-03  5.59369173E-02 -6.45449462E-03
 -1.00412916E-01 -5.75602768E-03  1.82532788E-01 -1.60002168E-02  3.36809501E-03
  2.39559994E-03  2.21935710E-03 -2.70556192E-04  1.36427375E-03  8.05788067E-03
  1.09229644E-02  6.20682115E-01  1.32136253E-03  2.08832076E-01  1.15866628E-02
  1.65926691E-01 -1.85227082E-02  5.29327453E-01  1.20933324E-01  1.14743622E+00
 -1.73006296E-02  7.87155917E-02  3.13491667E-02  2.49064578E-01 -2.82172697E-02
  4.41246999E-02 -4.08956641E-02 -1.06230616E-03  6.68565328E-02  3.54875322E-01
 -1.64596119E-01  8.19425155E-02  2.04680829E-01  2.93308006E-03 -1.59892667E-02
  6.53461113E-03 -5.67195375E-03 -7.78274478E-03  7.50810247E-04 -1.32716273E-02
  1.48254134E-02  9.69155229E-02  1.00553973E-01 -6.08777484E-02  2.28768814E-01
  2.48748392E-01  4.40229461E-01 -1.52758809E-01 -2.73469056E-03  1.07053540E-02
 -1.25001186E-02  1.24421400E-02 -5.70042103E-03 -1.98796129E-03  1.39653528E-02
  1.25323566E-02  5.44364124E-02  1.59048766E-02 -1.39524505E-02 -4.25081440E-01
 -4.72354902E-02  4.02111648E-03 -2.14376759E-02 -3.46950047E-04  1.90391427E-03
 -1.45927819E-03 -4.50298189E-03  5.80833694E-03 -3.57398648E-03 -1.96530663E-02
  3.84977857E-02 -1.14667794E-01 -1.48642721E-02 -4.59041792E-03  2.10360033E-01
 -1.01577910E-01  6.69393219E-02 -4.58059799E-02 -4.43754460E-03  1.05623195E-03
 -4.85791909E-03 -2.90780189E-03  3.34183361E-03 -6.61839811E-03  2.22688299E-02
 -4.69206053E-02  6.74812062E-02 -9.47097099E-02  7.09768419E-02 -2.10045080E-01
  6.93558839E-02 -2.07073861E-01  1.25912281E-01  4.67924473E-03  6.98546746E-03
  2.85753986E-03  7.62183334E-03 -3.34470246E-03 -6.74310575E-04 -1.10666415E-01
  1.54747439E-01  1.06081812E-01 -1.25700853E-01  1.23659044E-02  1.58380974E+00
  3.35761250E-01 -3.01905367E-01  5.95121668E-02 -2.40653779E-02 -2.32829505E-02
 -2.74728050E-02 -3.86430848E-03 -9.04612406E-04 -1.87086505E-03 -5.98029784E-02
 -2.34467640E-01  3.38911374E-02 -2.77706683E-01  1.44116837E-02 -2.25112457E-01
 -1.41669351E-02 -4.14934415E-01  5.62982078E-02  5.36716102E-01 -6.61254895E-02
 -8.29438839E-01 -7.16103906E-02 -1.02141671E+00 -7.84613645E-02  8.62093393E-02
 -8.33217652E-03 -1.49001985E-02  1.90142925E-01  1.36087942E+00 -1.74839167E-02
 -3.59839975E-02  4.24241480E-01 -5.02361824E-03  4.41333016E-03 -1.66338415E-02
  7.21405015E-05  2.50629551E-03  3.86840833E-04  3.58646600E-02 -3.19440082E-02
  1.60566463E-02 -1.02962593E-01  1.93508944E-01 -7.03001467E-01  1.39967595E-02
 -4.45525464E-01  5.16253974E-01 -1.24837695E-03 -5.23413251E-03  1.73757287E-02
 -1.90882642E-03 -7.38619060E-03 -1.70253660E-03  1.42236686E-02 -2.85740541E-02
 -1.52560668E-02 -1.18205287E-02  7.14022559E-02 -2.20857299E-01  1.30460119E-02
  1.07290561E-01 -1.25789657E-01  3.59828795E-03 -3.79265857E-03 -1.06956902E-03
  9.83976616E-03 -4.29295527E-03  3.88006989E-03 -7.75580090E-03  3.38735135E-03
 -3.87174831E-03 -3.76419664E-03  1.82519436E-02  1.69410214E-01 -1.22684259E-02
  4.74803492E-02 -1.43703322E-02 -5.19850886E-03  1.58865892E-03 -6.84649649E-03
 -4.08182130E-03  3.78528871E-03 -3.99414016E-04 -1.05340803E-02  3.55495646E-02
 -4.82024807E-02 -1.18679493E-03  2.13266412E-02  4.43001551E-02 -3.86304015E-02
 -7.90724119E-03  1.39768627E-02  5.89962170E-05 -1.03789973E-03  6.45761339E-03
 -1.28262692E-03  8.35009844E-04 -2.59912076E-03 -1.46511973E-03  4.59789535E-03
 -6.96201686E-02 -9.81973582E-03  1.88559540E-01 -1.60126700E-02 -1.46884972E-01
 -1.91649266E-02  3.54961690E-01 -4.07432827E-03 -1.16890900E-03  3.95407500E-03
  1.94045599E-03  9.14653179E-03  4.92130749E-03  1.81679329E-02 -3.30602138E-01
 -6.98822702E-02 -1.23078169E+00 -3.90030455E-03 -3.05091791E-01  9.83734754E-02
  1.20560627E+00 -9.58829088E-03 -7.32790444E-02 -4.59912347E-02 -6.99662601E-01
  2.23176003E-02  4.86299732E-01  5.35575841E-02 -6.29512024E-02  2.47407973E-01
 -5.13686784E-02 -7.99252804E-02 -9.94710219E-01  7.53714985E-01  1.70147490E-02
 -3.87249601E-01  7.04387353E-03 -7.92723611E-05  5.99618486E-03 -5.31883192E-03
  7.15977602E-03 -8.99631557E-03  6.64250456E-02 -9.55130723E-02  5.00868084E-02
 -2.31486693E-02  1.59488230E-01 -1.13665991E+00 -9.88234081E-02 -2.09364735E-01
  5.19330082E-01 -5.20214302E-03  1.40338808E-02  2.73046014E-04  8.03324514E-05
  2.38849383E-03  4.15114348E-04  3.41063872E-03 -5.71034830E-02 -7.76522965E-03
 -1.12658972E-01 -1.40856925E-01  1.76200952E-01 -7.33680477E-02 -2.43199336E-02
 -2.17663137E-01 -4.88111965E-03 -2.09096268E-03 -4.37910014E-04  1.82441804E-03
 -8.02521335E-03  5.49561250E-04 -2.58730365E-03  8.75302320E-03  1.37634270E-02
  2.66637934E-02  5.72237279E-02  1.86357630E-02  1.66979525E-02  5.00233224E-02
  8.77785866E-02  4.22979821E-04 -3.34384763E-03  5.46968512E-03 -3.30051890E-03
 -3.80902791E-04 -2.54436824E-03 -2.55195484E-02  4.19502846E-02 -4.74998996E-02
  8.76378786E-02  9.82816836E-03  2.79106386E-01 -7.82098205E-02  1.36147215E-01
 -1.58559244E-02 -6.90328912E-03 -7.38687944E-03 -1.07140322E-02 -4.44624112E-03
  5.86180877E-03  7.75648627E-03 -5.07930808E-02  6.69709156E-02  7.03613352E-02
 -7.37720106E-02 -1.33077058E-03  7.01357178E-01  1.41014929E-01 -1.17221475E-01
 -6.23549164E-02 -8.98723678E-03 -2.21832124E-02 -1.12384109E-02 -7.26163396E-03
  3.73917898E-03  3.28350848E-03 -3.56511937E-02 -1.96403567E-01  3.84303127E-02
  7.43381054E-01  5.17533391E-02  1.22138313E+00  2.91363180E-02  1.12965905E+00
 -6.58738604E-02 -4.62571590E-01 -3.48802196E-02 -4.08746838E-01 -3.20146093E-02
 -5.38439461E-01 -1.06417614E-01  1.03275166E-01  1.33394362E-01  1.76040963E-01
 -6.72643706E-02  1.87872484E+00  6.13985335E-01  3.02691704E-01 -3.97135437E-01
  9.48462341E-04 -1.79902693E-02 -6.45400077E-03 -5.78032096E-03  4.75643625E-03
 -8.97303068E-03  6.54123496E-02 -7.38100397E-02  3.01631957E-02 -8.00370356E-02
 -4.00264144E-02 -1.03827150E+00  7.50292229E-02 -4.63240874E-01 -1.04118315E-01
  5.56827059E-04  1.40391614E-02 -3.02541996E-03  8.32212957E-03  1.08091289E-02
  1.21276730E-02 -2.56470040E-02  1.89841939E-02  4.95595655E-02  3.95836716E-02
  2.60563573E-03  5.18088378E-01  1.22954102E-01  2.37361005E-02  5.38679705E-02
 -2.32169028E-03  9.59242517E-04  4.14143476E-03 -2.92837427E-03 -5.08539041E-04
  7.97478769E-03  2.01969479E-02 -4.03907411E-02  1.24995511E-02 -4.35114625E-02
 -2.80089231E-04 -2.40157414E-01  1.39178377E-02 -1.22869596E-01  5.04884117E-02
  4.90520288E-03 -2.25011081E-03  4.23425505E-03  5.20049828E-03 -4.95864265E-03
  5.61233663E-03  3.69761666E-02 -5.37194881E-02  4.83735116E-02 -1.29367140E-03
  4.90149056E-02 -4.85959822E-01  1.31306381E-01 -2.32470439E-03  2.31541734E-02
  6.12038982E-03  1.35023022E-02  1.84411109E-02  2.83095412E-03 -1.35778641E-03
 -3.23833970E-03  3.65098643E-03  2.06650640E-02  1.99589036E-02  9.98506782E-02
 -1.64978266E-01 -2.36198778E-01  1.27344806E-02  1.76619026E-01 -4.11628610E-01
  1.06759298E-02 -6.65504757E-03  1.09398210E-02  2.19103184E-03 -6.69092816E-03
 -9.59704759E-03 -7.63223382E-02 -1.62752674E+00  6.90163956E-03 -1.11781184E-01
  3.33564699E-02 -1.95274074E-01 -3.63904483E-02  3.18339506E-01  5.97568995E-02
  4.47935869E-01  8.17033816E-02  8.12985786E-01 -6.67448932E-02 -3.34961551E-01
  7.08030639E-03 -1.02016342E-02  2.33630776E-01 -1.47418097E-01  2.26138266E-01
 -7.79178381E-02  8.40843316E-01 -5.68277160E-01  8.87431373E-01  2.07850907E-02
 -6.04025530E-03 -1.03234688E-02 -1.72431550E-03  4.04419859E-03  7.07233687E-03
 -2.73880946E-02  3.64453402E-02  3.38932232E-02  1.53429143E-02 -1.41913575E-01
  4.69757010E-01 -2.56399548E-02  1.17911475E-02 -6.60761361E-01 -8.91505596E-03
 -6.00364505E-03  1.11454161E-02  1.49235577E-02 -1.46034057E-03  1.51760120E-02
  1.62740749E-02 -5.48214354E-02  1.22569419E-01 -3.36065350E-03 -1.03438326E-02
 -6.53520607E-03  1.08209324E-01  6.95680747E-02  2.70652113E-02 -1.68190200E-03
  4.75257119E-03  1.50972226E-03 -9.25022915E-03  1.97620526E-03 -3.67236702E-04
 -3.51687965E-03  1.17940652E-02 -5.76551427E-02  2.10915156E-02  4.85919432E-03
  1.97234291E-02 -7.30453312E-02 -2.53272015E-03 -6.53302410E-03 -1.42938652E-03
  3.39767928E-04  1.73445751E-03  4.47148477E-03 -6.46206460E-04 -4.77657559E-04
  1.17845646E-02 -3.35965095E-02  2.94559188E-02 -1.93508773E-02 -2.22300562E-02
 -1.22172054E-01  3.82453924E-02  1.64289533E-02 -7.78157420E-03 -3.75149282E-03
  2.50267849E-03 -2.06391759E-03 -2.89869387E-03 -2.81217450E-03  1.11137601E-03
  2.01327482E-02 -3.36443172E-02  2.98683207E-02  2.47079926E-02 -2.46479868E-02
 -2.94491731E-01 -2.26659342E-02  3.04563976E-02 -6.99413953E-03  5.27465434E-03
  9.96590911E-04  2.36983604E-03 -2.75354557E-03 -4.91760969E-03 -8.76351555E-03
  5.37283741E-04  8.74974174E-02 -9.00424415E-02 -1.23532017E+00  1.12194742E-01
  1.56155168E+00 -1.30916662E-02 -8.27039611E-01  1.47599321E-02  8.57921294E-02
  4.71018084E-02  3.24648484E-01 -1.17962561E-02  5.34262510E-02  2.30258771E-02
 -4.56380339E-02  1.18281706E-01  2.00949513E-01 -3.93218794E-02 -2.67891675E-01
  3.33408491E-01  5.64620846E-01 -3.72504678E-02  9.19012634E-04 -9.51197639E-03
  1.06051613E-02 -2.13346683E-03 -4.88414799E-03  5.38029753E-03 -7.25038112E-04
 -1.04109048E-02 -4.98359527E-05  1.73508965E-01 -5.02279442E-02  1.39412793E-01
  1.22980303E-01  5.67454390E-01 -1.97545256E-01  5.39190215E-03  7.59489066E-03
 -1.74768504E-02  1.79076576E-02 -6.45580220E-03 -7.75616384E-03 -1.47615264E-02
  5.59079568E-03  6.61372386E-02  7.32602356E-02 -1.30365965E-02  2.46351788E-01
  7.97298591E-02 -2.77694366E-02 -2.42812601E-02 -1.51790234E-02  5.36026294E-03
  3.64530910E-03 -1.22249576E-02  7.03883446E-03 -2.83590359E-03 -6.91975461E-04
  9.95542008E-03 -6.43214863E-02  8.88583198E-03  2.85421408E-02 -6.86714329E-02
 -6.84460060E-02 -2.84460909E-02  2.86645327E-02 -2.51064563E-03  2.14364837E-03
  2.67949128E-03  2.39779454E-03  2.22802120E-03  6.24878213E-03  2.25910953E-02
 -5.25201911E-02  7.88065826E-02  2.32242649E-02  1.30549381E-02 -2.20756359E-01
  1.01707486E-01  4.27465968E-02  7.81626310E-03  5.05424975E-03  1.29450480E-03
  2.84523992E-03  3.52823373E-03 -1.77962506E-03 -1.92573056E-03 -1.51866890E-02
  3.52757590E-02  2.82083158E-02  2.25905347E-01  2.78254837E-01  1.52135247E-01
  7.86427747E-02  5.16263495E-01  6.85446404E-01 -1.19527922E-04 -2.18886180E-03
  1.99678005E-03  2.70432152E-03  1.03584012E-02  1.35291364E-03 -7.60783433E-02
 -9.00557765E-01  4.44087597E-02  5.53621705E-01  8.36379705E-03  3.73344928E-01
 -4.97056414E-02 -5.07397769E-01  1.94353525E-02  1.53462910E-01 -5.35610843E-02
 -7.60534067E-01  8.01751953E-02  1.26534030E+00 -3.69956166E-02 -5.15263750E-03
 -7.83723561E-02 -1.40898967E-01 -7.02537073E-02  8.30409763E-01  3.01255959E-01
 -7.87306175E-01 -2.54105075E-01  1.05861869E-03 -1.28776659E-02  1.57949468E-03
  1.55854768E-02  1.57125743E-02 -1.77866900E-03  1.03252907E-01 -1.27253617E-01
 -2.13924616E-01 -1.07445268E-03 -2.40185097E-01 -1.61993106E+00 -6.71345839E-01
 -3.70753910E-01 -9.22261519E-01  2.08787417E-02 -4.95974645E-03 -7.79253950E-04
 -3.88717264E-03  2.92386271E-03  5.64188358E-03 -1.26054123E-01  1.29891210E-01
 -7.30419953E-02  1.89974619E-01 -6.69384559E-03  2.29064874E+00 -1.75254915E-01
  3.10356262E-01  5.35214152E-02 -3.46305491E-02  2.05623951E-03  1.88290459E-02
 -6.68083470E-03 -2.69598372E-03  1.54091792E-02  3.26895143E-02 -3.51705858E-02
  1.34006739E-02 -1.17549297E-01  3.06044938E-02 -5.28846243E-01  7.11654888E-02
 -3.01568540E-01  9.03253973E-02  8.35282590E-03  7.17686950E-03  2.18363478E-02
  7.85551809E-06  7.79503424E-05  1.71345305E-02  4.03524483E-02 -8.50683005E-02
  1.42848201E-01  1.66838060E-01 -1.33414095E-01 -4.99662752E-01  2.98760841E-01
  3.83834274E-01 -1.98445699E-01  4.95006312E-05 -5.45693740E-04  1.36124410E-02
  2.66297001E-03 -9.56734068E-03  7.20630083E-03 -1.90634469E-02  3.52655578E-02
  7.29615025E-02 -6.40540507E-02  1.14704767E-01  2.64282505E-01  1.36789646E-01
 -1.55952360E-01  3.39270380E-01 -8.62668244E-03  1.49061971E-03  1.15813257E-03
 -1.66599983E-02 -2.51370572E-03 -1.09451377E-02  3.75738007E-02  4.08593294E-01
  4.91137034E-03 -1.60495185E-01  6.62345926E-03 -1.38893031E-01 -8.58477260E-03
 -2.42891321E-01 -7.13950053E-02 -2.57360086E-01  9.03328534E-03 -5.48162622E-01
 -3.75476427E-03 -9.21033994E-02  4.78831563E-02 -2.90233274E-02 -6.97575305E-02
  1.00019978E-01  2.05375765E-01 -9.90982279E-01 -3.76560670E-01  8.48811880E-01
  9.40153945E-01 -6.84049253E-03  8.17990355E-03  6.92049153E-03 -8.58024186E-03
 -7.19908660E-03  2.28449578E-02  3.71906319E-03 -3.40946162E-02 -2.41948879E-01
  3.14656467E-01  2.17729066E-01  2.69981433E-01 -8.13707786E-01  1.03548297E+00
  8.75745031E-01  2.17943834E-02 -7.17089354E-03 -1.21795605E-02  1.50681715E-02
  8.50310629E-03 -5.39533160E-03 -8.06644876E-02  1.61043904E-01  5.57289062E-03
  1.06299191E-01 -2.00122283E-01  1.09983181E+00 -2.18396854E-02  1.89487652E-01
 -4.61233368E-01 -1.70188933E-02  4.47597487E-03  7.53476381E-03 -2.35442125E-02
 -1.09422331E-02 -2.32614048E-03  7.40290118E-03 -2.99636738E-02 -1.13061299E-02
 -6.82478747E-04  5.70784203E-02 -1.99911138E-02 -3.61611384E-02 -1.85587106E-02
  1.17533232E-01 -3.45673088E-03 -9.16986673E-03  1.22310595E-03  1.12439591E-03
 -7.10870583E-03  9.33118864E-04  3.20795245E-02 -7.65813086E-02  1.24834872E-01
  1.73699374E-01  1.48335939E-02 -3.53884249E-01  2.31277890E-01  2.82949975E-01
 -2.18366185E-02  3.96437610E-03  6.33166671E-03 -2.99812915E-03  9.32944378E-03
 -3.97012203E-04  7.61207685E-03 -5.08079562E-03  2.50444252E-02  1.32967930E-01
  6.68216036E-02 -1.22436196E-01  1.15869994E-02  3.12292210E-01  9.41495888E-03
 -4.00565900E-01 -1.05021833E-02  1.43302880E-02  2.26580097E-03 -1.13940440E-02
  7.87420590E-03  3.60691731E-03 -3.21864020E-02 -6.46780117E-02 -4.55297741E-02
 -5.00101167E-01 -5.22647276E-02 -1.29313339E-02  1.52227178E-03  5.47019922E-01
 -4.12406578E-02 -1.71641036E-01  5.59831141E-02  5.10980498E-01  2.37824014E-02
 -2.39571204E-01  2.41762908E-02  1.23217854E-02  6.59552612E-02  9.80280995E-02
  5.55259070E-03 -5.70089217E-01  4.70172828E-01  8.49228280E-01  2.84869057E-01
 -1.38560911E-02  1.24029134E-02  9.38649685E-03 -7.86884369E-03  1.59892901E-02
  1.44103348E-02 -9.18804318E-02  1.33758012E-01 -2.87208078E-01 -1.56439117E-01
  3.63521545E-02  1.77852598E+00 -1.38828092E+00 -4.91591418E-01  1.28689914E-01
 -1.07340315E-02 -2.99517337E-03  1.45454898E-02 -3.13962521E-02  1.27742328E-02
 -3.21506128E-03 -2.81393080E-02  3.04109367E-02 -2.94451917E-02 -9.45299116E-02
 -1.21729697E-02  9.68050775E-01 -2.48960305E-02 -4.05470634E-01  1.75932677E-01
  2.54039403E-02 -9.45540318E-03  2.27202014E-04  2.44654633E-02 -1.05263966E-02
  1.29333234E-02  3.96506269E-02 -4.59826551E-02  3.80583978E-02 -9.65638843E-02
  6.98897606E-02 -6.74485652E-01  1.26937939E-01 -2.53296221E-01  1.68707737E-01
  1.93193682E-02  6.51944921E-03  1.92194998E-02  1.14196828E-03 -1.22757859E-03
  6.91955267E-03  2.06870041E-02 -9.17824772E-03 -8.40937432E-02 -7.81610784E-02
  4.76131733E-02 -3.22297804E-01  3.69787448E-04 -7.48856483E-02  5.16094058E-02
 -6.24162143E-03  2.28585767E-02  1.69331663E-02 -2.97113062E-03 -1.40259375E-03
 -3.42581756E-03  5.24170404E-02 -5.80998721E-02 -1.61533533E-01 -2.83633309E-01
  8.72210410E-02 -9.56007364E-01 -4.74367378E-01 -1.00509787E+00  1.87225664E-01
  9.54437331E-03  2.84974360E-02 -3.32243112E-03  2.89708481E-03  9.64797176E-03
 -1.38300197E-02 -3.01222513E-02 -6.90195152E-01 -6.03675588E-04  1.79763562E-01
 -1.33883669E-02  4.11061388E-01  2.87483202E-02 -3.17157650E-01  1.01794342E-01
  5.65093337E-01 -2.53591716E-02 -4.92604212E-01 -4.13311329E-02 -1.85530888E-01
  1.02646322E-02 -1.89669342E-02 -5.03529205E-02 -5.66570948E-03 -1.37645275E-01
 -8.11859630E-02 -2.97602042E-01  4.10283362E-02 -6.76400863E-02  8.96838839E-03
  2.10629005E-02 -2.65915486E-02 -2.14330980E-02 -1.04787627E-02  2.94960333E-03
 -6.96209964E-02  7.70844386E-02  1.21447716E-01 -2.89344372E-02  1.21897563E-01
  1.57862448E+00  1.18048643E+00 -5.98822377E-01  4.82465241E-01 -3.57429613E-02
 -3.67560229E-03  2.42166996E-02  1.72821510E-02 -2.72270043E-02  1.25108203E-02
  6.26131646E-04 -1.06987693E-01  5.93072991E-01  8.48653379E-02  8.67640383E-02
  2.26056528E-01  2.02327232E+00 -8.13942558E-02  3.91820490E-01 -4.64066383E-03
 -7.81813348E-03  1.02233461E-02 -1.17484049E-02 -1.94093118E-03  8.64140453E-03
  4.29433582E-02 -5.56239840E-02 -1.91945402E-01 -1.09915225E-01  2.80596297E-03
 -8.08767902E-01 -3.63769448E-01 -4.47268131E-01  1.65259249E-01  1.01944622E-02
  8.99884052E-03  1.92058217E-02  1.55604376E-02 -1.46812665E-02  1.54282947E-02
  5.42820775E-02 -9.60491555E-02  1.25080993E-02  2.38334659E-01 -1.07727603E-01
 -7.67810541E-01  1.44871848E-01  6.72945509E-01 -3.20130951E-01 -7.56450572E-03
  2.69495628E-02  2.07222395E-02 -1.02240457E-02  2.30121594E-03 -9.61914189E-03
 -3.25867073E-03  4.47592321E-02 -6.35091127E-02 -4.68203461E-02 -2.71143788E-02
 -1.09946368E-01 -2.43964901E-01 -4.59163758E-02 -4.74779739E-02  1.17768882E-02
  2.83371038E-03  7.96637490E-03  1.59704418E-02 -2.37586196E-03  1.57097559E-02
  5.82461130E-03  2.21296087E-01 -1.09034325E-01  2.37092109E-01  4.25237365E-02
 -1.88793573E-01  6.53416480E-02  2.05459024E-01  1.27596289E-02 -5.36000305E-01
 -6.98160658E-02 -2.28760544E-02 -2.02669849E-02 -8.99239670E-02  7.79324707E-03
  2.89423805E-02  4.03604671E-02 -1.72704363E-02 -1.10197827E-01  1.43648664E-02
  2.02459816E-01  3.69837831E-01 -4.01822533E-01  1.05754705E-02  1.03290138E-02
 -4.91552114E-03  4.29695094E-04  8.17208207E-03  1.78856056E-03 -3.57200685E-02
  1.16656139E-01 -1.03602549E-01 -2.64192615E-01  7.43196121E-02  3.31656339E-01
 -9.97382041E-01 -1.47750658E+00  3.65796273E-01  2.36108534E-02  6.58004624E-03
 -1.56144166E-03  2.21299721E-02 -1.24083307E-02  2.47410617E-02 -1.83248937E-04
  1.56303963E-01  1.65772823E-01  3.25046297E-01 -1.11820468E-01 -1.13951309E+00
 -2.35779506E-01  2.50204922E+00 -1.23292930E+00 -2.63979314E-03 -1.15320077E-02
  2.41393062E-03 -6.08492842E-03  6.72091729E-03  4.52329851E-03 -1.04499051E-01
  1.20983380E-01 -1.04875355E-01  2.79124879E-02 -6.11536367E-02  2.36986217E+00
 -3.73414620E-01  7.39025770E-01 -4.65400376E-01 -5.34388932E-02  6.51372073E-03
 -3.78398714E-02 -1.10445020E-02  3.98549263E-03 -3.60444506E-02  4.00811612E-02
 -1.72163570E-02  1.33652147E-01  5.20061467E-02  1.24301913E-02 -9.16310897E-01
  4.98135803E-01  8.69254911E-02  2.36639198E-02  2.31255660E-02  2.85576085E-02
  2.35944500E-02  2.81559007E-02 -1.08515781E-02 -2.16772845E-03  5.28154054E-02
 -1.04795951E-02  6.38695454E-02 -9.12120679E-02  4.97815634E-02 -1.35741544E+00
 -5.04375993E-01 -7.17020821E-01  1.36251006E-02 -4.34857388E-03  3.14509922E-02
  1.94500449E-02  1.14426398E-02 -8.89053534E-03 -7.94210770E-03  1.93154495E-02
 -3.46939426E-01  1.58312570E-02  5.08945318E-01  1.46416724E-02 -4.92335466E-02
 -6.28457118E-02  3.58005080E-01 -6.01909528E-02  8.96423814E-02  3.89443166E-02
  2.93326520E-02  1.89377715E-03 -8.38804948E-03  5.74992074E-03 -8.10468052E-02
 -4.31691519E-01  1.36822922E-01 -2.24632936E-01  4.24988700E-01  8.25864566E-01
 -7.53142997E-02  4.46136015E-01  6.77153190E-02 -1.94694774E-02 -4.23493113E-02
 -4.74276949E-02  2.72637689E-02  3.41168293E-02  2.45091961E-03  1.07257324E-02
 -2.23275068E-02  1.75689480E-01  7.94457902E-02 -1.77584253E-01 -5.64119547E-01
 -6.29983946E-01 -3.24957956E-01 -1.14984336E-02 -6.07320724E-03  1.63020751E-02
  2.60909091E-02 -9.05899421E-04 -7.30327685E-03  2.81313173E-02 -4.55786131E-01
 -1.06578520E-01 -4.30415430E-01 -4.12641257E-01  8.05023328E-01  5.27698536E-02
  1.01640775E+00  2.36120836E-01 -1.53534846E-02  9.14473366E-03 -2.67892107E-02
  2.13079175E-03 -3.46859400E-02 -9.57439141E-03 -1.35207548E-02  5.79361313E-02
  5.81129311E-03  4.05643389E-02 -4.77485949E-02  2.02604089E-01 -5.70023050E-02
 -4.70861679E-03 -7.65692474E-02  1.09657070E-02 -3.24080564E-02  4.00601070E-02
 -6.98322721E-03  1.31798562E-02 -8.47398786E-03 -4.99838778E-03  4.72833220E-02
 -6.77329215E-02 -1.53712156E-01 -4.01981882E-02 -4.34887454E-01  1.12287444E-01
  8.27556059E-02 -6.39439850E-02 -8.95685452E-03 -1.32642906E-02  1.43768437E-02
 -4.44431733E-02  2.40736801E-02  4.97197173E-02  1.67742548E-03  6.90581094E-02
  4.20852218E-03  5.47772571E-02  3.81572861E-02 -4.75425983E-01 -6.98906745E-02
 -1.48118665E-01  6.80110131E-02 -9.89106964E-03  5.00090388E-04  3.71559178E-02
 -2.03777714E-03  8.64960435E-03  2.08109143E-03 -1.39529531E-01 -1.50652508E-01
 -2.48056094E-01 -5.25198259E-02  3.13966508E-01 -1.97462918E-02  8.32197812E-02
 -4.70572308E-02 -5.09748735E-02 -2.84481972E-02  5.73561418E-02 -8.59331670E-02
  1.71137399E-02  6.18897266E-02 -5.86993037E-03  1.26013816E-01  1.39103272E-01
 -4.09981558E-01 -3.84549275E-01  1.44739016E-02 -1.24499670E-01  7.17789167E-01
  4.65615394E-01  2.03627534E-04  3.33676670E-03  1.96447896E-02 -2.11914283E-02
 -1.87344484E-02  3.88440442E-02  1.63095622E-02 -1.82255267E-01 -1.79133308E-01
  2.55444081E-01  4.36455147E-02  1.02135834E+00  1.92975621E-01 -7.40615892E-01
  1.50140288E-01  1.48137635E-03  3.40941185E-02 -2.11386637E-02 -2.09436860E-02
 -1.02397846E-02  8.06528178E-02  8.52621433E-03 -2.76425412E-01 -4.19890287E-01
  1.32271715E-04  4.50271570E-01  1.78901257E-01  9.91142732E-01  5.63384298E-01
 -5.87033012E-01 -4.65938100E-02  1.46385977E-02 -1.59338904E-03  4.98257261E-02
 -3.06935333E-03 -1.98273976E-03 -4.18179684E-03  9.12400380E-03 -1.07376248E-02
  3.10072020E-02  7.99535575E-03  1.87133460E-01 -1.42204181E-01 -1.45152262E-02
  6.71418249E-03  1.86514387E-02  3.84743028E-03 -1.77099165E-02 -3.38615930E-02
  1.75745559E-02  2.79653254E-02  6.41919269E-03  5.01616748E-02 -1.24122392E-01
 -8.44011038E-02  7.86323252E-02 -6.67872092E-01  1.48804125E-01  1.96205914E-01
 -4.17391205E-02  1.04532058E-02 -4.34449658E-02  5.24090364E-02 -5.40107888E-02
  1.11889022E-02  1.96639595E-02 -6.66146631E-03  9.55423919E-02  2.36111734E-02
  4.66291415E-02  6.65040372E-03 -4.68967388E-01 -1.52053632E-01 -7.11204481E-02
 -1.05602646E-01 -1.15039968E-03 -1.51122898E-02  3.81617978E-02 -9.03205918E-03
 -1.67260844E-02 -4.12166297E-02 -1.33155125E-01 -1.17681516E-01 -6.02539014E-02
  2.06722779E-02 -6.59139740E-02  2.92603693E-02 -1.74975295E-01  1.97168716E-01
 -4.36964006E-03 -7.71917387E-02  1.85424192E-01  1.53737930E-02 -1.56880151E-01
  2.43894881E-02 -5.61889151E-03  1.01052463E-01 -2.68811595E-01 -4.87166770E-01
  1.97634290E-01 -4.85707091E-01  5.24388418E-01  1.05001687E+00 -2.91191383E-01
 -4.05851511E-03 -6.58518401E-02  6.72034048E-02 -5.91182998E-02  2.18064341E-02
 -3.41460534E-02 -4.61457884E-03  3.43127004E-02  2.97995165E-01 -1.71428092E-01
  4.54938569E-04  2.64508635E-01 -9.31959723E-01  2.15167686E-01  2.50782912E-01
 -2.35813136E-03  5.61124100E-02 -2.72889614E-02  1.67167460E-02  9.87150431E-03
  2.89387909E-02  1.55540710E-03  3.54135748E-02  2.19132818E-01 -9.68130913E-03
 -8.82453148E-02  4.46999465E-01 -3.94877819E-01 -1.96995731E-01  1.01370700E-01
  2.88265007E-02 -1.12047693E-03 -9.22974734E-03 -2.59601748E-02  2.64375291E-02
 -1.24206640E-03  7.41485217E-03 -9.45214443E-03 -1.95358796E-02  1.51753697E-02
  3.39263412E-02 -1.90269695E-01  6.46261341E-02 -9.46100227E-02  2.80021503E-02
 -8.78428245E-03  1.03837929E-03  5.45133384E-03  2.23617458E-02 -6.25290605E-03
 -2.77281775E-03 -4.24213844E-03 -1.02033319E-02  4.07046852E-02  3.47617566E-02
 -9.68666421E-02  2.06795038E-01 -6.59987466E-02 -4.39379685E-04  3.22438571E-02
 -8.73695979E-03  1.91546247E-02 -1.91105335E-02  1.17409207E-02 -1.41796412E-02
 -7.36039682E-03 -6.76037841E-04  9.19493243E-02 -6.41512371E-02  2.25196217E-01
  1.03834402E-01 -4.25884998E-01  2.07082490E-03 -3.92444892E-01 -2.43065409E-01
  4.14878088E-02 -2.38955063E-02  2.26089739E-02  1.50778190E-02  1.98119655E-02
 -6.22949137E-02 -3.78867042E-01 -7.80336927E-02  2.84073511E-01  4.73936121E-02
  7.08394834E-02 -2.30866216E-02 -1.67900764E-01  1.54666003E-01 -1.83425988E-02
 -5.60485179E-02  1.78687682E-01 -4.19445053E-02 -2.82016796E-01  2.01845907E-01
  5.16365430E-03 -1.19067642E-01 -1.36952236E-01  1.29236602E-01  4.02421742E-01
 -7.19823299E-02  9.20753860E-02 -1.96026120E-01 -7.81106129E-01 -2.26388396E-02
 -2.29857629E-02  1.62804697E-02  6.81602824E-03  4.71260524E-03 -3.40138029E-02
 -2.88800011E-02  1.12135489E-01 -4.25339386E-01 -3.74479577E-01 -6.27306450E-02
  5.15025109E-01  1.06793789E+00  2.15402990E-01  4.63634767E-01  3.11104807E-02
 -1.34325004E-02 -2.48972899E-02  2.72909248E-02  1.04893035E-02 -4.58304619E-02
  2.66848828E-02 -3.96886423E-01 -4.24707480E-01 -9.31574187E-02  1.00381305E-01
  7.31409556E-02  1.61819381E+00  1.35568437E-01 -1.35300323E-01 -5.21677174E-02
  3.86440365E-02 -7.96209559E-03  9.63053972E-03 -2.02181929E-02 -3.09199442E-02
 -1.30587684E-04  1.07498372E-02 -1.06913788E-01  9.39087840E-02 -4.00702293E-02
 -2.07936594E-01 -2.17992079E-01 -1.28527214E-01  8.33154463E-02  2.09298684E-02
 -3.72157488E-02 -1.03629544E-03 -1.59954654E-02  3.71004583E-05  3.44591156E-02
 -3.81601543E-04 -3.29801609E-02 -6.49019530E-02  2.89584753E-02 -1.67859824E-03
 -3.94527763E-01  1.54593996E-03  2.97861916E-01 -1.11382337E-01  1.38548438E-02
 -8.22867767E-02  3.51928965E-03 -7.27196440E-02  2.39718733E-02  5.43307534E-02
  1.31361546E-02 -4.26721513E-03  1.51045657E-02  3.11663447E-02 -4.85676788E-02
  1.57476512E-01 -8.95029901E-02 -1.54928642E-01  1.38731573E-02 -2.03517937E-03
  8.17773199E-02 -3.90870079E-02  5.52144935E-02 -9.17660289E-03  8.04377177E-03
 -5.30013548E-02  5.61078224E-02  2.05407622E-01  1.77701237E-01  3.39970906E-02
  5.57200244E-02 -4.79459297E-02  1.07237751E-01 -1.01731530E-01 -3.98123356E-01
 -1.53324985E-01  2.01499151E-01  2.01539258E-02  1.49939658E-03 -1.68332031E-02
  8.27109159E-02  1.22119745E-01 -2.28232060E-01 -2.89906007E-01 -1.96305072E-01
 -3.98524599E-01  1.91215507E-01  7.19378688E-01  2.80809136E-02 -1.52509122E-02
 -2.41579507E-02 -1.16418916E-02  6.63666678E-03 -9.69714749E-03  3.40243679E-02
 -1.69975822E-01 -6.05318603E-01 -3.63253939E-01 -1.68101844E-01 -6.89872953E-02
  1.18260753E+00  1.32650083E+00  9.27499393E-02 -3.81950735E-02  6.44403198E-03
  1.93801346E-02 -1.61124035E-02 -3.36012468E-02  1.77609809E-02 -3.33708261E-02
  1.93740248E-01  1.62631330E-01  6.66926320E-02 -1.00170007E-01 -9.13535775E-01
 -8.70529807E-01 -8.08886138E-01  3.30723433E-01 -7.75809520E-02 -2.37423743E-02
  2.78836070E-02  3.41263712E-03 -1.11993735E-02  3.43204435E-02  4.78144507E-03
 -6.40621643E-02  1.81053848E-01  3.49488514E-02  2.64328695E-03 -1.84076620E-02
  1.25103498E-01  7.77581618E-02 -2.75438599E-02 -1.67435587E-02 -1.94914414E-03
 -1.20746560E-02 -1.29495729E-03  3.39833486E-03 -1.51635167E-02 -1.84964954E-02
  8.90990742E-03  2.28575237E-01  4.00007099E-02 -5.57499199E-03  7.85624426E-01
 -2.89454187E-01 -2.67864241E-01  8.40340377E-02  5.05270503E-02  6.73651278E-04
 -2.66636961E-02  5.29753428E-02 -1.00856566E-02 -4.15599846E-03 -1.44272038E-02
  1.05901381E-02 -2.50278103E-01  9.60619351E-02 -1.12439385E-01  9.07353909E-01
  3.12410586E-01  2.10137175E-01  1.45662446E-01  3.51440272E-02  4.56527180E-02
 -4.02496135E-02  6.21463191E-02 -2.08722654E-03  3.53490996E-03 -1.38392527E-01
  1.02778182E-01 -1.57071045E-01 -2.58791392E-01  1.29017697E-01 -1.11652017E-01
  1.55387992E-01 -1.16768204E-01 -7.53555580E-02  3.37155033E-02 -1.84726847E-01
  4.61814363E-02 -6.61138217E-02  1.45710913E-01 -2.99510129E-02  2.33774411E-01
  3.78938416E-01 -3.19278748E-01 -1.58940016E-01 -4.88014394E-01 -9.24362188E-01
  6.38162333E-01  2.10719008E-01 -5.23299141E-03  6.03385133E-03  3.58170518E-04
  3.20843930E-02 -3.30245028E-03 -4.18219235E-02  2.61702031E-02 -2.83408956E-01
  1.44102245E-01 -2.71387242E-01 -2.75959711E-01  1.82485378E+00  4.64018628E-01
  1.25625725E-01  8.40059757E-01  3.94797611E-02  1.55343340E-02 -1.61232502E-02
 -2.38838874E-02 -1.00078328E-02  2.09678389E-02 -4.06258298E-03  3.66992779E-01
 -3.16544706E-01 -1.82230655E-01 -4.93661222E-01 -9.59420165E-01  1.35476033E+00
  3.70702670E-01  8.23004841E-01  2.48556476E-02  2.81706526E-02  2.00649396E-02
  3.29224523E-02  7.69616496E-03 -2.09753008E-02  3.06921076E-03 -2.76626065E-02
 -1.27211453E-01 -1.14758711E-01 -1.12463018E-01 -1.69612757E-02 -1.37199080E-01
 -5.04578164E-02 -4.71685287E-02  8.65560639E-03 -3.79401613E-02  6.52710586E-03
 -8.00688735E-03  9.72147651E-03 -1.18895989E-02  1.83372602E-02 -6.55475429E-02
 -9.44113854E-02 -2.24838753E-02 -5.82988975E-02 -3.09332920E-01  9.40572097E-02
  1.14172476E-01 -1.36402189E-01 -1.53554450E-02 -9.26379428E-03 -1.15225342E-02
 -2.22363928E-02  3.52671114E-02 -4.65179791E-03  2.76266836E-03  5.34012706E-02
  2.12636125E-01  1.20100544E-01  5.99536757E-02 -2.83856948E-01 -2.53959761E-01
 -6.07728486E-02 -5.43323717E-02 -1.99395002E-02  3.58086056E-03  1.84060105E-02
 -1.25843902E-04 -1.35045181E-02  1.04454534E-02  1.00973399E-02 -1.01055994E-02
 -5.28227791E-02 -3.33651159E-02 -1.88324044E-01 -3.11515971E-01  1.04986812E-01
  3.07228678E-01  1.47954063E-01 -1.21034378E-01 -5.89103478E-03  4.26464661E-02
  1.24939344E-01  1.64756651E-01  6.31798410E-03 -5.46149434E-02 -6.48080289E-03
  4.70595504E-02  2.22089750E-02  6.78796316E-02 -7.25122674E-02 -7.31006781E-02
 -1.13196546E-01  1.73004241E-02 -2.47849984E-02  2.32492004E-03 -7.20091555E-03
 -9.00702120E-03 -3.59846272E-03  4.31461425E-03  3.54690326E-02 -5.40803117E-02
 -4.27865853E-02  2.94234804E-02 -2.85047730E-01 -1.12191886E-01 -1.02403756E-01
 -9.82323912E-03 -2.06608555E-02  4.30528184E-02 -3.39175885E-03  1.52303542E-02
  5.06367533E-03 -1.83782116E-02 -7.28584948E-02  4.56180387E-01  1.59608978E-01
 -7.42489762E-01  4.38943140E-01 -1.89437401E-01 -4.03167813E-01  9.82131178E-01
 -6.30573074E-01  5.16186908E-02 -1.17313328E-01  1.98200603E-02  4.41861135E-02
 -3.68446056E-02  1.24439554E-01  3.37548013E-02 -1.26466104E-01  6.59310588E-02
 -3.67901228E-01  2.00594470E-01  4.97540559E-01  7.49620631E-02 -5.43763090E-02
  5.25198478E-02 -4.52178863E-02  1.16602469E-01 -4.28155998E-03 -6.54978489E-02
  3.25784792E-02 -1.14743723E-01  9.07509791E-04  5.18845665E-02  1.28270259E-01
  5.34410304E-03  3.45869928E-02 -1.76463444E-01 -4.25870844E-02 -1.57820683E-01
  7.41182759E-02 -3.35736840E-02  6.23704949E-02  3.63892887E-02 -2.90415719E-02
  2.72091148E-03 -2.65428068E-02  8.90759382E-03  1.88783273E-02  2.53715797E-01
  1.04383214E-01  1.11818033E-03 -1.92600195E-01 -2.87518468E-01 -1.32186586E-01
  5.42351885E-03 -1.23216949E-02  1.44432612E-02  2.29954786E-03  1.24235350E-02
 -1.35415889E-02  9.14846883E-03 -4.65325951E-02  1.08670043E-01  4.41790748E-02
  3.61777822E-02  4.50531621E-02 -1.33502502E-01  1.25397052E-02 -3.94817466E-02
  2.10113415E-01 -3.01924319E-01 -2.32304371E-03  1.24181736E-01  6.38942746E-02
  1.59693326E-02  1.15284475E-02 -1.32204999E-01  1.43420727E-01 -3.91501862E-02
  4.53367427E-01  1.23051056E+00 -4.12927712E-01 -1.30952176E-01 -1.59022314E+00
 -5.52399876E-02  5.85000299E-02  2.23788606E-02 -5.82014086E-02 -4.79753655E-02
  2.17203001E-02 -2.79586850E-02  7.46357860E-02 -5.23827317E-01  5.46226295E-01
  9.40026138E-02 -9.63539162E-02  1.97053053E+00 -1.92436715E+00 -2.32378041E-01
  7.54735104E-03 -3.34328439E-02  2.49239924E-03 -2.06809485E-02 -4.12395584E-03
  2.09181328E-02 -1.03664332E-02  2.37172799E-01  3.62540559E-02 -1.08019290E-01
 -3.06265081E-01 -1.93631652E+00  6.11419753E-01  6.55728026E-01  7.59722069E-01
 -5.03991751E-02 -1.26380879E-02  2.55488368E-02  3.18062276E-02 -1.23987256E-04
  4.29436291E-02 -5.64721328E-03 -2.90739073E-02  7.00549719E-02 -1.66916581E-01
 -1.04365450E-01  4.78121783E-01 -1.31201950E-01  2.21038400E-01 -1.65385158E-01
  4.22259714E-03  4.33074869E-03  1.74152269E-03 -6.29268014E-03  3.58440883E-02
 -2.62855069E-02  5.59739564E-03 -1.59220950E-02  7.28606128E-02 -4.06284361E-02
 -1.36088362E-01 -1.72131188E-02 -5.80438149E-02 -4.57220509E-02 -1.15198274E-02
  1.08553509E-02  1.45912629E-03  7.46218718E-03  2.01045378E-02  1.63940679E-02
 -2.12989565E-02  8.09879774E-03 -5.68897322E-03 -1.58603047E-01 -1.50134192E-01
  3.25030849E-02 -2.25454634E-01 -1.91503704E-01  4.67011270E-01 -6.03489873E-02
 -2.65628988E-02 -4.64448278E-03  4.56281707E-02 -1.14469217E-03 -1.88945375E-02
 -6.22760904E-03 -5.75547989E-02  3.54671309E-02  1.23310075E-01  5.66815589E-01
 -1.01049538E-01 -3.31614232E-01 -1.57963033E-01  2.36556369E-01  6.34386523E-02
 -7.98280037E-02  1.65208423E-01 -1.38583304E-02  2.89663169E-02  3.84851985E-02
  1.20255660E-02  8.39663049E-02 -3.78442471E-02 -2.08154598E-01  2.09016923E-01
 -6.23476203E-01  2.88119150E-01  9.13320823E-01 -8.62527688E-01  1.80866564E-02
  1.87001743E-02 -3.35424914E-02 -3.24963018E-02  4.78942263E-02 -5.39824484E-02
 -5.25626722E-03 -1.07286521E-01  5.56913064E-02  3.41805908E-01 -6.18073822E-01
  7.75478785E-01 -5.66557576E-01 -1.51325604E+00  2.15067788E+00 -1.59303028E-02
 -3.37356594E-02  7.63360581E-02  2.83885649E-02  2.18781939E-03 -3.63411536E-02
 -8.51320257E-03  2.00161699E-01 -2.63318847E-02  4.75449677E-02  1.34485927E-01
 -7.21615438E-01  6.36439345E-01  9.48532318E-01 -9.68185487E-01  1.77826411E-02
 -1.56924412E-03  2.83861612E-03  5.09297772E-02 -6.70346125E-02  1.58966214E-02
 -1.12349771E-02  4.15351062E-02  1.15806597E-01 -9.85662173E-02  1.02955564E-01
  7.02969003E-01 -2.37703716E-01  2.90178775E-01 -9.62787687E-02  4.11083222E-02
  3.00279481E-02 -7.41037638E-04 -3.97522699E-02 -3.97122404E-03 -3.45106896E-02
  1.38963030E-02 -3.15115818E-03 -2.95985040E-01  6.65503400E-02  1.34039099E-01
 -6.08248634E-01  4.35894207E-01  2.02385254E-01 -1.22971772E-01 -2.58509515E-02
  4.44983934E-03  4.61413873E-03  1.51519043E-02 -2.83288571E-02  3.07499501E-02
  8.36449923E-03  1.91176975E-01 -1.42843261E-01  2.36550712E-01  2.12668051E-02
 -1.23328889E+00 -2.03229172E-01 -5.19982600E-01 -2.92424253E-01 -2.45615494E-04
  1.38834786E-02  7.72463221E-02 -3.20029128E-02  4.32279034E-03  3.98599285E-02
  6.80624649E-02 -4.39076026E-01  4.64225075E-03  7.02933752E-01  2.65599451E-01
 -1.51177064E-01  3.25561241E-01  8.06793261E-01 -2.08986012E-01  2.43602801E-01
  8.79907993E-05  3.25156057E-02  2.18530487E-01 -2.30783075E-01 -1.55654174E-03
 -7.99424479E-02  5.83247685E-03 -8.25871605E-02 -2.96707201E-02 -3.82649694E-02
  2.36418711E-02  1.71760111E-01  2.31878820E-01 -8.32407943E-03  6.31810606E-03
 -1.83395422E-02  2.98054609E-02  1.84779848E-02  2.31045054E-04 -1.67847313E-02
  1.53851414E-01  1.31861404E-01 -3.35698417E-01  4.80573344E-02 -9.29459458E-01
 -2.77914319E-01  9.60080158E-01 -1.09893685E-01  2.14736777E-02 -1.03481228E-01
  2.52839420E-02 -8.59608825E-02  6.73624117E-03  2.16141998E-02 -7.13588504E-03
 -4.78415394E-02 -5.04819561E-02 -1.38936104E-01  7.38517171E-02  4.68598870E-01
  9.20932834E-02  5.96671586E-01 -3.61396812E-01  7.00345019E-02 -4.31945233E-02
 -1.69649428E-02  1.93467772E-02  2.00980810E-02  2.39079736E-02 -6.32685471E-03
  1.33706931E-02 -3.52265089E-02 -7.67984897E-02  5.76790422E-02  2.94122696E-01
 -1.24730889E-01  7.42278812E-02 -6.59334234E-02 -1.15695552E-03  3.01484622E-02
 -6.77077062E-03  1.05108258E-03  7.31625820E-03 -2.89653449E-02  1.22640501E-02
 -9.92069584E-02  4.68049452E-02 -6.97036379E-03  5.33568084E-03 -1.60979592E-01
  1.05535341E-01  4.64725691E-02  1.10292603E-02 -3.83941347E-02 -1.55100901E-02
 -1.05265979E-02 -4.92937274E-02  1.64948469E-02 -1.24626795E-02  8.97032423E-03
 -9.77937969E-02 -7.47243168E-01 -1.25301591E-01 -1.02502118E-01  5.22750506E-01
  1.16567608E+00  6.78746248E-01  8.12550698E-02 -6.68033788E-02  4.99748614E-02
  5.20150317E-02  1.32427403E-03 -2.65381616E-02  4.59689212E-03  4.01404609E-02
 -2.08925738E-01 -3.94398752E-02 -2.85402450E-02 -3.15337296E-02  3.63285000E-02
 -4.82847515E-02 -3.53978471E-02  2.19690641E-01 -3.58857783E-01  3.24078633E-01
 -1.03780513E-02  3.56813610E-01 -1.99326170E-02 -2.94928640E-02 -8.43805237E-02
  2.29831686E-01 -1.03864085E-03  6.20528447E-02  6.53338731E-01 -5.96831667E-01
  2.24085117E-01  1.38980558E-02 -1.89800200E-02 -1.21822377E-02  1.41214901E-02
 -1.55508505E-02 -3.70237307E-02  1.95329701E-02  1.71733935E-03  1.71990136E-01
  1.47265496E-01 -1.14356501E-01 -5.39756687E-02 -1.21244014E+00 -6.14724179E-01
  3.24604130E-01 -3.53436372E-01 -4.05233903E-02  4.98632814E-02 -1.35138519E-02
 -2.29325917E-02 -4.16972407E-02  1.74029781E-02  4.48815660E-03 -2.93885404E-01
  2.99943351E-01 -3.71527435E-01  1.05843938E-01  1.94783110E+00 -7.15916837E-01
  5.83828272E-01 -7.58885952E-02 -1.46344151E-02  5.06345144E-02  2.19985010E-03
  5.46016959E-02  1.29000494E-02 -3.46946216E-02  2.01171756E-02 -2.50742745E-02
  1.27189860E-01  5.53833759E-02 -1.24761953E-01 -2.60015948E-01  9.80508470E-02
 -4.19615523E-01  2.59844588E-01 -1.90898939E-02  5.50529046E-03  8.03822777E-03
 -1.63817500E-03  5.68103665E-03  8.84474504E-04 -1.04964187E-02  6.91235544E-02
 -3.41590650E-01  1.99579208E-03 -1.51791807E-01 -4.18343594E-01  4.83458331E-01
  2.85862317E-01 -4.47610275E-02 -1.27084155E-02 -7.77135653E-02  5.04557918E-02
  3.62883520E-02 -3.28066507E-02  9.76425204E-02 -1.85477577E-03 -1.03546509E-01
 -6.31859191E-02 -1.07652728E-01 -3.58233371E-02  3.23432236E-01  1.99825471E-01
  1.80889388E-01  2.71946464E-01  1.15598374E-02 -4.95604031E-03 -4.95569847E-02
 -1.29241516E-02 -2.27470469E-02  2.59641181E-02 -2.63720313E-01 -1.28622490E-02
 -1.26821278E-01 -1.21199272E-01 -2.99479358E-01 -3.93473865E-01 -2.05843582E-01
 -1.16329095E-02 -6.97975980E-01  4.94516595E-01 -1.73779074E-01  4.01589747E-02
  1.26101013E-01 -2.65933175E-02 -2.73350769E-02 -4.94938157E-02 -1.37681944E-01
 -1.66253060E-01  1.86041917E-01 -1.71168294E-01 -1.06484020E-01  8.83173683E-01
 -1.64738405E-01 -1.19372193E-02  2.91261432E-02 -5.13657528E-02  1.83548762E-02
  8.03847292E-03 -1.40828506E-03 -2.89210003E-02 -8.18172741E-02  3.69126835E-02
 -4.14294278E-02 -6.58919499E-01 -3.06781664E-01 -2.13658723E-01  2.37500351E-01
  1.48983223E+00 -3.18208536E-02 -2.26082279E-02 -8.51028072E-03 -1.48274582E-02
 -3.05798595E-02  2.31891195E-02 -1.39744902E-02 -5.83799319E-01  1.31982756E-01
 -1.66177494E-02  1.77109469E-02  5.33779710E-01 -3.38299950E-01  1.67845579E-01
 -4.09659800E-01 -6.70603846E-02 -6.70547547E-02 -7.36558793E-03 -4.86445206E-02
  5.98954829E-03  2.81733862E-02 -8.64447146E-03  7.61167545E-03  7.00833160E-02
 -1.21635068E-02 -5.10610434E-02  1.68791251E-01 -6.41171543E-02  1.78276533E-01
  1.52002043E-02  4.94842805E-03 -5.11085162E-03  1.00897951E-02 -6.21624849E-03
 -2.87830396E-02  4.27718846E-03  5.72367945E-04 -2.06912962E-02  2.79494613E-01
  3.91570436E-02  2.09011999E-01  2.46238128E-02 -2.46375213E-01 -1.84152104E-01
 -8.81676797E-02  1.33615857E-02  1.22921000E-02  6.18069404E-03 -3.64982221E-02
  1.90885843E-02 -1.10372831E-02  1.16968755E-03 -1.64440315E-01  1.42369118E-01
 -3.62242052E-01  1.51505648E-01  1.98382378E-01 -1.47406881E-01  5.11379865E-01
 -4.03293086E-01 -8.35922127E-03 -5.99359185E-02 -2.72542170E-02 -3.31169487E-03
  1.42536325E-02 -3.40708587E-03 -4.98857983E-02 -4.95098929E-01 -3.53139061E-01
  3.53815147E-01 -2.54320998E-01 -1.53981996E-01 -3.41365387E-01  8.93517148E-01
  2.54166403E-01 -3.07971846E-01 -6.67669986E-03  7.14308460E-02 -2.62599372E-02
  1.35595765E-01  3.02964129E-02  1.18475657E-01  1.61421719E-01  2.24473509E-01
 -8.34642984E-02 -8.47917978E-01 -5.43653913E-01 -5.65142905E-01  2.92239026E-01
  8.30852194E-02 -2.45659515E-02 -1.94774203E-02  4.01263518E-03 -1.08963387E-02
 -6.97926026E-03 -2.28646574E-02  4.56874746E-01 -1.52959218E-01 -1.01954088E-01
 -2.91191243E-01 -7.18054365E-01  9.25520580E-01  8.34143428E-01  9.66716751E-01
  3.52218140E-02 -1.84549755E-03  9.99780686E-04  7.08172361E-03  5.41563542E-02
  4.28828079E-02  2.03137722E-02  4.87078173E-01 -1.61681601E-02 -1.13189255E-01
  1.91554598E-02 -7.47790193E-01  2.91007959E-01 -7.14105386E-01  2.75376483E-01
  8.44506182E-03  7.50945445E-02  1.50110063E-02 -3.32942622E-02 -7.17921665E-03
 -5.54802871E-02  1.86342950E-02 -1.45610710E-01 -1.65980035E-01  1.09447051E-01
 -6.58339822E-02 -2.62208789E-01  2.57933290E-01 -4.04743397E-01  2.65401026E-01
 -5.44122850E-02 -5.81546834E-02 -4.14554181E-02 -9.23677063E-03 -1.53693151E-02
  3.15159803E-04 -9.25556388E-03  1.95734032E-01 -9.22607900E-02  1.89066369E-01
  5.30419884E-02 -5.35064168E-02 -5.85545139E-02 -1.56920610E-01 -8.16328239E-02
  6.71531685E-02  4.21373769E-02  3.12211604E-02  3.59786745E-02 -1.17248071E-02
  2.06951268E-02  1.21305636E-02  1.68350310E-02 -1.09483562E-02 -2.33574886E-01
  1.90504072E-01  4.00224491E-01  2.07868279E-01  6.11570112E-01 -8.44342151E-01
 -4.30057540E-02  1.59345649E-02  7.91967816E-02  6.83629687E-02  3.06711872E-02
 -8.93909386E-02  1.37749752E-01  5.33533346E-01  1.91079731E-02 -6.16205499E-02
  3.47800243E-01 -2.46387114E-01 -2.68432064E-01  8.23592085E-01 -2.83319112E-01
  3.16995371E-01  5.00955034E-01 -8.33319363E-03 -2.81323570E-01  3.55823264E-01
 -9.33672110E-03  2.56724567E-02  1.79392069E-01  4.78425075E-01 -2.88421460E-01
 -3.83559965E-01 -5.00398544E-01 -6.08362151E-01  6.17892442E-01 -1.95344429E-02
 -8.05382958E-02  9.03828464E-02 -4.61439292E-02 -2.07693568E-02 -3.06391187E-02
 -1.43624003E-02 -4.17248843E-02 -1.09888117E-02 -3.38468822E-02 -2.59376785E-01
  6.33394463E-02  1.99822573E-01  3.94991583E-01  6.73819276E-01 -3.95868053E-02
  5.58724888E-02 -3.00647852E-02 -2.54285949E-02  5.80972108E-02 -1.16196414E-02
 -2.92748679E-02 -2.93620473E-01 -3.41997128E-02  1.51130039E-01 -9.35134422E-02
 -3.99287716E-01  1.80868812E-02 -2.20536521E-01 -7.42303735E-02  3.47085968E-03
 -1.15743493E-01 -1.06558801E-02  4.50987797E-02 -5.40605989E-02  9.19021201E-02
 -6.83000757E-03  2.50216733E-01  5.90971163E-02 -3.14884345E-01  3.09124478E-01
 -2.21741121E-01 -1.73194932E-01  6.75164916E-01 -4.78028057E-01  1.06238497E-01
  1.22559336E-01  1.01615869E-01 -6.85977202E-03  2.07772107E-03 -2.12864512E-02
 -5.55671693E-03 -5.90070681E-02 -7.09282623E-02  8.80181226E-02 -2.14073700E-01
  2.43702726E-01 -2.38739740E-02 -7.26987121E-02  2.44746574E-01 -3.07621978E-02
  7.00582573E-03 -3.17901361E-02 -1.91270821E-03 -1.04670542E-02  1.84702872E-02
  5.23752920E-03 -2.60432019E-01  1.31099609E-02 -7.51869166E-03 -1.72573925E-01
  6.17517298E-01  5.92085108E-02 -1.26391979E-02 -3.99700684E-02 -3.74791655E-02
 -6.97016794E-02 -1.05306019E-02  5.17074980E-03  2.36700130E-02 -3.34919825E-02
 -4.74144480E-01  1.01388384E+00  2.77149204E-01 -8.21139168E-01 -7.77315346E-02
 -1.00363229E-02 -9.84442979E-02  4.45552648E-01 -7.78817617E-02  1.45212030E-02
  2.50953234E-01 -3.85315935E-01 -1.28987987E-01  8.04577571E-02  1.25678787E-02
  7.72007498E-03 -2.78871961E-01  1.86415694E-01 -4.97098084E-01  8.34893767E-02
  6.32269973E-01 -3.67751526E-01  6.78243284E-01 -1.03356444E-01 -9.08965070E-03
  1.23543952E-01  2.06981341E-02 -2.29293899E-02 -9.39699756E-03 -8.08547974E-03
  4.44938861E-01  4.96006425E-03  2.51190685E-01 -3.60956642E-01 -5.59007485E-01
 -1.52707536E-01 -8.17935359E-01  6.75204143E-01  1.07861410E-01  5.43789332E-02
 -8.36517733E-02 -5.10166928E-03 -3.70076342E-02  1.26402512E-02  2.11206124E-02
  1.78653346E-01 -1.14539485E-02 -3.97084680E-02 -1.87771877E-02 -4.80924030E-01
  3.08707487E-01  1.55691679E-01 -8.52583464E-02  2.30759928E-02  1.96949746E-02
  1.33117381E-02 -4.35157414E-02  4.70067906E-02 -2.41369217E-02 -2.57963260E-03
 -1.49946969E-01  5.62424800E-02  5.94147944E-02 -2.00955992E-01  3.63842816E-01
 -1.16262716E-01 -1.09324136E-01  2.37037078E-01 -3.72083466E-02 -6.62093127E-02
 -6.67254805E-02  1.16640047E-02 -1.11574647E-02 -2.32010004E-03 -7.70767537E-04
  6.02137810E-02  1.13428693E-01  1.77973780E-02  3.18910159E-02 -1.26646299E-01
 -1.76679806E-01 -4.66509077E-02 -2.16076893E-02  2.33592590E-03  2.85432440E-02
  2.67287051E-02 -1.13929454E-03  1.99167069E-03 -1.53508702E-02  5.42512004E-03
  7.44129360E-02 -1.45281613E-01  2.44516236E-01  1.39553961E-01 -3.29868659E-01
  1.94237848E-02 -5.49569145E-01 -7.64533818E-02  3.52222932E-03  6.42303968E-02
 -2.02924726E-02 -1.61391579E-02 -3.95493973E-02  5.22991619E-02  4.89848401E-02
  6.44472465E-02  5.33270384E-01 -1.08911443E+00 -2.84803260E-01  9.65598842E-01
 -4.20497532E-01  1.24086240E+00  5.76620184E-02 -3.82076795E-02 -2.81298466E-01
  2.12563133E-01  2.72812070E-01 -5.55927926E-01 -1.50089526E-02  8.57536862E-02
  4.76371029E-01  2.06362080E-01  7.19344290E-02 -4.13447321E-02 -5.69446200E-01
 -2.24121922E-01 -1.51466009E-01  5.66181704E-02 -8.25037868E-02  2.31724310E-02
 -1.29895226E-01  6.82730854E-02  8.09455422E-03 -5.00692857E-03 -1.46331188E-01
  3.06399449E-02  1.20286320E-02  7.65382265E-02  3.36038927E-01 -2.78503417E-01
 -2.98967639E-01 -7.92373405E-02 -2.02781108E-02 -2.86761547E-02  2.19600789E-02
  1.26160006E-02  1.16364473E-02  1.19299163E-02  1.55988790E-03 -2.68088924E-02
 -4.72022201E-02  1.20368789E-01  8.71368649E-02  2.56300280E-01  9.81496977E-03
 -5.54381998E-02 -1.89442906E-01 -1.36186569E-02  1.35329019E-02 -1.25675720E-03
 -3.14734430E-02  7.90892160E-03 -2.80852084E-02 -1.75478612E-03 -4.83947159E-02
 -9.09083072E-02  1.21626464E-01 -7.25322580E-02  4.60500728E-02  1.11548884E-01
 -1.27917620E-01  1.08087266E-01 -1.19829797E-02 -3.80953615E-02 -2.81748028E-02
  5.68497598E-03 -1.76509811E-02  1.96377950E-02  5.13806063E-03  6.00777284E-02
  1.42086125E-01 -2.09642077E-02  5.73949469E-03 -1.43149654E-01 -1.23947025E-01
  8.65175058E-03  5.04172909E-02  2.54335558E-02  4.09414732E-02  1.24435817E-02
 -1.48800742E-02  7.07236791E-03 -9.11940338E-03  1.85756960E-02 -7.62332290E-02
 -3.61369924E-02  5.98865265E-03  5.17883813E-01 -2.71812776E-01 -7.28531501E-02
 -1.08388478E-01 -6.72250877E-01 -1.66188130E-02  9.22378854E-03 -3.57951925E-03
 -4.33543683E-02 -3.82253408E-02  9.73833787E-02 -6.57467361E-01  1.04981033E+00
 -1.96995100E-02  1.89638275E-02  4.24361555E-01 -8.56308533E-01  4.11656366E-02
 -1.61148343E-01  1.43956181E-01 -1.46208643E-01 -2.29600231E-01  6.84615730E-01
  4.83335579E-01 -8.57329435E-01  2.18046378E-02 -1.93901363E-01  5.43319830E-01
  4.02131344E-02  1.88339841E-01  3.04885087E-01 -1.04671857E+00 -4.05849143E-01
 -8.51094508E-02  1.00688419E-01 -5.96490053E-02 -5.21495066E-02  4.59081785E-03
  2.79771528E-03  3.26756280E-02  1.12725762E-02  3.53033314E-01  1.78981040E-01
  1.13792255E-01 -5.47551568E-02 -1.05809698E+00 -1.22999049E+00 -1.48152251E-02
 -3.10713106E-01  5.89076994E-02  6.58292025E-02 -6.58183408E-02  4.91654961E-02
  1.75137956E-02  4.23747087E-02 -2.47000646E-02 -4.72160123E-01  1.98665114E-02
 -5.99312300E-02 -6.94794515E-02  1.70272124E+00 -5.58007053E-01  7.51954620E-01
 -9.72749452E-02  1.88778734E-02 -6.60885964E-02 -9.51607084E-03  1.52839657E-03
  5.63061459E-02  2.68957944E-02 -6.77675410E-03  3.93576863E-02  1.88777513E-01
 -1.08099942E-01 -8.18094841E-02  1.05914708E-01 -2.27613007E-01  1.56976956E-01
 -3.30328817E-02  5.08662872E-03  2.30464134E-02  2.01863007E-02  1.98750237E-02
  3.24492377E-03  1.25062788E-02  8.73569977E-03 -5.32702803E-03 -8.11173742E-03
  1.25318422E-02  1.41350895E-01 -3.35353977E-01  1.84494194E-01 -4.45858449E-02
 -1.87182621E-01 -3.99141143E-02 -3.39122945E-03  5.52611004E-02 -2.45509511E-02
  2.49035613E-02 -2.43607111E-02 -1.42690456E-02  1.91866341E-01 -1.28318956E-01
  3.12680071E-01 -1.15941074E-01 -2.22072511E-01  3.26916813E-01 -1.06182429E+00
  3.13685337E-01  3.85580480E-02  1.02585576E-01 -4.75960010E-02 -2.24682786E-03
  8.20599774E-03 -6.42985168E-02  1.86171907E-01  4.81567856E-01 -1.75681281E-01
  1.60680875E-01  4.35888812E-01 -1.12015157E+00 -3.96037825E-01  4.77020021E-01
  1.91279438E-01 -2.19947292E-01 -2.21080021E-01 -3.04146029E-01 -3.53964540E-01
 -3.71638647E-02 -2.34927631E-02  2.20669079E-01  3.29921555E-03  4.38209016E-02
  1.90366627E-01 -9.63621329E-02  4.27063707E-01  8.68141439E-02 -4.66728759E-01
  1.77292993E-02  3.15427520E-02 -2.41247930E-02 -4.43159508E-02  4.62504055E-02
  5.73838683E-02  1.12419716E-02  3.93424950E-01  6.79690910E-02  1.55284329E-01
 -2.74984658E-01 -7.34604191E-01 -3.98278432E-01 -9.01969061E-01  3.17478567E-01
  8.39611486E-02  1.44424332E-02 -1.61134163E-02  2.24146227E-02 -8.84674478E-03
  6.83089851E-02  2.03383007E-02  3.04355761E-01 -5.95570192E-02  7.83925172E-02
  4.83601655E-02  9.27591603E-03  1.08595749E-01 -7.89397128E-02 -1.26353177E-01
  1.24642793E-02  3.76390884E-02  2.65936235E-02 -1.80490206E-02  4.24617729E-02
 -6.41606065E-02  1.90621592E-03 -4.70246929E-02 -2.53680486E-01  2.22679622E-01
  1.28318220E-01 -5.86730469E-03  3.21715915E-01 -3.66488693E-01 -5.60320710E-02
 -2.51267431E-02 -3.28433507E-02 -3.80130129E-02 -4.36766308E-03  1.13586106E-02
  2.93285307E-02  8.29674829E-03  2.05741729E-01  1.34994544E-01 -1.82440994E-01
 -2.65072014E-01 -4.15594002E-01 -1.41655288E-01  2.19488746E-01  3.53511119E-01
  4.21227353E-02  1.09078741E-01  4.16755596E-02  6.87990086E-03 -1.61751129E-03
 -1.99695093E-02  1.38441158E-02  9.15044516E-02  7.84877398E-02  7.09330048E-02
 -5.78236957E-01 -4.97364435E-01 -3.37845009E-01 -2.28725975E-01  1.12493833E+00
 -9.88290629E-03  3.94820150E-02  3.35056170E-02 -7.28194398E-03 -6.80881144E-02
 -9.26915293E-03 -3.08426634E-01  5.90014236E-02 -3.76501017E-01  6.53795357E-01
  3.64201572E-02  5.82891492E-02 -2.18494235E-01  8.49703296E-01  9.95164138E-02
  3.71280915E-02  8.48511999E-02 -7.53744504E-01  1.02406909E-01  3.78683622E-01
  5.69351495E-03  9.56712192E-03  8.57027020E-02  1.10463095E-01 -6.67898440E-02
 -3.66349473E-01 -3.23897150E-01  9.32429004E-03  1.63011165E-02 -1.29018850E-02
  5.52566144E-03  3.82844481E-03  3.19909112E-03 -8.78361209E-03 -4.24588890E-02
  3.27977804E-03 -1.40465052E-02  1.00807426E-02  2.82012404E-02 -1.78656616E-01
 -1.50403283E-01  6.23837540E-03  3.12181415E-02  9.62229040E-01 -2.11318462E-02
 -5.10181283E-03  1.42203951E-02 -1.08967172E-02  2.27662749E-02 -2.42427457E-02
  3.98613676E-03  1.72974414E-01 -1.84750946E-02 -9.80629384E-02  4.13946027E-02
 -2.71967677E-01  4.28271948E-01  7.77838875E-01 -5.91887090E-01  5.19545930E-02
  1.16659182E-02 -7.64877641E-03 -5.90842298E-05 -1.39842499E-02 -3.76744695E-02
 -1.01273136E-02 -7.30600838E-02  1.85177167E-01  2.52113657E-01  1.94227203E-01
  6.35954722E-01 -3.34871640E-01 -2.59769229E-01 -1.98533059E-01 -3.05486632E-02
 -1.67297592E-02 -5.90020830E-02  9.06942280E-03  2.24896371E-03 -2.94301703E-02
  5.19065022E-03 -4.15922445E-01 -4.37549864E-02 -3.84146197E-01 -2.76341372E-01
  4.33318777E-01  2.39254295E-01  5.70915651E-01  3.62883470E-01 -1.12539965E-01
 -9.99564051E-02 -1.50861035E-01 -4.85081477E-02  3.13994145E-02  1.75784916E-02
 -2.53970115E-02  4.26595352E-01 -7.31815761E-02 -3.45486021E-01  1.87581026E-01
 -8.05071580E-01  2.70420206E-01  3.70033896E-01 -5.62696001E-01  9.59685945E-02
  6.36276345E-02  1.15022765E-02  1.75395369E-02  5.69716790E-02 -1.47655586E-02
 -8.54840998E-03  2.08680720E-01  1.42596062E-01 -1.45530434E-01 -1.89413076E-02
 -8.62120015E-02  9.97258124E-02  4.59514411E-01  2.84319824E-01 -6.59403323E-01
 -3.32057647E-01  7.24981073E-01 -4.74908842E-01  4.64813443E-01  1.23303749E-02
 -9.41282609E-01  2.71270215E-01 -5.49161192E-02 -1.96364921E-01  2.10539319E+00
 -5.23049694E-01  3.87597662E-01 -1.08679380E-02 -7.66016542E-02 -4.86801282E-02
  1.55117729E-04 -4.86244088E-02  5.12361732E-02 -9.55004691E-02 -1.47986222E-02
 -2.39684210E-01  7.44008427E-03  3.04037252E-02 -7.65943614E-02  1.92187702E-01
 -2.64804142E-01 -5.39215597E-01  2.15146319E-01 -5.91245469E-02 -4.92087846E-02
  4.25283115E-02  3.70899695E-02  1.50880837E-02 -2.16032679E-02  1.20354764E-02
 -2.18727033E-01  1.81731358E-01 -7.52406162E-02 -3.38498016E-02  8.35923497E-01
 -1.99629171E-01  4.37821633E-01 -2.63351497E-03 -3.49096884E-02  6.84113939E-02
 -3.00358341E-03 -1.78737207E-02 -1.95583106E-02 -5.19134911E-02 -2.10723218E-03
 -8.90316766E-02 -4.84044442E-02  2.32407164E-01 -1.44919667E-01  1.32255747E-01
  1.40679053E-01 -3.93969709E-01  2.02596157E-01 -4.37304907E-02 -7.37079087E-02
 -3.02217563E-02 -7.48624804E-03  9.62584003E-04  2.11790946E-02  4.79076935E-03
 -1.81044830E-01  5.68836651E-02 -1.65239933E-01  2.45618354E-01  1.47464826E-01
  1.05831956E-01  2.55037237E-01 -3.32224789E-01 -3.87689947E-02 -6.29306117E-02
 -4.07805096E-02 -1.88701928E-02  1.21508037E-02 -8.01689293E-04  1.54421544E-02
 -2.40260252E-01  1.05825764E-01 -4.58592030E-02 -4.02583403E-01  5.43342905E-02
 -3.12499717E-01 -5.52343173E-02  5.63809632E-01 -5.39776581E-02 -6.63334055E-02
  2.72448307E-02 -1.64810334E-02  1.56635738E-02 -1.02096045E-02 -5.99353729E-02
 -2.45496929E-01  5.34700786E-01 -8.74128957E-01  2.19533116E-01 -1.01125974E+00
  1.71379018E-01 -3.68122064E-02  1.68388154E-01 -3.92983206E-01  3.14893079E-01
 -7.44120121E-01 -7.02311934E-03  2.56548280E-01  1.44710063E-02 -9.13034755E-01
  2.85499579E-02 -3.88773712E-01 -6.59130502E-02  2.12537565E+00 -5.28297553E-02
  6.43311623E-01  2.52751938E-01  1.08156197E-02 -4.38835204E-02 -8.77507239E-02
  7.11131486E-02 -3.02714756E-03  7.64554504E-03 -9.10749602E-03  1.29708048E-01
 -2.71169963E-02 -1.78040555E-02 -8.62140942E-02 -5.69454722E-01  2.32569173E-01
  3.86256158E-01  8.51553677E-02  2.53972782E-02  6.96853205E-03 -4.59343096E-02
 -9.51116482E-03 -1.91618812E-02 -1.20896389E-02 -5.69642025E-03 -1.28854506E-01
  6.32873145E-03  4.47343252E-02  9.46676995E-03 -2.84992199E-02 -2.51875769E-01
 -4.96321378E-01  1.49200321E-02 -8.97105462E-03 -3.21397336E-02  1.23864481E-02
  1.78002920E-02  1.15313723E-02  1.91946378E-02  3.32250961E-03 -4.79275436E-03
 -7.39297351E-02 -2.58465604E-02  2.44960514E-01 -1.66844292E-01  1.42520583E-01
  1.00229383E-01 -2.81578555E-01  1.26235694E-02  1.49186987E-02  8.24875010E-03
  7.20629032E-03  6.60153368E-03  1.47569286E-02 -4.62219216E-03  1.42258303E-01
  3.08052011E-02 -8.20458657E-02 -4.57638122E-01 -9.17325958E-02 -1.47477753E-01
  3.32130621E-02  6.19618434E-01  3.02820776E-02  5.10335706E-02  2.60413845E-02
  2.63242596E-02  2.91446875E-03  1.04366680E-02 -1.90118829E-03 -3.82038108E-01
  6.66540542E-02  6.35244991E-02  2.35759657E-01  1.05443563E+00  9.00819371E-03
  1.09568399E-01 -3.69713778E-01 -5.99268765E-02 -5.43637545E-02 -7.64303788E-02
 -9.54319874E-03 -1.79867371E-02  4.84293106E-02  5.14923617E-01 -1.32029909E+00
  6.34840438E-02 -4.05888274E-01  3.30653284E-01 -7.47772605E-01 -2.38172808E-01
  3.17360933E-01 -1.63756289E-01  4.35501698E-01 -5.34518693E-02  2.29172303E-01
  2.84335754E-01 -6.26272526E-01 -8.74895335E-04 -5.34686523E-01 -7.99045954E-02
 -2.10143713E-01 -1.07563252E-01  1.77851649E+00  6.76914227E-01  3.05726768E-01
  2.61738857E-01 -1.15131836E-02 -7.81079539E-02  3.16907947E-02 -2.23216075E-02
  7.06204749E-02  4.27176929E-02  1.26000449E-02  2.83975809E-01  2.57446788E-02
  3.91363189E-04  5.08011618E-02 -9.23337769E-01  2.64137057E-01  6.48676824E-05
 -7.75433188E-01  3.46228828E-02  3.23887716E-02 -4.04327164E-02 -5.85821834E-02
  2.74093916E-02  7.43905447E-04  3.00499287E-03  3.11259675E-01 -1.41059724E-01
  8.66611463E-02 -6.88883885E-02 -6.16866963E-01 -7.83828378E-02 -2.88667851E-01
  3.62047748E-01  5.65771807E-02 -1.28808607E-02 -2.18243246E-02  1.63703305E-02
  2.07294903E-02  2.57710339E-02  2.55564564E-03  9.45666372E-02 -6.63261546E-02
 -1.77312113E-01  2.57557394E-02 -1.95723340E-01  9.02244026E-02  2.71151554E-01
 -1.00646384E-01  4.29799788E-02  4.54648622E-02  2.67576186E-02  1.57654565E-02
 -4.26598307E-03 -1.39838068E-02 -1.64406765E-03  1.25583211E-01 -1.60056038E-01
  2.37367463E-01  1.34224516E-01 -1.55402348E-02  9.93179491E-02 -4.01824954E-01
 -1.76003402E-01  2.10790343E-02  3.94060971E-02  2.87510049E-02  1.62121200E-02
 -2.40044928E-02 -5.01548173E-02 -4.23543462E-03  5.23875217E-01  1.01425513E-01
 -5.56922317E-01 -1.70510106E-01 -1.11033792E+00 -1.38849958E-01  1.26471134E+00
  7.20711429E-01  1.44022505E-01  8.76643594E-02  1.82308392E-02  1.14411714E-04
 -8.14288305E-02  3.16539284E-02 -1.56909272E-01 -5.38167086E-01  1.33083060E-01
 -5.98762718E-01  2.93093271E-01 -2.19728825E-01 -1.46908638E-01 -5.84166610E-02
 -2.69035475E-02  2.72588946E-01 -4.58271042E-01  7.17061403E-01 -1.12428384E-02
  1.01534461E+00 -6.94468832E-03 -5.50864421E-02 -1.95818721E-01  3.66938483E-02
  4.67612120E-02  1.58338941E-01  1.46111490E-01 -5.94742823E-01  2.17888807E-01
  5.72443644E-02 -7.45754197E-02  1.32861255E-02  1.10715364E-02 -4.08982991E-02
  5.58676278E-02 -8.70562405E-04  1.85134144E-01 -2.46598321E-01 -1.00910160E-01
 -4.92206516E-03 -1.32433253E+00  9.94696133E-01  9.65255482E-01 -6.02842675E-01
 -1.34476952E-02  7.97362494E-02 -9.55004933E-02 -2.80974241E-02  1.90226409E-02
  2.49625151E-02  1.43586604E-02  2.14963185E-01  1.79700535E-01  1.29099312E-01
 -4.07233233E-02 -1.44137102E-01 -7.20938231E-01 -5.82352175E-01  3.69702542E-01
  4.54980363E-02  6.87473004E-02 -3.20974797E-02  1.07699311E-01 -1.02016737E-02
 -3.51437089E-02  1.28433607E-03  1.09011398E-03 -5.39562496E-02  1.10083239E-02
  1.04016896E-01 -1.99034510E-01  2.95369016E-01 -4.97908062E-03 -1.39097750E-01
  5.65730449E-03 -5.78985609E-03 -1.03057109E-02 -1.14643699E-02  5.58834019E-03
  3.34038185E-03 -8.07594332E-03 -4.96768839E-01 -4.49151305E-01 -2.31910318E-01
  2.47650162E-01  1.53844027E+00  6.80869005E-01  2.86212281E-01 -3.40325667E-01
 -9.49471556E-02 -1.40212910E-01 -2.28777039E-01 -6.50931763E-03  2.07416766E-02
 -1.06562597E-01 -8.72995576E-03 -4.27658382E-01  3.34437499E-02  1.05103837E-01
  9.39363777E-02  1.77187721E+00  1.83570470E-01  2.85694563E-01 -3.05993397E-02
 -4.02536665E-02 -6.92856790E-02 -8.95430698E-02  2.23664832E-02 -5.62492327E-02
  2.49182451E-03 -6.34435681E-02  3.90414655E-01 -2.14026532E-01 -8.83097763E-02
 -2.56751623E-02  1.81142090E-01 -3.82377312E-01  2.82134132E-01  4.21569204E-01
 -9.70555005E-01  2.25504826E-02 -9.50748983E-02  2.06725117E-01 -4.03682360E-01
 -1.73299012E-02 -2.40256845E-01  4.74448563E-02  2.03999568E-02  2.00927358E-02
  1.10606428E+00 -2.12905964E-01 -1.61588562E-01 -3.20624237E-01 -2.72631027E-02
  1.69472264E-02 -2.07123391E-02 -1.63266351E-02 -3.29902798E-02 -1.35775401E-02
 -3.31669159E-03 -1.96351081E-01 -4.23713537E-03  1.49164596E-01  6.19578465E-02
  5.13253593E-01  3.04859089E-01 -9.56083479E-01 -5.15938042E-01  1.39682652E-02
 -2.11097208E-02 -4.79943569E-03  1.32339957E-03  2.47602971E-02  2.29720531E-02
  2.48318302E-03  1.57806634E-01 -7.07128050E-02 -1.74732802E-01 -2.06022774E-01
 -1.09958939E+00  2.31536578E-01  9.19658420E-01  9.17770331E-01 -8.71989018E-03
 -3.14499784E-02  2.69985294E-02 -2.75698219E-02  5.81314077E-02 -1.45165587E-02
 -1.05035292E-02 -1.49854240E-01 -2.47423603E-02  3.76110539E-01  5.87531391E-01
  6.80786506E-01 -8.28171115E-02 -5.36426593E-01 -1.04379987E+00 -2.44420550E-02
 -3.71824867E-03 -1.18518491E-01  2.08232119E-02  1.42861174E-03 -1.00140242E-02
 -3.65801579E-03  2.12430520E-04  1.17234010E-02  3.91602062E-01  2.09580316E-01
 -1.24077265E-01 -5.58041680E-02 -7.31725681E-01 -4.18278396E-01  2.08631632E-02
 -5.56510823E-02  3.57581941E-02 -2.61178492E-02 -3.11510680E-02 -1.03210356E-02
 -1.61044578E-02 -2.13541856E-01 -9.27882067E-02  9.02862289E-02  5.51784887E-02
  3.08898514E-01  6.94012675E-02 -4.08014178E-01  8.56364956E-02 -3.26264317E-02
 -4.38557830E-02 -6.08937270E-02 -3.33566805E-02 -2.32047577E-02 -8.83019622E-03
 -4.26179657E-02 -7.23098059E-02 -3.71295133E-02 -4.17877375E-02 -1.96325871E-01
 -1.76357199E-01 -3.06734940E-02 -1.85805359E-01 -8.06056981E-02  3.31569140E-01
 -1.69189136E-01 -1.21244877E-01 -7.07933908E-02 -3.26324193E-01 -1.38949327E-02
 -1.91610585E-01  9.46907549E-02  1.75598102E-02 -1.82125042E-02  8.15647873E-01
 -4.96093716E-01 -2.93299454E-01 -1.51577361E-01 -4.12223831E-02  2.19156104E-02
 -9.11617155E-03 -4.30118187E-02 -8.32303965E-02 -5.70318445E-02  2.37705731E-02
  3.87125205E-01  1.38134723E-02 -3.34810365E-02  6.50318047E-03 -1.26245710E+00
 -1.33014082E-01 -7.13213022E-02 -1.83576847E-01 -3.92099229E-02  3.17201637E-02
  6.15066163E-02  6.36251433E-02 -8.03636509E-03  2.68947903E-02 -7.46997064E-03
 -3.80944312E-01  1.49440209E-01 -3.10788086E-02 -8.20213656E-02  2.05370692E+00
 -2.25961398E-01 -1.44810466E-02  4.46978461E-01 -5.38654768E-02  2.15879575E-02
  5.34163038E-02  8.20924814E-02 -8.44503737E-02  2.88953136E-02  2.19664657E-02
  3.02670849E-01 -3.96185335E-01 -7.84387329E-02  2.38360341E-01 -1.19470779E+00
  7.43073143E-01 -8.53839126E-02 -2.85676633E-01  8.12271460E-02  6.03800374E-02
  1.62945938E-01 -1.01674625E-01  7.76538872E-03  8.09567251E-02  1.70580397E-02
  3.28496705E-01  1.24385339E-01 -3.76926287E-01  2.93184966E-01 -8.17503480E-01
 -9.62845103E-03  8.79253998E-01 -6.39263336E-01  3.02979007E-02  1.36659050E-01
  1.36108330E-01  5.33345366E-02 -5.82873123E-02  1.03996493E-02  2.33821043E-02
  5.90871054E-01 -6.62479256E-02  4.62983751E-02  1.80782720E-01 -1.28125141E+00
  4.02274927E-02  3.05194619E-02 -4.60641745E-01  7.66451870E-02  1.48623217E-01
  1.01274824E-01  4.89265199E-02 -2.67771384E-02  1.02862829E-02  5.02411146E-02
  1.64295347E-01  6.83460814E-02 -3.01173650E-01 -2.48737189E-01 -2.04522815E-01
  6.22167853E-02  9.68298596E-02 -1.38107401E-01 -2.67835624E-01 -4.48762513E-02
  7.54577639E-01  2.18535456E-02  5.62982041E-02 -1.71757063E-02 -3.89108076E-01
 -4.89081779E-02  1.39820168E-01  3.75721721E-03  3.93998742E-01 -1.91905278E-02
  1.16594979E-01  2.59492687E-01 -2.05123304E-02 -1.54629653E-02 -3.72974735E-02
  1.26780300E-02  1.81875653E-02 -3.49405337E-02 -3.89737664E-02 -8.62073174E-01
  2.68909716E-02  1.12396029E-01 -1.17317462E-01  1.37944038E+00 -8.85986706E-01
 -2.19390361E-01  2.26296563E-01 -5.30745430E-02 -4.57178698E-02 -1.97146960E-02
  2.79740719E-02  8.33981310E-03 -2.41461856E-02 -1.52895775E-03  6.90759249E-02
  1.18652122E-01 -4.01483774E-02  9.81052166E-02 -9.44771366E-01 -1.33096466E+00
  3.38362350E-01 -7.18100566E-01 -6.50410908E-02  6.08008603E-02 -4.70163917E-02
  1.37018428E-02 -4.60988143E-02 -3.91100925E-02 -2.23957607E-02 -1.94902261E-01
 -5.48702508E-01 -1.74801426E-01 -1.55977476E-01  1.19565122E+00  9.35723160E-01
  5.36037527E-01  1.71953907E-01  2.01823981E-02 -1.05796489E-01 -1.32252962E-01
 -1.87528165E-02  5.62279963E-02 -7.02019062E-02 -1.11270116E-02 -2.01231486E-01
 -5.66298849E-02  2.33216548E-01 -1.83366225E-01  7.25323779E-01  1.19227192E-01
 -7.16342548E-01  5.22488683E-01  5.96848347E-03 -6.32298488E-02 -1.25411927E-01
 -2.63005521E-02  4.72216055E-02 -2.92293699E-02 -1.14291660E-02  3.72442058E-02
 -2.19513622E-01  9.15914659E-02  3.16401901E-02 -5.58583206E-01  2.32322510E-01
 -8.04404024E-01 -1.54452597E-01  3.28651763E-02  1.43486868E-02 -4.96130768E-02
 -3.63065453E-02  5.24384994E-02 -2.20213504E-02 -3.97040626E-02 -1.71121389E-01
 -1.05481602E-01 -2.34657347E-01 -1.30427827E-01 -5.78712131E-02 -9.99484630E-02
 -2.63900119E-01  9.11319628E-02  2.95136387E-01 -2.64653408E-01  1.16163563E-01
 -3.45096584E-01 -1.65914365E-01 -9.02530646E-02 -1.18129902E+00 -8.21770127E-02
  9.96873198E-02  1.43600453E-02  3.43498761E+00  1.09063849E-01 -4.98435972E-01
 -2.61597817E-01 -2.01283985E-02 -3.73499844E-02 -1.21045497E-01 -5.40803290E-02
 -1.10818743E-01 -1.02464225E-01  1.05169248E-02 -1.37238905E-01 -5.77814775E-02
 -6.56965005E-02  4.47838627E-03  2.82531487E-01  5.54375694E-01 -8.91121139E-01
 -3.61935008E-01 -4.85331696E-04 -1.00537813E-01  9.36808588E-02  1.46404016E-01
  1.90430106E-01  1.16945131E-01  2.84982549E-02  2.77279197E-01 -1.11513343E-01
  1.34368120E-01  4.04474729E-02 -4.31404266E-02  1.10931379E+00 -2.28272778E-01
  3.90869873E-03  9.04780683E-02  6.61940595E-02 -9.61324024E-02 -1.60470398E-01
 -1.48099860E-01  4.90130110E-02  1.63504463E-02  2.78337687E-01  2.09117568E-01
  1.06592297E-01 -9.79663150E-02 -8.59368389E-01 -4.74304764E-01 -2.99345317E-01
  3.54672154E-01  2.28921082E-02  4.01639585E-02  1.63369002E-01  5.72605073E-02
 -5.41417579E-02 -5.79468178E-02  3.28754188E-02  6.31986175E-01 -1.70423859E-01
  1.86000486E-02 -6.55611217E-02 -1.68089695E+00  3.48873278E-01  5.75693594E-02
  1.62450011E-01  1.45601408E-01  2.99126092E-01  6.56396179E-02 -7.62562730E-04
  6.72753857E-04 -2.69504835E-02  2.10367074E-02  2.95521856E-01  2.14878167E-02
  1.43613857E-01  1.06295716E-01 -7.90381541E-01 -2.28721058E-01 -4.50990597E-01
 -1.78071623E-01 -7.00707309E-02  1.39671299E-01  9.94138411E-02  3.94754826E-02
 -1.44155637E-01 -7.09039921E-02 -2.29454941E-01 -3.91771310E-01 -3.09172467E-01
 -4.38095185E-01 -4.17359616E-01 -3.07375002E-01  4.06303300E-02 -2.20687503E-01
  1.57098804E-01  3.63582556E-01  9.45319184E-02  6.11826406E-03  1.34457109E-02
 -1.99269056E-01  2.96129042E-02  3.54904870E-01  8.11250637E-02 -4.02761209E-02
 -5.74341152E-02 -8.29796834E-01 -3.42685558E-01  1.43166888E-01  5.35480555E-02
 -3.82063264E-02  9.48695173E-02  9.05376952E-03 -7.37557160E-02  5.85276258E-02
 -3.19797149E-02  2.35952979E-02  3.31805140E-01 -9.31576746E-02 -7.71992020E-02
  1.52780527E-02 -1.74834315E+00 -1.13991192E+00  4.21057367E-01 -2.38257441E-01
  2.33180915E-02 -8.50618268E-02  7.49776090E-02  5.58092168E-02 -1.71520647E-01
  2.74755622E-02 -3.17171581E-02 -6.92654100E-01  3.44877566E-01 -2.84488470E-02
 -1.44967382E-02  2.53356665E+00 -2.43610180E+00  1.76994132E-01 -2.49267392E-01
 -1.96224036E-01 -4.66242507E-02  2.09569135E-01 -2.53581767E-02  6.15351781E-02
 -4.11274316E-02  1.06455474E-02  1.78433384E-01 -2.08823222E-02  9.53435092E-02
  2.82650764E-02 -4.58826048E-01  5.14055684E-01 -2.28943683E-01 -5.55505716E-02
 -1.54979923E-02  1.14539563E-01  5.14095272E-02 -4.51549726E-02 -3.72703514E-02
  1.05873698E-01  2.23668234E-02  3.17883412E-01 -2.96289470E-01  2.66054423E-01
 -1.98749129E-01 -6.88427818E-01  8.26518731E-01 -1.04412487E+00  6.63923066E-01
  2.35864304E-01 -7.83010741E-03  4.94090516E-02 -5.43418667E-02  1.50799920E-01
 -8.09762283E-02  4.49741080E-02  6.05761558E-01  1.52727342E-01  2.98450345E-02
  1.05734280E-02 -1.46455621E+00 -3.71382528E-01  1.11688738E-01 -1.34244618E-01
  1.71512336E-02  1.99970085E-01  1.16474769E-01  2.59517324E-02  5.06955535E-02
  3.50104452E-02  1.11887765E-01  1.57838475E-01  2.08369415E-01 -4.21326575E-02
 -2.76867423E-02 -6.32340076E-02  9.75119338E-02 -1.18062676E-01  4.72165413E-01
  5.96776271E-01  2.36246798E-01  2.95937203E-01  2.37249594E-01  1.98951204E-01
 -4.45628534E-02 -5.99401723E-01 -2.44887393E-02  1.29189482E-01  1.51214928E-02
  1.46717245E+00  1.97087204E-01 -2.81904784E-01 -2.76548474E-02 -8.56251133E-02
  9.36158855E-03  4.78636728E-04  6.70105172E-02  1.25788748E-01  3.71317182E-02
  7.14960120E-03 -5.37238061E-02 -1.14315246E-02 -1.50317979E-02 -6.47918300E-02
  8.99644731E-02  4.79868842E-01 -2.41112237E-01  2.98340115E-01  1.39669323E-01
 -4.96506165E-02 -8.35080402E-02 -7.25450096E-02 -2.97197821E-01 -1.90199078E-01
  1.72412400E-02  2.30395466E-01 -9.83649988E-02  4.15153457E-02  1.03695697E-02
 -2.33774290E-01  9.64089078E-01 -1.10679786E-01 -2.92941517E-02 -5.31801760E-02
  1.41479110E-01 -6.11418491E-02  1.48219669E-01  3.82781335E-01  1.42473975E-01
  5.70548130E-03  1.24929027E-01  3.79182132E-02  1.45436914E-02 -1.25323154E-02
 -3.95254947E-01 -2.16019205E-01 -1.06345992E-01  1.37644642E-01 -3.90776016E-02
  4.16683474E-02  7.97793085E-02  9.77606508E-02  1.27117036E-01 -2.30777050E-03
  1.39621211E-02  2.97128099E-01 -4.91639564E-02 -8.60799487E-02  1.39634767E-02
 -8.09454951E-01  1.13117199E-01  2.93542376E-01 -1.87225377E-01  7.06482191E-02
 -5.52965490E-02  2.02983363E-01 -1.01153052E-02 -2.02890126E-01 -2.28160176E-01
 -5.45086531E-03  2.95840583E-02  6.80937976E-03  5.33796645E-02  5.70614787E-02
  6.34171426E-02  7.48939263E-02 -1.64119373E-01 -5.37769435E-01 -1.17246046E-01
  5.87968513E-02  5.68170382E-02  5.63104596E-02  2.78053623E-01  1.53563660E-01
 -2.45874861E-01 -9.18260891E-02 -1.87596943E-01 -2.54416804E-01 -9.54944030E-02
 -4.68755855E-02  8.20834386E-02  9.66883094E-02 -4.10804590E-03 -3.90642300E-02
  1.30062889E-01  1.51189614E-01 -1.97405826E-01 -1.92474426E-01 -1.81416609E-02
 -3.19227846E-01 -6.42763667E-02  9.57842403E-02  3.41733418E-02  4.58632626E-01
  1.65324268E-01 -3.58787744E-02  1.06559216E-01 -3.73697606E-02 -2.27066635E-02
  3.06344512E-02  7.55270590E-02  1.19232167E-01  1.10989101E-02 -5.30034530E-02
 -7.73979337E-01 -3.69637275E-02 -2.10940551E-02  4.09116889E-02  2.93208764E+00
  5.76149374E-01 -5.01363651E-01 -9.17328028E-02  1.36976843E-01 -1.21373115E-01
 -7.03044913E-02 -7.46348547E-03 -1.66482450E-01 -1.15255119E-01  2.17857348E-02
  2.24739266E-01 -3.62533748E-02 -4.81159557E-03 -2.01496008E-02 -1.61701014E+00
  1.21596354E+00  1.62871795E-01  2.67829901E-01  1.10468124E-01 -3.73447057E-01
  2.67464173E-01  7.73354424E-02 -4.45330675E-02 -3.06848179E-01 -1.12183722E-02
 -2.64049311E-01  9.81521214E-02 -8.65295660E-02 -3.40280639E-02  6.86403578E-01
 -3.68307276E-01  1.09615351E-01 -2.68562443E-01  9.06463123E-03  1.16742345E-01
 -3.12898204E-01 -4.50283351E-02 -1.23810132E-01  1.23480476E-01 -2.99447815E-04
  1.42478639E-01 -3.02243078E-02 -9.65531661E-02  1.06189812E-01 -2.93876556E-01
 -8.56936480E-02  4.40350663E-01 -2.32061536E-01 -9.72397558E-02  2.35774970E-01
 -5.89218213E-02  1.44712091E-01  2.11642706E-01  6.83838236E-02  1.30502651E-02
  1.89588171E-01  1.62920168E-02  1.27171770E-02  1.55218179E-03 -8.84373441E-01
 -2.76969231E-01 -3.69298678E-01 -7.30439374E-02 -1.29635643E-01  1.00578806E-01
  1.13445461E-01  3.52233427E-02  8.85372119E-02  5.78640464E-02 -1.28382683E-01
 -7.34239974E-02 -9.93908810E-02 -1.41239972E-01 -3.35084491E-02  7.07126073E-02
 -2.28266207E-01 -3.64503881E-01 -1.67072513E-01 -1.46538040E-01  7.86953445E-02
 -2.88214476E-02 -6.94384721E-02 -2.12579337E-02  3.15886442E-02  4.54562098E-01
 -3.75371689E-02  2.53268152E-02 -5.79616939E-02 -1.64635810E+00 -4.09362307E-02
  3.91748210E-01  1.69007120E-01 -2.16353595E-02  2.04655069E-01 -1.46354946E-01
 -1.03901690E-01  8.58074228E-02 -1.45083896E-01 -4.78167370E-02 -5.95816393E-01
  2.49396480E-02 -4.03328498E-02  2.70096670E-02  2.15540230E+00 -9.78698013E-02
  1.04134488E-01  1.79807115E-01  2.10677373E-01 -3.29047354E-01  6.87994456E-02
  2.06150105E-01 -3.78279180E-02  2.01614326E-01 -6.99630184E-03 -1.25991166E-01
  1.01312838E-01 -7.13686127E-02  4.03591076E-02 -1.80435019E+00 -2.21195147E-01
  6.41052370E-01 -3.67181265E-01  5.46378105E-02  6.20111372E-02 -1.30830592E-01
 -5.20802020E-03  6.40767445E-02  1.02765210E-01 -4.03890132E-02 -9.52460846E-01
  6.42703347E-02 -1.94135391E-01  1.65945239E-01  2.66878707E+00 -2.47354711E-01
  8.28192044E-01 -4.73096194E-01 -1.43646873E-01 -3.37920145E-01 -1.62273187E-01
  7.90975107E-02  2.98611538E-02  4.66318691E-03 -1.88474502E-02 -1.03738031E-01
 -5.21143190E-02 -1.18508835E-01  1.95302019E-02  5.51905276E-01 -3.83313438E-02
  1.39070044E-01 -8.48649616E-02  1.95662298E-02 -6.83723881E-02 -6.26157205E-02
 -1.00590062E-02 -9.10476040E-02 -1.19858272E-01  2.61463613E-03  6.07512000E-02
  9.20018508E-02 -9.42213212E-02 -1.92190256E-02 -4.52555639E-01 -2.28765956E-01
 -1.29098630E-01  2.13607137E-01 -2.50934558E-01  3.00869558E-01 -5.54099179E-02
 -9.91027348E-02 -9.13389117E-02 -1.30350076E-01  2.33709644E-02  1.12113927E-01
  1.91166931E-01  2.12009061E-01  7.06557627E-02  1.86095827E-01 -1.85256001E-01
 -1.83913186E-01 -1.95314016E-01 -1.78506466E-01 -7.08180969E-02 -1.17161563E-01
  1.50586074E-02  9.76343047E-02  7.27627675E-04  9.08424874E-02 -3.56044502E-02
 -8.04515162E-02 -7.43609701E-02  1.95011294E-01  1.23954026E-01 -7.11523733E-02
 -1.06279657E-01 -1.41656348E-02  1.72947280E-01 -1.31463978E-01 -1.25365963E-01
 -1.77632277E-02 -1.07805916E-01  6.19513953E-02  6.74162564E-01 -3.17173240E-02
  2.57184662E-02 -8.77520057E-03 -3.03490674E+00  6.76115387E-01  9.86004528E-01
 -3.83252115E-02  1.24790615E-01 -1.98670517E-01  1.14747845E-01  1.04120061E-02
 -6.58538869E-02  8.79879824E-02 -1.32840111E-03  1.08367584E-01 -1.18637656E-01
 -5.83314598E-02 -9.63686457E-03  1.80635737E+00  5.32604789E-01 -2.10836585E-01
  1.48235392E-01 -2.35729830E-02 -6.71273142E-02  1.01230429E-01 -3.09849782E-02
  5.20001904E-02 -9.42926630E-02  2.50415276E-02  5.15756525E-01 -6.21462021E-02
 -4.59198171E-02 -7.45457882E-02 -1.66354585E+00  1.03396028E-01 -4.12051822E-01
  3.05207246E-01  4.96820412E-03  2.24021870E-01  9.30416116E-02 -4.25859072E-02
  2.57660801E-02  4.08686938E-02  2.79019111E-02  5.06462315E-01 -1.09681033E-01
 -9.12950323E-02  5.61898234E-02 -1.44111648E+00  3.77680302E-01  3.77265677E-01
 -1.35654674E-01  7.30823274E-02  2.03159141E-01  8.93874309E-02  5.83336778E-02
  7.07672488E-02 -2.39250316E-02 -7.18936902E-02 -9.49372830E-01 -9.84202098E-02
 -7.25659521E-02  1.51929145E-02  3.33126457E+00  9.94724647E-01  6.96929999E-01
 -5.27191859E-02  2.01774331E-02  8.19306960E-02 -4.91896341E-01 -3.35294684E-01
  1.59002982E-01 -1.79437133E-01 -7.51492216E-02 -3.76843875E-02  8.99773550E-02
  1.99552029E-02 -3.38103120E-03  7.77833944E-02  2.14464222E-01  2.43575082E-01
  1.04773116E-01 -5.27109148E-02 -2.90030501E-01 -5.03482069E-02 -3.02573298E-01
 -1.73695165E-01  7.21402088E-02  5.56209707E-01 -1.48415820E-01  1.41085813E-01
  4.75897698E-02 -3.30418072E+00  1.43057647E-02  6.84258202E-01  8.34164849E-01
  3.83799791E-02  6.85877014E-02 -6.37881904E-02 -1.48060804E-01 -1.56234399E-01
 -1.85106729E-01 -1.27504254E-01 -1.47327417E+00  1.58356010E-01 -6.91133962E-02
 -5.33299854E-02  6.12137708E+00 -3.10712735E-01  6.01689498E-01  7.83959692E-01
 -2.16158271E-01  1.05002581E-01  4.48777591E-02  9.73766496E-02  2.38469634E-02
  1.00541084E-01  1.70930754E-02  3.44816221E-01 -9.22234949E-02 -6.30228858E-02
 -3.30888321E-02 -1.91356541E-02  2.38810934E+00 -6.33845933E-01  4.70610002E-01
 -2.69403518E-01  1.30388848E-01  1.23679325E-01  1.22399003E-01  1.15151142E-01
 -6.53553441E-02  3.65008007E-02  5.38958716E-01  1.30454851E-01  9.91339642E-03
 -3.02448379E-03 -1.98590506E+00 -3.75519622E-01 -5.99322963E-01  2.87620882E-01
  1.59365252E-02  2.38240880E-01  1.12183990E-01 -4.81185013E-02  8.15960104E-02
  2.51778225E-02  2.80660573E-02  4.55678168E-01  2.25130071E-02 -1.07914818E-01
  1.57557023E-02 -1.46404831E+00  2.18234791E-02  5.99008453E-01 -2.05671759E-01
  2.16743347E-01 -1.06297426E-01  2.08422797E-01  1.49160357E-01  8.78189595E-02
 -1.68862904E-01  1.22651020E-02 -8.33944306E-02 -1.08804693E-01 -1.17685984E-01
 -6.90426053E-02 -8.11021814E-01 -1.40808808E-01 -5.05520763E-01  2.98039778E-01
 -2.20441748E-02 -1.55618265E-01  1.81107444E-01  1.02020630E-01 -1.63173156E-01
  4.95124716E-02  2.37940837E-01  1.66165492E-01  1.94771947E-01  3.33192130E-02
  2.73887676E-01  4.28705157E-01 -4.83501190E-01 -3.46109139E-01  1.75813731E-02
 -2.89233071E-02 -1.71653219E-01 -1.75097508E-01 -8.61909285E-03  5.94368287E-02
  3.25751582E-02  3.85220342E-01  1.13461174E-01  1.12479678E-02  4.66210754E-02
 -1.27183669E+00 -3.81414389E-01  2.09255537E-01  9.12699448E-02 -1.82317038E-01
  6.84354362E-02  1.20887629E-01  1.37463129E-01  2.53273137E-01  1.77749784E-01
 -5.18475436E-02 -6.11294742E-01  1.53115682E-02  1.59923821E-02  3.07903018E-02
  2.50782480E+00  4.51021450E-01  1.92128946E-02 -2.93105139E-02  6.71779928E-02
 -3.88487053E-02 -5.78287588E-02 -4.41041781E-02 -2.21061513E-01 -1.59274582E-02
  7.16320129E-03  5.10726416E-02  2.12507160E-02 -1.16223772E-01  1.98100321E-02
  3.08725386E-01  1.38578591E+00  2.15146570E-01  5.77412357E-01 -6.94101916E-02
  1.81611664E-01 -1.00269422E-01 -1.90876687E-01 -2.33000312E-01 -4.54595100E-03
  1.72988271E-02  2.05029680E-01  4.18205928E-02 -2.69607557E-02  1.25297364E-01
 -8.93058939E-01 -2.02733322E-01 -3.55898180E-01 -2.95565265E-02 -4.87673841E-02
 -4.39487058E-02  2.17923187E-01 -1.11025080E-01 -2.40772339E-01 -1.13790440E-01
  2.70517777E-02  5.50353863E-01 -6.82973770E-02 -1.15622258E-01  6.39912805E-02
 -1.61267715E+00  2.85729716E-01  4.37330213E-01 -2.89134547E-01  4.14400300E-01
  2.98421968E-01 -3.40691042E-01 -1.68903235E-01 -1.88858347E-01  8.34684852E-02
 -6.38430712E-03 -1.58896480E-01 -7.95881679E-02 -1.66373244E-02 -5.15202543E-02
  9.75560315E-02  6.49541020E-02 -1.78396673E-01  1.33792803E-01  3.86651533E-02
 -9.61749046E-02  1.82724628E-02  1.11479649E-02  3.27256305E-02  9.28779003E-02
  8.54438114E-02  1.82825257E-01  1.22799597E-01  1.39053370E-01  1.75730296E-01
 -4.41067545E-02 -2.61051025E-01 -2.25228044E-01  1.81864479E-02  7.39943641E-03
 -6.94114324E-02 -8.94269536E-02 -1.09099788E-01 -2.53397859E-02  4.41323280E-02
  7.35711769E-01  7.67262033E-02 -1.03022423E-01  2.06145900E-03 -2.16248268E+00
 -5.33189626E-01  5.49658263E-01  1.47447519E-01  1.27616316E-01 -1.94452530E-01
  9.67887926E-02  6.46832651E-02 -9.27903887E-02 -4.40382228E-02 -3.60619976E-02
 -8.71547286E-01 -3.58810970E-01  2.78867074E-02 -5.90636004E-02  2.50087693E+00
  5.18117419E-02 -5.97406188E-03  3.94305360E-01  1.55925907E-01 -8.12672568E-03
 -1.38777047E-01 -8.01376711E-02  1.98565417E-01 -9.82505964E-02  8.31719408E-03
 -5.90210109E-01  2.33971421E-01 -7.15157978E-02 -1.77161310E-02  1.60147275E+00
  1.28197115E-01 -2.87381218E-02  2.67436302E-01  2.95111993E-01 -6.23293957E-02
 -2.27070143E-01 -4.20351506E-02  6.58666734E-02 -2.40530848E-02  2.05253417E-02
  6.17783424E-01 -1.44389952E-01  1.87738725E-01 -2.44622228E-02 -1.64416579E+00
  2.65590969E-01 -5.96308838E-01  1.87563823E-01  2.72422484E-01  1.37550209E-01
 -4.77606379E-02  1.51206297E-01 -1.36978264E-01 -2.41686226E-01  1.26292682E-02
  2.86866740E-01 -5.76294914E-02 -3.71760548E-02 -2.19051175E-02 -8.74453672E-01
  2.44078891E-01  2.89972599E-01 -1.05357419E-01 -1.77764208E-01  1.60608664E-01
  1.78914405E-01  3.00772038E-02 -9.87340081E-02 -1.89684091E-01  3.02488247E-02
  2.87343438E-01  6.33295056E-02 -3.73162115E-02 -5.04359241E-02 -1.22997378E+00
 -5.11010234E-01 -5.01590690E-02  1.38503189E-01  1.95498666E-02  1.46358215E-01
 -3.31030022E-02 -1.29239072E-01  1.07642458E-01 -4.22757711E-02  1.99268464E-01
  2.30933749E-01  1.51157026E-01  2.36046727E-01  8.39015593E-02  1.10883183E-02
 -9.21269153E-02 -1.78669019E-01 -7.73923577E-02 -7.95068675E-03  9.41880987E-02
  1.93454361E-03  2.08724757E-01  1.73665430E-01 -1.33980401E-02  1.45607505E-01
  6.07390678E-02 -1.28935710E-01 -2.42084111E-02  4.19382794E-01  3.49879266E-02
  1.41567584E-01 -4.49445788E-01  1.15384583E-01 -2.04598672E-01  9.74339580E-02
  1.81010332E-01  3.73652283E-02  4.86051138E-02  1.30219745E-02  3.38322453E-01
  6.43885962E-02  1.39197605E-01  1.64438225E-02 -1.06342681E+00 -2.69820853E-01
 -9.61818537E-01 -4.31956398E-02 -3.18075563E-02  5.14417228E-04  3.17214281E-02
  7.68534034E-02  9.44384473E-02 -1.70596660E-01 -1.61828772E-02 -1.01281749E-01
 -3.95971160E-02 -4.78452027E-02  5.44048477E-02  1.55581533E-01  3.92765276E-01
  1.91021670E+00 -6.74691753E-01  3.75235791E-02  7.24753884E-02 -9.44357460E-02
 -5.49097251E-02 -2.18620524E-01  1.36736009E-02 -3.37260310E-02 -5.88547931E-01
  1.96227433E-02 -4.52106859E-02  1.17873682E-01  2.10912963E+00 -3.08389702E-01
  3.74582664E-01 -3.69808933E-01 -1.49617589E-01 -3.26429653E-01  8.15941857E-02
 -1.67086018E-02 -1.50200936E-01 -7.40439566E-02  3.48489973E-02  5.51536561E-01
 -3.66157693E-02 -4.95288930E-02  3.18232174E-02 -1.97018226E+00  5.28854187E-01
  2.94126944E-01 -6.50176783E-02  2.17005557E-01 -2.04984566E-01  3.46842365E-01
  2.91205688E-01  4.54686916E-01 -2.81892128E-01 -1.42462635E-02 -2.67007628E-01
 -9.58361540E-02 -5.99975283E-02 -5.01770462E-02  3.45694407E-01  2.08798492E-01
 -9.05546235E-03  1.81015553E-01 -3.39576076E-02 -3.48033461E-02 -2.91201233E-02
  4.10238352E-02  1.74835758E-01  9.23791601E-02 -1.14063644E-01 -7.28843952E-02
 -1.34074631E-02  2.59113642E-01 -1.12780184E-01 -5.85287439E-02  6.21570420E-02
  1.22941992E-01  6.63405158E-02  4.50315594E-02 -1.04947915E-01 -7.90032561E-02
 -8.99508603E-02 -1.58277081E-02 -3.03370392E-03 -2.41864552E-01 -1.61005692E-02
  1.61505159E-01  2.50674804E-02  2.79913980E-02 -3.39009190E-01 -4.81698110E-01
  3.23504559E-01 -3.24818229E-01  2.80801093E-01  2.90134091E-02 -9.49186911E-02
  4.74250777E-01  9.05027028E-02  1.25616814E-03 -2.06060854E-01 -1.71678365E-01
 -1.26941087E-01 -3.97418129E-02  4.78138085E-01  9.48833609E-01  1.00967171E+00
  9.23731836E-02  8.92256505E-02 -7.33131012E-02  1.44512725E-02 -1.98304730E-01
  4.53095721E-02  1.03267931E-01  2.09662012E-02  1.14527643E-01  3.09904066E-02
 -3.43091195E-02  4.06743851E-02 -6.86551721E-01 -2.01709627E-01 -1.56247280E+00
  6.07767329E-01  4.63611888E-02 -5.63549209E-02  1.26731743E-02 -1.87503288E-01
  1.06828246E-01  9.36725242E-03  2.26761923E-02  2.90847481E-01 -9.40458202E-02
 -5.19011355E-02  2.95389357E-02 -1.33517511E+00  2.89424252E-01 -1.58821595E-01
  1.41208628E-01 -1.30168762E-01  1.29319002E-01  1.99133323E-01  7.85948942E-02
 -1.75898536E-01 -5.88931395E-02 -3.94111831E-02 -3.75239697E-01 -3.05202842E-02
 -9.45074135E-02  2.37453003E-02  1.70038776E+00 -4.62692242E-01 -1.03145575E-02
 -1.77578272E-02 -1.60042268E-01 -3.40382353E-01  2.30454497E-01  1.18401505E-01
  1.98275301E-01 -5.72106927E-02 -1.12328490E-03  1.86592076E-01  6.62475231E-02
  1.63358803E-01  1.08506734E-01  2.63526799E-01  1.82342541E-02  3.27591445E-02
 -3.75418440E-01  2.31849762E-01 -1.88850621E-01  3.33530372E-02 -6.56183349E-02
 -2.57138390E-01 -1.59491246E-01  6.46109766E-02  2.95050681E-01 -7.48996546E-02
 -2.91567541E-01 -1.39242016E-02 -3.19589423E-02 -3.11355913E-02 -6.10802638E-02
 -1.70790060E-01 -1.49276684E-01  7.04651870E-02  1.38456492E-01  2.24471240E-02
 -8.50574489E-02  9.79318496E-03  1.79946725E-01  2.36262173E-02 -3.82451888E-02
 -2.13641350E-04 -4.49481651E-01 -9.17044472E-02  2.68016287E-01 -1.07117791E-01
  8.45194780E-02 -7.48879476E-02 -1.21360957E-04 -2.66539916E-02 -8.25273745E-02
 -7.96706800E-02  1.14906370E-02 -1.02563544E-01 -1.40601140E-01  8.55871858E-02
 -9.23542878E-02 -2.36008159E-01 -7.10396170E-01 -5.02326203E-01  4.69435324E-01
 -5.42379283E-02  6.85087935E-02  3.28011470E-02 -1.52018930E-01  2.79997561E-01
 -8.63787508E-02 -4.69914289E-03 -2.47034911E-01 -1.75532574E-02 -1.01236316E-01
  7.98339096E-03 -4.12674595E-02 -4.51939486E-01  1.61228291E+00 -9.40657326E-01
  1.46280842E-01 -1.42202729E-01  6.19476327E-02 -1.02877456E-01  1.68595328E-01
  9.15005827E-02 -3.71685923E-02 -6.12194074E-01 -1.48595246E-01 -9.37970825E-02
 -4.06912355E-03  2.31323852E+00  1.33897403E-03  5.73523912E-01 -2.64014046E-01
 -5.47136659E-01  1.88549809E-01 -2.79657560E-02  3.78471959E-01  1.11684858E-01
  2.61794454E-01  5.45162585E-03  3.86005922E-01 -1.13162682E-01 -1.41034457E-01
  5.67603636E-02 -1.04514794E+00  3.91044767E-01  2.21510040E-01 -5.64773428E-02
  3.29234830E-01  1.27379855E-01 -2.46786041E-01 -1.34978235E-01  4.21326658E-02
  8.95906698E-03 -1.31680544E-03  4.41816337E-02 -2.89681670E-02  3.99537573E-02
 -2.36341773E-02 -4.28638354E-01  7.40738168E-03 -2.39159067E-01  7.32454960E-02
  1.32251536E-01 -1.97631827E-01  8.43475805E-02  9.13950388E-03  3.84154283E-02
  5.05747891E-02  5.81066194E-02 -5.68852293E-02  2.07529310E-02  1.64597322E-01
 -3.74180457E-02 -1.98165558E-02  6.50432816E-02  1.97299037E-01 -9.66010206E-02
  3.12749093E-02 -8.31140370E-02  1.50906845E-02  1.18915677E-02  9.09450679E-03
  1.62208380E-03 -3.78295825E-03  7.26250713E-02  1.44962747E-02 -4.19516856E-03
  9.38792228E-02 -3.78556554E-01 -1.64023427E-01 -1.11605857E-01 -1.33285675E-01
  1.24532941E-01  2.80345537E-02 -3.74494774E-03  2.83131516E-01  9.73807624E-02
  2.44495738E-02  4.90972515E-01  3.90978959E-02 -5.48043029E-02 -2.84555626E-03
 -1.36289019E+00  2.39652830E-02  2.76465696E-01  2.34823602E-01 -7.32025297E-02
  2.02948575E-02  1.35194553E-02 -9.43925428E-02  8.58312203E-02 -2.86684420E-02
 -3.38013854E-02 -4.28655605E-01  6.65037045E-02 -1.19036065E-01  5.75199919E-02
  2.15922217E+00  7.28063971E-01  6.65863887E-01 -1.76453204E-01  7.50101967E-02
  1.29437336E-01 -2.34805783E-01  2.46820165E-01 -5.27510541E-02 -1.95499497E-01
  9.85989029E-03  1.02786218E-01  1.31219460E-01 -9.23956813E-03  3.87260626E-02
 -5.58364442E-01 -2.47773036E-01 -2.78585686E-01  7.63396486E-02  3.89478678E-01
 -1.70622691E-02 -3.17331391E-01  2.16774014E-01  4.45034110E-01 -8.33556060E-02
  4.08696845E-02  4.27315652E-01  1.13544591E-01  3.81084751E-02  1.75595528E-02
 -1.87719642E+00  3.51191933E-01  4.68758303E-01 -2.06800511E-01  3.45949118E-01
  1.16805995E-01 -2.07846310E-01  1.15073836E-01  1.33981828E-01 -9.64607731E-02
 -2.02873217E-02 -2.31717189E-03  4.18192275E-02  6.00714236E-02  7.05902447E-02
  5.49811756E-01  2.10462878E-01  1.32378852E-01 -2.28751827E-01  3.58017598E-02
 -1.10094853E-01 -8.90162991E-04 -5.59711189E-03 -1.62022201E-01 -1.24932921E-01
  4.25660361E-02  1.32533909E-01  2.86673552E-02 -5.65444100E-03 -7.12807054E-02
 -1.81577306E-01  1.39858660E-01  1.88026829E-01  3.18305968E-02 -6.24037868E-02
  3.81447023E-04  8.37583590E-02 -1.51305104E-02 -3.69171371E-02  1.54419176E-02
 -3.16406979E-01 -5.85098480E-02  1.53424373E-01  8.66237230E-02  1.58627487E-01
  1.57583120E-01 -1.79546632E-02 -2.37979598E-01  3.59903343E-02  9.99853204E-02
 -1.03858232E-01 -1.73200410E-01 -2.53847971E-01  1.39978043E-01  2.94060082E-02
  1.61393013E-01  5.05277080E-02 -1.31948396E-01 -9.38989463E-02 -1.09178968E+00
 -9.33225172E-01 -1.96228193E-01  6.39970376E-01 -1.94265877E-01  1.67888411E-01
  4.83406710E-02 -3.03042115E-01 -5.90212204E-02  1.64582907E-01 -1.65930929E-02
 -1.75079225E-01 -1.14733792E-01 -3.02514542E-02 -4.65045738E-02  3.49787975E-01
 -5.77240286E-02  1.77096913E+00 -1.28317421E+00  8.66866540E-02 -1.31114557E-01
  6.86506807E-02  2.36515676E-01  8.97779127E-02  7.14748181E-02 -3.65070403E-02
 -5.63498386E-01  8.84584848E-03  2.06491921E-02 -8.88906428E-02  2.32176023E+00
 -2.90877745E-01  5.09712194E-01 -1.48833004E-01  1.59617462E-01 -1.79989310E-01
 -2.93855865E-01 -6.98198940E-02 -5.05689685E-01 -8.22994423E-02  2.75590738E-02
  3.71740527E-01  2.11373005E-03 -3.33505897E-02 -4.78793013E-02 -1.51056501E+00
  4.52518812E-01  2.42969866E-01  1.13051150E-01  2.59943975E-01 -2.62669385E-02
 -4.86601203E-03 -2.23268917E-02 -1.25791913E-01 -2.16384902E-01 -1.28700618E-02
  8.98884548E-02  1.94553995E-02  1.02886005E-01  1.45641089E-03 -1.88492982E-01
  1.36042642E-01 -2.37677911E-01 -1.19887338E-01  1.11860704E-01 -1.07577501E-01
 -1.38552028E-02 -1.39670146E-01 -2.82022395E-02 -6.31377887E-02  3.43137090E-02
 -1.29549118E-01  1.10905149E-01  6.90972396E-02  4.21338561E-02 -5.43886595E-02
  2.69392649E-01  2.17007547E-01  4.54638105E-02 -9.24964642E-03  1.98747846E-02
 -2.45698170E-02 -8.80027990E-02  7.29434005E-02  4.34870431E-02  2.53374829E-01
 -4.66724447E-03  7.83253298E-02  6.63666369E-02 -1.30881160E+00 -2.77584737E-01
  2.08536116E-01 -1.74676931E-01 -1.95412134E-02  3.49024874E-02 -8.00641966E-03
 -3.75890944E-02 -3.43316335E-02  3.80810669E-01  1.23144933E-02 -3.45014172E-01
 -5.36967245E-02 -1.55670315E-01 -1.28104764E-01 -2.19906112E-01 -5.19985990E-01
  4.74227804E-01  3.86162808E-01 -8.27610147E-02 -6.39506053E-04  1.55848553E-01
 -6.72158178E-02 -1.90307493E-01  2.49557331E-01  8.88358264E-03 -2.37904973E-01
 -7.53336278E-02  8.77299404E-02 -2.98352985E-02  8.81703380E-02 -6.46348070E-01
  1.67729167E+00 -7.97299645E-01  1.13591620E-01 -1.26665451E-01  1.22847233E-01
  1.07933690E-03 -1.81943456E-01  3.28680973E-01 -3.64971514E-02 -2.72865288E-01
 -7.74097080E-02  2.37716784E-01 -7.01421691E-02  1.92411396E+00 -7.09185553E-02
  2.67185254E-01 -2.70269069E-01 -5.29503447E-02 -1.57727825E-01  5.26603137E-02
  1.22881301E-01  2.95540113E-01  5.80683470E-02  2.00940991E-02  3.30033657E-01
 -1.88492456E-01  4.48952300E-02 -9.57655538E-03 -1.09529017E+00  6.85037023E-01
 -1.80222134E-01  1.10190414E-01 -4.57321283E-01  4.48551653E-01  2.16502932E-01
  1.40168349E-01  4.57686791E-02 -4.37537385E-02 -2.53264272E-02 -1.90989135E-01
 -3.30647642E-02 -5.07191056E-03 -1.52933733E-02  5.90817583E-01  3.42920610E-01
 -8.79596625E-02  1.31427330E-02 -2.38419993E-02 -1.81844520E-01  1.20510326E-01
 -2.32519155E-03  7.06998045E-03  1.28015215E-01  1.26545208E-01  1.28724140E-01
  3.04422766E-01  2.31842286E-01  8.57955473E-02 -2.93262883E-02  3.01990343E-02
 -2.37013056E-02  1.52427683E-01 -1.54430879E-02 -1.61070650E-01 -1.14548972E-02
 -2.10764371E-01  3.97070896E-02  4.47283623E-03  3.32531321E-01  7.16435019E-02
 -7.06943846E-02 -8.30167159E-02 -5.23753364E-01 -2.28642806E-01  5.79615704E-02
  3.56471329E-01 -6.59504268E-02  2.38647539E-01 -1.53954680E-01 -1.61236072E-02
  3.07192812E-01 -4.26182441E-01  7.48369990E-03  2.94751878E-01 -8.86739202E-02
  1.29905080E-01  1.10938574E-01 -1.32048189E+00 -6.42287158E-01  4.95530628E-01
 -3.39928131E-01 -1.04136071E-01  8.64362449E-02  4.90282997E-03  7.08890519E-02
  1.13318108E-01 -3.40887326E-01 -8.64952796E-03 -2.98869689E-01 -3.72696956E-02
 -1.10830267E-03 -8.30674696E-02  7.52762048E-01 -6.94283543E-01  1.60679005E+00
 -9.37384347E-01  1.48223315E-01 -1.30245393E-01  3.26475101E-02  1.89969411E-01
 -4.99123206E-02  1.24400794E-01 -3.34865110E-02 -2.88045079E-01  2.80394235E-04
  1.55622687E-01 -1.12621809E-01  1.75767786E+00 -1.56757197E-01  2.78065177E-01
 -1.22533242E-01 -2.24558518E-02 -1.45452288E-01 -7.05549276E-03 -2.37831042E-01
 -9.90167514E-02  1.45130609E-01  2.56317001E-02  2.54031768E-01 -8.68164234E-02
  1.04423285E-01 -1.04439843E-01 -1.14637500E+00  6.11630385E-01 -1.41676206E-01
  2.47086233E-01 -2.38108905E-01  3.14082571E-01  8.40804673E-02 -1.69800751E-02
 -2.40360126E-01 -2.08689114E-01 -1.72866152E-02 -2.67047363E-01 -9.38365174E-02
 -3.27263943E-02  8.65586838E-03  8.16327296E-01  4.74518133E-01  9.72011950E-02
  6.37434349E-02  1.86072908E-01 -3.05567580E-01  2.80775181E-02  1.43928370E-01
 -1.40190458E-01 -5.30718078E-02 -3.33261106E-02  1.06310761E-01 -9.49281675E-02
  2.08670782E-02 -7.96359037E-02  1.14427378E-02 -1.56298376E-01 -9.28760090E-02
  1.04141435E-01  4.72382107E-02 -1.01979640E-01  1.75151470E-02 -3.48210803E-02
 -2.49907930E-02  4.28945322E-03 -9.11252543E-02 -3.92973508E-02  5.63155875E-02
  4.64283152E-02 -4.94688618E-02  3.10000834E-02 -1.34451671E-01  1.01170892E-01
 -1.15215893E-01  3.23950760E-02  9.05092654E-02 -1.26801515E-01 -3.95547675E-02
 -4.23545445E-02 -6.57086551E-02 -5.63198956E-01 -3.66197663E-03 -1.23216464E-01
 -1.52630402E-02  3.14749292E+00  7.24585328E-01 -7.51933216E-01 -8.13402579E-02
 -8.99295283E-02  5.79973739E-02  8.26155337E-02 -3.58842324E-01  1.16779663E-01
 -1.50716585E-01  2.15767225E-02  1.75324513E-01  2.93775289E-02  5.28494988E-02
  2.93046386E-02 -1.76079925E+00  1.38478136E+00  2.96001289E-01  3.02113344E-01
  6.92783342E-02  3.81076318E-02 -2.02184272E-01  3.15533383E-01 -2.03824578E-01
 -1.73521355E-02 -7.83238310E-03 -1.21984449E-02  1.18764126E-01  1.60695514E-01
  1.88501183E-03  3.60088529E-01 -4.32168240E-01 -9.06757001E-02 -1.60909135E-01
 -3.20202370E-01 -7.74379780E-02  3.96813943E-01 -2.09709789E-01  1.28418103E-01
  1.74459776E-01  1.99083431E-02 -1.79700058E-01  1.56529801E-01  1.65584922E-01
 -3.62060941E-02 -1.11905754E-01 -1.78338070E-01  1.56321640E-03 -1.00679293E-01
  3.63693354E-02  3.50930213E-02 -9.07510057E-02  1.01493002E-01  5.51678091E-02
  1.24716663E-02  2.14042360E-02  5.41812356E-01  1.07849561E-01  1.24010776E-01
 -2.57854124E-02 -1.66094388E+00 -6.51862981E-01 -3.04773454E-01  1.03325045E-01
 -3.88651615E-02  2.65758410E-01 -1.04798101E-01 -3.60583210E-01  2.38292070E-01
 -9.32811697E-02  1.07705812E-01  1.70485578E-02 -1.19713306E-01 -9.91015333E-03
  8.33619665E-02  6.21384790E-02 -4.06538304E-01 -1.74731053E-01 -2.51001703E-02
 -7.16928367E-02  1.25449691E-01  7.25236915E-02  1.82544508E-01  1.09590365E-01
  8.24894319E-03 -3.95224738E-03 -5.56265509E-02  4.40736162E-02  3.72272423E-02
 -5.84276937E-01 -2.97024834E-01  5.68655937E-01 -4.96089393E-01  2.48321334E-01
 -3.77016358E-01  1.52059824E-01  3.57710527E-01  1.93164337E-01  3.79003434E-01
 -2.45408694E-02 -3.81025583E-01  2.88893979E-02  8.06932523E-02 -1.02466049E-01
  1.30502284E+00  5.80427294E-01 -6.07052797E-01  1.84372035E+00  1.35053595E-01
 -8.81723574E-02 -1.09323624E-02  3.88668834E-02  2.32686162E-01  1.48654545E-01
  1.91910481E-02 -7.52381938E-02  1.48715035E-01 -8.62536472E-02 -1.02199698E-01
 -9.21892034E-01  1.16562680E+00  5.62394498E-01 -5.74924449E-01 -7.44988698E-02
  1.49540671E-02  7.08337401E-02  1.55565666E-01  6.71656523E-02 -2.75576168E-02
 -1.03986091E-02 -1.62341956E-02  4.46471920E-02  1.78700318E-02 -7.04680278E-02
  4.75441752E-01 -2.86191006E-01  7.23283892E-02  1.10639556E-01 -1.96412875E-01
  1.39708469E-01  5.50702461E-03 -3.27498973E-01  1.53860987E-02  2.89627527E-01
  1.96427935E-02  1.47616759E-01  3.79787030E-02  8.94168556E-03 -7.56076885E-02
 -8.59625538E-01  1.00174058E-01  2.32219020E-01  1.20043671E-01  6.46549369E-02
 -2.64147001E-02  7.81376249E-02 -4.13902966E-02 -2.11891766E-01 -1.93527985E-01
 -8.42609065E-03 -1.44713623E-01 -3.68298990E-02 -4.33935285E-02  7.45656491E-02
 -1.33870020E-03 -3.53321316E-02 -6.96847335E-02 -4.02384968E-01 -1.53609151E-01
  1.00180754E-01  2.01192526E-02 -5.36481457E-02 -2.84409914E-01 -2.59517755E-01
 -3.46559335E-02 -1.19371567E-01  1.95227161E-01  2.61446185E-01 -1.79946817E-01
 -4.74213570E-02  3.85625581E-01  5.55241986E-01  4.65475123E-03 -1.98503794E-02
 -1.37291972E-01  6.98917844E-02 -1.10179935E-01 -5.84496026E-02  7.84378568E-03
 -9.43491936E-02 -5.21264759E-02  7.45911714E-02  5.05185516E-02 -3.29197648E-01
 -1.35455807E-01  1.97045232E-01 -9.34462907E-02 -1.25350723E-02 -7.11835567E-02
  1.13210884E-01 -2.02215711E-02  2.01954591E-01  9.01612523E-02 -6.14437914E-02
 -7.83991510E-01  1.09596507E-01  5.95018748E-02 -3.88616374E-02  2.99425228E+00
  5.50598684E-03 -1.17099800E+00  7.95623254E-01 -2.22050561E-01  4.63551485E-01
 -2.38313064E-01  2.53479632E-01 -3.49140791E-02 -3.86894595E-02  1.84466749E-02
  2.93401656E-01 -1.24320000E-01  2.37563241E-02 -6.04258692E-02 -1.91123603E+00
  8.49469994E-01  7.33167831E-01 -2.97753358E-01 -2.22517126E-01  4.64980055E-02
  1.91073186E-01  7.67015894E-03 -1.04716781E-01  1.86864800E-01 -1.27045937E-02
 -3.18930319E-01  3.55823851E-02  5.62507523E-02 -3.01531859E-03  1.31336161E+00
 -2.81747389E-01  2.46588990E-01 -1.81423364E-01 -1.76463205E-02  6.50257847E-02
 -1.45681011E-01  2.10193377E-01 -9.90402870E-03  2.87180782E-02 -1.22868591E-03
  2.05141746E-01 -4.06181573E-02 -6.52038793E-02  8.72452735E-03 -5.09031883E-01
  8.91193603E-02  2.94760523E-02  4.32337703E-02 -4.63819803E-02  2.40209315E-02
  6.94353133E-02  3.42365408E-02 -6.34754976E-02  3.90560094E-02  6.91368155E-02
  3.73644656E-01 -1.17609960E-01 -1.03812266E-01  1.32976423E-02 -2.33472319E+00
 -6.55448717E-01 -6.05118131E-02 -2.19884143E-01  4.17486930E-01  2.95993230E-01
 -5.71789560E-01 -2.44205204E-02  1.14430014E-01 -2.71844677E-01  1.02601867E-01
 -1.32430412E-02 -2.97202639E-02  9.90628558E-02 -6.37336901E-02 -5.00502566E-02
  3.72552953E-02  4.62154580E-02  9.56581039E-02  5.98970591E-02  5.48900821E-01
  7.63885790E-02  5.15324212E-01  1.03634109E-01  4.72317909E-03 -6.33563127E-02
  6.23606771E-02  1.52656774E-02  3.71201287E-02  8.69500226E-02  1.38618079E-01
  1.68310677E-01 -2.65382556E-01 -8.69065665E-02  2.28227850E-01 -1.29131218E-01
 -5.33764475E-02 -2.73444574E-01  5.33506189E-02  5.06607314E-02 -1.58638685E-01
  3.26254389E-02  1.03235408E-01 -8.92951716E-02 -9.89638212E-01 -8.87735372E-01
 -5.31930712E-01  5.73687054E-01  2.63916281E-01  3.11525194E-01 -5.46604962E-01
  5.38265470E-02 -1.94173793E-01  6.39771323E-02 -3.81553497E-02 -3.72879800E-01
  1.09132433E-02 -4.91645139E-02  1.24181604E-01  1.15924337E+00 -4.86712297E-01
  6.64087576E-01 -3.94069785E-01  1.97587489E-01  5.70476820E-02 -3.25540469E-01
  7.99265338E-03  2.14684302E-01 -2.42888067E-01 -6.64874595E-03 -1.14757322E-01
  1.04416658E-02 -6.83074179E-02  6.48728351E-02  3.43919033E-01  4.70091537E-02
  1.90321150E-02 -6.80684113E-02 -2.49123098E-01 -1.13078606E-01  2.52547980E-01
 -1.55805713E-01  2.74518917E-02  4.69973483E-02  1.84909508E-03 -6.09625865E-02
  4.64389105E-02  1.04261604E-01 -3.27341185E-03 -2.08798330E-01  5.03878617E-02
 -4.85923996E-02 -7.93564548E-02 -1.02651366E-01  2.50393526E-01 -1.80652355E-01
  2.76244636E-02  2.58321289E-01 -1.57541991E-01  1.50703852E-02 -4.64900895E-02
 -8.56348814E-02 -1.04713776E-01  3.36078102E-02 -4.44917647E-01  2.62706159E-02
  2.32613233E-02 -3.26679058E-01  1.38151067E-01  3.12853778E-02 -1.88572784E-01
  2.29162135E-01 -2.07238512E-01  1.13021759E-02 -1.01832358E-01 -7.08410525E-02
  1.16326547E-01  5.12196514E-02  1.50084134E-01 -1.10504297E-01  6.17301064E-01
  1.10805863E-01 -2.37096998E-01  1.19549754E-01  2.38303505E-01  5.61287637E-02
  1.64775924E-02 -2.60125665E-02  1.33247750E-02  1.57507878E-01  4.85694438E-02
  3.23022810E-02  5.12500064E-02 -7.78168992E-01  2.17330525E-01  4.59550731E-01
  1.49192025E-01 -2.38766775E-01  8.14961735E-02  1.54520864E-01  4.65752462E-01
 -2.95190064E-01 -2.14970707E-01 -2.75926910E-02 -1.39497311E-01  4.90438212E-02
  8.07956551E-02  6.71132310E-03  7.92194124E-01 -7.53373015E-02 -1.51337053E-01
  8.81704859E-01  2.49145867E-02  5.35453647E-02 -6.33491888E-02 -2.17694007E-01
 -2.94570500E-01 -3.06214455E-01  3.71075313E-02  1.77487487E-02  5.93684083E-02
  8.89826136E-02  2.71185518E-02 -5.58984504E-01  2.11186232E-01  3.95836226E-01
 -2.38533177E-01 -2.80918337E-02 -6.31155753E-02  2.56114259E-01  1.05677070E-01
 -8.73728590E-02  2.46480309E-01 -5.53315042E-03  3.71345928E-02 -7.83321627E-02
  1.36282117E-01 -5.82598597E-02  4.03767695E-01  2.64627297E-02  2.01638283E-02
 -6.60390002E-02  1.52472270E-02 -3.54381621E-02  7.44907130E-02  1.85918055E-01
  2.16128700E-02 -7.75784593E-02  6.77836540E-03  1.73793217E-01 -3.85935181E-02
 -2.57991189E-02  2.24244485E-02 -4.54713402E-01  1.85732100E-01  2.24899334E-02
 -7.95060198E-03  8.05797043E-02 -7.48862704E-02  5.57848855E-02  2.82704664E-02
  6.92304558E-02  1.54594519E-01 -1.00473716E-02 -7.55109889E-02  1.53834816E-02
 -1.61384504E-02  3.68504816E-02 -1.05927390E-02 -2.27862454E-02 -9.39788173E-02
 -4.11267293E-01 -2.05162088E-01  1.86950679E-01  1.25475308E-03 -1.68257388E-01
 -5.31698981E-01 -2.44085019E-01 -3.11932484E-01 -6.38965361E-03 -1.33720152E-01
  1.25477497E-01  4.21267048E-01  4.21053526E-02  4.72923847E-02  3.04354854E-01
  1.75989732E-01 -4.05175968E-02 -2.28551862E-02  9.20014749E-02 -2.36482693E-01
 -4.11595786E-02  8.52448558E-03 -7.94593117E-02  2.99007701E-02  1.66496549E-01
 -3.05546610E-02 -4.00872747E-01  1.14020618E-01  4.19248736E-01  5.34152945E-02
  3.78040996E-01  1.54231273E-01 -4.84037119E-01  5.05210701E-01 -1.70956880E-01
  7.84115084E-03 -5.95938603E-02 -2.55868646E-01 -1.05380833E-01 -6.38924415E-02
  1.20058732E-02  2.30851853E+00 -5.29827592E-01 -3.70375115E-01  1.60385792E-01
  5.78085417E-02 -2.79669335E-01  2.27355585E-01  8.22706351E-02 -1.81547941E-01
  1.63064742E-02 -1.09534635E-02  7.96265340E-02 -1.55540165E-02 -2.70502638E-02
  5.60927452E-03 -3.41085725E-01  2.87274439E-01 -3.26226319E-01  1.91148014E-01
 -7.13605767E-02  4.75955832E-02 -6.52414306E-02 -8.43218420E-02 -8.92714870E-03
 -1.62688137E-01  5.41621001E-03 -5.95468485E-02  7.80922534E-02 -7.54010248E-02
  6.33060030E-02 -1.90258203E-01 -1.01055904E-01 -2.94840448E-02 -2.20467511E-02
 -1.42745815E-02 -2.22873940E-02  4.14148243E-03 -8.39518336E-03  1.01703119E-01
  1.22823484E-02 -8.70357334E-03 -1.12676997E-01  2.36889850E-02 -1.60765112E-03
  8.06456173E-03  3.70255403E-01 -1.97421399E-01  1.16817087E-02 -2.65976056E-02
 -3.54285285E-02 -2.53820863E-02  5.22929970E-04  3.28876465E-03 -3.80661821E-02
 -1.00441217E-01  3.98467775E-02  6.41934593E-01  5.13289449E-02  9.70991155E-02
 -2.02525897E-02 -2.09318113E+00 -5.93358793E-01 -5.30189392E-01 -5.31775595E-02
  6.21828617E-01 -3.69972253E-01 -1.58322278E-01 -1.81764525E-01  3.77167358E-03
  1.82238077E-02 -4.88674321E-01  8.90078658E-02  3.58373102E-01 -1.03361746E-01
  1.94152763E-02 -3.52415863E-03 -3.11492947E-01 -4.69862265E-02 -8.51765560E-02
 -8.67290755E-03  3.68616687E-01  6.49839260E-02  2.93503223E-01  3.29396080E-02
  1.37225252E-02  1.22071607E-01 -6.70968059E-02  4.78747856E-02 -2.71774725E-02
 -5.71168563E-01 -4.98110489E-01  2.59111259E-01 -1.47292612E-01  7.73998253E-01
 -2.65655658E-01 -5.04928929E-01 -2.37408208E-01  3.31966999E-01 -2.44552581E-02
 -3.05133330E-02 -1.56096983E-01 -4.12120191E-02  8.97553454E-02  3.17214446E-02
  1.00774642E+00  2.71706877E-01 -4.59306113E-02  4.45463211E-01  8.06431990E-02
  7.26768435E-02 -1.43329573E-01 -1.80754738E-01 -1.30981563E-01 -1.08875672E-01
  6.36110411E-03 -1.58518668E-03  2.99870399E-02  6.25369286E-02  8.24999116E-02
 -1.36890510E-01  4.37186738E-01  1.98251815E-01  2.81669573E-01 -9.69341851E-02
  4.27257567E-02  5.37822810E-02  2.46019920E-01  1.43071628E-01  1.10805221E-01
  3.12151419E-03  1.11658341E-01 -2.29924746E-02  7.17359138E-02  7.32649723E-03
 -1.99584456E-01  1.10802529E-02 -1.55718544E-01 -1.24719531E-01 -3.63062258E-02
 -1.17456509E-01  2.18422702E-01  9.61690733E-02 -9.89188144E-02 -1.80831075E-01
  1.61430526E-02  1.31256252E-01  2.44532113E-02  1.71301524E-02  2.95894641E-02
 -5.40171643E-01  1.32140389E-01 -3.02086386E-02 -1.49365134E-01  4.95338872E-02
  8.79770882E-02 -5.99729994E-02  1.26448466E-01  1.34810886E-01  3.92427059E-01
 -2.50227034E-03 -5.10800271E-03 -7.67011614E-03 -5.51391137E-03 -7.97750037E-03
 -8.48918550E-02  1.27500549E-02 -1.03936944E-01 -2.89205489E-01 -7.36132911E-02
  1.08763449E-01 -2.80870126E-02 -8.73673158E-02 -2.68207177E-01  1.27924701E-01
  1.54100947E-01  5.37102273E-02  4.00953546E-01 -8.74595857E-03 -6.05097236E-01
  5.71311705E-02  2.07788123E-02  5.90999390E-02  2.46735627E-01 -2.44045404E-02
  1.23870112E-01  4.59388699E-02 -2.72695666E-01  1.67655003E-02  1.88201225E-02
 -5.61722407E-02 -3.59208036E-02  7.48798484E-02  1.05781119E-01 -6.81571662E-01
 -2.68960408E-01  1.72852193E-01  2.54373984E-01  2.39229855E-02 -6.51210643E-01
  7.02498486E-01 -1.89870740E-01 -6.83067449E-03 -3.32754157E-01 -4.95089407E-02
 -4.63767920E-02 -1.06382703E-01 -9.83262353E-02  4.24974650E-02  1.49056268E+00
 -6.61751604E-01 -3.03563112E-01  8.30212494E-01  1.01207733E-01 -1.63522960E-01
  3.98021179E-02  7.05375925E-02 -2.33005246E-01  1.23297596E-01 -6.89262231E-03
  3.90432168E-04 -9.83984297E-03 -4.07707838E-02  8.49149002E-02 -4.00392067E-01
  2.92462627E-01  6.04380190E-01 -3.30294766E-01 -1.92544499E-01  9.22233555E-02
  9.93999064E-02 -7.84477099E-02  2.48737621E-01 -9.24245161E-02 -4.05561312E-03
 -3.27518757E-01  8.47020245E-02 -9.48980486E-02  7.76519170E-02  8.36656622E-01
 -2.47324709E-01  1.22819817E-01 -1.72886556E-01  7.94984641E-02 -2.58779019E-01
  6.50760208E-02 -8.11748065E-02  7.27246425E-02 -4.28602178E-02 -6.73333440E-03
  6.09267742E-02 -1.35282479E-02 -2.96209072E-02 -1.33325276E-03 -2.51925300E-01
  6.48013455E-03  6.81023742E-02 -4.21617668E-02 -1.37698794E-01  2.53354185E-01
 -1.15526977E-01 -5.41488005E-02  1.03151061E-01 -1.25630905E-01  3.20428152E-02
  2.28855652E-01 -1.38405522E-02  9.40153838E-03 -2.93791836E-03 -1.20291031E+00
 -2.27417598E-01 -6.24133276E-01 -3.32095321E-01  3.74336825E-01 -2.48171102E-01
 -3.13883972E-03 -3.11289866E-01 -2.09672979E-01  1.00121643E-01  4.22830511E-01
 -7.43864885E-02 -4.69803230E-01  1.57217871E-01 -7.16765716E-02 -3.31723866E-02
  7.18613954E-02  1.94965095E-01 -2.28182334E-01  1.15199728E-01  2.69013148E-01
 -6.15060948E-02 -1.51478974E-01  1.56599105E-03  2.44145180E-02 -2.67016884E-02
 -5.66334770E-02  1.03174055E-01  8.73498109E-02 -6.95985409E-01  7.07180582E-02
  3.21160150E-01  1.33503101E-01 -6.63716830E-02  1.37147087E-01  9.94196709E-03
  2.48315652E-01  2.35810046E-02 -2.27266449E-01 -8.38076561E-02 -4.66954704E-01
  2.27272996E-02 -4.16752624E-02  1.08605711E-01  3.05638100E+00  5.13656356E-01
 -5.17433446E-01  5.53415478E-01  4.75640356E-01  2.61483845E-02 -5.31608446E-01
 -1.95203334E-01  3.57542969E-01  3.53490386E-01  5.51938884E-02  1.82631807E-01
  3.20912142E-01 -7.19543305E-03  9.93085166E-02 -1.43453180E+00  1.48857080E+00
  5.53023583E-01  2.54597144E-02 -2.86453338E-01  2.02973431E-01  2.04844435E-01
  6.99466091E-02  1.57001302E-01  2.34187102E-01  9.35588981E-04 -1.36140848E-01
  7.32025078E-02  2.61207119E-03  3.13341789E-02  4.76219761E-01 -4.46674908E-01
 -3.75145994E-02 -9.72869612E-02  2.46470839E-01 -2.32309509E-01 -2.86582858E-02
 -1.90705670E-01  5.58410091E-02  5.35838716E-02  1.20926851E-02  4.32382133E-01
 -6.28379720E-02 -4.64883313E-02  3.91108279E-02 -1.21180964E+00  3.13343843E-01
  1.24130298E-01 -1.40586590E-01  2.81676365E-02  3.00754352E-02  3.20550491E-02
  1.29699903E-01  1.05593683E-01  3.99123634E-01  1.24556491E-02  1.17622623E-01
 -1.23126489E-02 -1.93565846E-02 -6.16540132E-04 -8.39224077E-01 -3.34285769E-01
 -2.27267063E-01  3.44764758E-01  8.81431266E-02 -2.58499174E-01  1.94869753E-01
 -2.04692295E-02  3.40303467E-01 -1.29678032E-01 -1.71697065E-01  2.55130942E-02
 -4.38101907E-02  6.06111553E-02  1.43273897E-01  1.14507199E-01  2.39718741E-01
 -1.49726840E-01  3.55786853E-01 -5.74141958E-02 -2.19643866E-01 -6.11822618E-02
  2.84303174E-01  9.30598556E-02  2.66879802E-03 -3.66752968E-04  2.08985966E-02
 -3.18220376E-02 -3.05416257E-02  2.93312262E-01  9.60925571E-03  3.09517167E-02
 -6.86834185E-02  2.70038337E-02 -9.53762995E-03  1.29877538E-02  1.37226668E-01
  2.16203270E-02  9.26957042E-02  2.00913847E-02  1.99641915E-01 -1.42216738E-02
  7.75239009E-02  3.31187537E-02 -8.60241683E-01 -1.05123822E-01  5.70030150E-02
 -4.37913629E-01 -3.45589027E-01 -2.11323873E-02  3.55695008E-01  1.40433696E-01
 -4.19679285E-02 -5.58357635E-02 -1.40894950E-02 -9.81267817E-02 -2.02261635E-01
  8.68791136E-02  4.61973400E-02  2.80327165E-01 -6.29306376E-01 -3.36188233E-01
  4.29338284E-01 -1.01454896E-01  2.21531523E-03  9.15729637E-02  1.43357820E-01
  4.52754020E-01  8.80465765E-02 -6.44743090E-03  1.19938817E-01 -4.55359449E-02
  3.56682953E-02  2.08099522E-02 -3.18738370E-01  2.40502879E-01 -8.80058236E-02
 -1.54588013E-01 -7.76880736E-02 -1.34970804E-01  1.82198741E-01  3.72226574E-02
 -1.39775964E-01 -2.81922348E-01 -1.99041016E-02 -3.17304393E-01  1.59623497E-02
  1.18131272E-02  4.04759633E-02  1.03050824E+00 -2.93718444E-01 -1.00786415E-01
 -2.64726918E-01 -1.54324398E-01  4.05412139E-01 -3.47918019E-01 -6.90197076E-02
  3.42138019E-01 -6.00425425E-02 -4.04723595E-03  3.26747383E-02  1.95065308E-02
  8.85398681E-03  1.02080572E-02  9.90068860E-02 -8.30674661E-02  2.48207623E-01
  5.25017960E-01 -1.55646352E-01 -9.51918276E-02  2.24201210E-01  1.67730547E-01
  2.39996562E-01 -6.26216737E-01 -7.87524609E-02 -1.95077883E-02  8.34070764E-02
 -8.03688358E-02  1.46483784E-03 -8.14831329E-02 -1.80806120E-01  4.01841601E-02
 -4.41205895E-01  2.14695758E-02 -4.98749966E-01  3.97570144E-02  5.40771866E-01
  1.74550102E-02  4.82686951E-03  3.82146468E-02 -4.60399739E-02  6.72338067E-02
  3.92561347E-02 -3.18239696E-01 -5.49927367E-02  1.26823111E-01  1.86492720E-01
 -1.52836832E-02  1.17798115E-01 -1.44295112E-01  3.05697387E-01  1.94407418E-01
 -1.64119251E-01 -4.07113538E-02  5.85856447E-02  2.79221102E-02  4.33967859E-02
  6.53474179E-02  1.18178705E+00  5.42826596E-01  2.41606073E-01  1.05232287E-01
 -2.14262239E-01  1.77473419E-01 -6.96139202E-02 -7.90092902E-02  1.99375030E-01
  2.72154498E-01  4.56148060E-02  9.30736587E-02 -4.41407892E-02  5.97625638E-02
 -9.07029292E-02 -1.12928562E+00  4.28241152E-01 -9.67156596E-01  5.48856665E-01
 -6.07815050E-02  7.83416227E-02  1.40104798E-01 -3.69691068E-02  5.99432879E-02
  4.22896582E-01 -1.09483751E-02  3.01697152E-01 -1.71514616E-02  1.25272146E-01
 -6.71804365E-02 -6.51148281E-01 -3.24555852E-02 -1.06374760E-01  1.38710483E-01
  9.10924391E-02  1.03251927E-01 -2.10187787E-01 -1.32341844E-01 -2.01756549E-02
  1.03859085E-02 -3.03174782E-02 -4.40269610E-01  4.25398202E-02 -4.67087269E-02
  4.41273304E-02  1.47498660E+00 -6.58811317E-01  2.58571032E-01 -3.39956358E-01
 -3.96540538E-02  2.12686870E-01 -2.92911669E-01 -2.61917624E-01  3.90560252E-01
 -3.60320959E-01 -3.83271538E-03  4.50347003E-02  2.84594197E-02  6.69345976E-03
 -1.99926570E-02  3.53274748E-02 -9.10909085E-02  9.12934068E-03 -2.31148432E-01
 -1.38092543E-01  3.10798349E-01 -1.98267680E-01 -1.81476289E-01 -6.02283243E-02
  5.44995185E-01 -1.68702665E-01  6.20615672E-02  5.62335521E-03 -1.88001985E-02
  2.43851709E-02  5.04117451E-02 -1.64671716E-02 -6.86803447E-02 -8.33354015E-01
 -9.04417277E-03  3.59310980E-01 -7.55624069E-02 -3.81136972E-01  8.64480553E-02
 -1.52812741E-02 -1.43699982E-01 -1.43508249E-02 -9.62663582E-03 -1.48947105E-02
  4.68379403E-01  1.55322544E-01 -8.30757370E-02 -2.28243210E-01  2.48369343E-01
 -7.44477598E-03 -2.30573441E-01 -2.77805933E-01 -3.43527565E-02  9.06859027E-02
 -3.42402946E-02 -1.94581407E-01  8.05852304E-02 -1.17466359E-01  1.65357578E-02
  1.78851709E+00  5.56254595E-01 -9.18140479E-01  1.25832878E-01  2.33909217E-01
  1.19573383E-01 -3.53007667E-01 -1.93994557E-01 -3.48828745E-02 -3.04778876E-01
  3.57400233E-02  4.52643104E-01  2.45321255E-01  2.44146986E-01 -3.51555767E-02
 -1.37076037E+00  1.44162220E+00 -3.41130953E-02  2.46239731E-01 -1.28412740E-01
 -1.53105975E-01  3.48723092E-01 -2.83671017E-01 -2.93157968E-01 -8.40480601E-02
 -8.06762121E-03 -5.32150844E-02  6.61010251E-02 -1.89867639E-02  1.38784063E-02
  1.35593498E-01 -4.12840332E-01 -4.88614414E-02 -1.01762504E-01  1.46626438E-01
 -2.47125568E-01  9.59617683E-03 -1.43737826E-01  3.19018688E-01 -5.72839134E-02
 -1.58216131E-02  1.27278178E-01 -1.57849884E-02 -1.40035872E-01  5.23085262E-02
 -1.68052500E-01 -1.77361994E-01  7.48788443E-01 -2.81479711E-01 -2.04955437E-02
 -1.10237987E-01  9.05350186E-02 -5.65551761E-01  9.98374311E-02 -3.91242718E-01
  1.67353361E-02  9.06523614E-02 -2.34901323E-02 -9.15195130E-03  7.88619761E-03
 -7.37095183E-01 -3.34186017E-01 -2.48689756E-01  1.50408314E-01 -9.95781423E-02
 -7.24082301E-02  2.34573600E-01 -1.02382681E-01  4.83981498E-02 -3.43069606E-01
  5.56598910E-02 -1.05695767E-01  1.15813096E-01 -1.54861144E-02 -1.74637890E-01
  1.07489025E-01  2.16385140E-02 -2.11919898E-02 -6.26104850E-01 -1.71348781E-02
 -2.27396723E-01  6.49349676E-03  2.01189423E-01 -6.13474531E-02 -3.92209379E-03
 -1.20365424E-02 -2.59329285E-02 -1.58667251E-02 -1.72819306E-02  4.13139452E-02
  3.66697260E-02 -1.02223800E-01  6.77577543E-02 -4.27392878E-02 -6.80528375E-02
  1.01741627E-01 -5.70232790E-02 -4.48643426E-02  3.77957728E-02  2.00556252E-02
 -2.71602170E-01  2.79279404E-01  2.70238642E-01 -1.36959186E-02  2.87061794E-02
  1.04798574E+00  6.04917671E-01 -4.67469035E-02  2.97087612E-01 -5.37822039E-01
  2.44211639E-01 -2.93877720E-01  1.66099855E-01  7.83251176E-02  6.57549462E-02
  1.05487264E-01 -2.13786136E-02 -1.07733011E-01  1.56222303E-01 -9.70653135E-01
  6.67888822E-01 -7.88070046E-01  5.89819476E-01  7.30431270E-02 -5.38481962E-01
  5.81291798E-01  1.77087350E-01 -3.01659053E-02  8.50882001E-02 -5.88263350E-03
  4.36830084E-01 -3.42556817E-02  1.66450967E-01 -1.11735743E-01 -8.91458123E-01
 -2.59507500E-02 -3.96366052E-01 -1.86665678E-02  8.55574852E-02 -4.00009154E-01
  3.47348697E-01  6.25230962E-02  1.24191561E-01 -1.79183954E-01 -1.00397393E-02
 -2.84079363E-01  3.72608203E-02 -4.65382180E-03  1.42115510E-02  8.45708358E-01
 -4.85273081E-01  4.64239050E-02 -8.36778410E-02  2.93989207E-01 -1.39353378E-01
 -1.82096011E-01  6.16295934E-02 -7.67643848E-02 -1.12549099E-01 -3.70372099E-02
 -2.20321269E-01  7.30767948E-02  6.01868285E-02 -3.07276866E-03  1.20444295E+00
  4.39759737E-01  7.72553278E-01 -1.07666969E-01  2.87462664E-01  1.61418576E-01
 -5.13641424E-01  6.36919073E-01 -7.33079495E-03  6.85261127E-02  5.51638323E-02
 -4.22315736E-02 -4.99797709E-02 -2.26822172E-02  3.80966529E-02  7.22499588E-02
 -8.71302122E-02 -1.82025467E-02 -1.69305695E-01 -1.10286587E-01  2.40012629E-01
 -6.04827201E-03  1.01239471E-01  3.60693694E-02  4.82555890E-02 -4.38563860E-02
 -7.73302016E-02  1.46333633E-01  1.41065591E-01 -7.54988035E-01 -1.17617024E-01
  4.82738835E-01  3.78085767E-01  3.03185303E-01 -1.92817982E-01  2.22543097E-02
  2.01193773E-01  2.20696197E-01 -5.29830259E-01 -3.68509597E-02  2.86413832E-01
 -8.19323752E-02  1.73828709E-01  1.41043258E-01  6.43607324E-02 -7.15626886E-01
  5.43804990E-01  7.63039575E-02 -1.26314572E-01  2.29024720E-01 -2.96515250E-01
 -1.19791326E-01 -4.22267847E-01  6.18904565E-01 -8.18256015E-04 -3.53282644E-01
 -2.95501005E-01 -1.38401096E-01  3.71676096E-02  3.56062457E-01 -9.71730498E-01
 -5.46992944E-01  1.24584650E-02  1.72340864E-01 -2.19966226E-01  9.38971292E-02
 -2.35252707E-03 -3.61295732E-01 -5.74901798E-02 -5.06357298E-03  2.15351886E-01
 -6.84692919E-02  8.29028596E-02 -6.14083778E-02 -3.81677919E-01  3.78467086E-01
 -1.47321821E-02  5.63492183E-02 -2.22068048E-01  1.49590696E-01  9.43597348E-02
  2.51595535E-01 -2.20146506E-03 -6.50798778E-02 -4.37516591E-03 -4.47427245E-01
  7.26504805E-02  7.74159075E-02 -4.39142463E-02  1.15252863E+00 -4.29427918E-01
 -3.97657493E-01  2.68929017E-01  1.43329796E-01 -8.32392642E-02 -5.81304003E-02
  1.80731787E-01 -2.07820718E-01 -2.67821851E-01  7.74060837E-03  3.85268739E-03
  4.69842724E-03 -2.20020303E-02  1.40035467E-03 -1.23930672E-01 -4.27814901E-02
  7.27635711E-03  2.87813795E-01 -1.05289140E-01 -8.44798558E-02  2.44987324E-01
  4.90856608E-02  1.88727930E-01 -2.08014027E-01 -2.26952750E-02 -8.49943284E-02
 -7.65244116E-02 -1.60014512E-02 -1.09064967E-01  2.01597495E-02  2.56006213E-01
 -1.18227817E-01 -9.05437084E-02  1.47220801E-01 -3.01211651E-01  2.63713787E-02
  2.19705095E-01  5.38768413E-02  3.47301335E-03  1.45140864E-02  1.03041797E-02
 -1.12472414E-02  1.03463458E-02  1.04795052E-03 -1.09412210E-01  5.28017409E-02
 -1.08441026E-01 -1.48611084E-01  1.94826708E-01 -3.01215713E-02  2.01266312E-01
  7.89019033E-02  5.30715279E-02 -5.79225804E-03  1.27647641E-01 -1.47159089E-01
 -1.21185345E-01  9.53506087E-03 -2.20576869E-01 -2.72048915E-01 -2.65103180E-01
  9.18838333E-02 -2.55973086E-01  3.55154300E-01 -1.01813684E-01  2.26232627E-01
  2.80745547E-01  9.69126066E-02 -3.16050294E-02 -1.67164664E-01 -8.39698134E-04
  1.27036630E-01  8.46578678E-02  3.92714373E-01 -3.87567648E-01  6.49968048E-01
 -1.66543659E-01 -1.28169037E-01 -3.99820067E-01  5.10042437E-01  1.37103462E-01
  1.66486103E-01 -6.40151354E-01  3.08340106E-03 -2.95760078E-01  2.83371872E-02
 -1.15264123E-01  4.20232675E-02  6.51560031E-01  5.53218651E-02  5.46742726E-02
 -4.21891972E-01 -1.15811461E-01 -4.33592024E-01  5.34690649E-01  2.01283724E-01
  1.11462150E-01 -4.35914771E-01  1.53176403E-03  2.08324238E-01 -4.27260834E-02
  7.30737862E-03  5.12927824E-04 -5.43756704E-01  3.32934536E-01 -6.48159088E-02
  1.19086153E-01 -1.16137450E-01 -9.78703912E-04  9.46163988E-02 -8.16689696E-02
 -2.57269186E-01 -1.53064614E-02  1.48096900E-02  5.62617513E-02 -4.47747693E-02
 -4.43909989E-02  9.80575300E-03 -3.77919947E-01 -1.59274339E-01 -2.70909467E-01
 -8.92507712E-02 -1.63341428E-01  7.03344378E-02  1.07119818E-01 -3.50281887E-01
  1.60416772E-03  2.80305800E-01 -1.04683373E-01  4.54707483E-02  3.76176303E-02
  3.90494763E-02  5.90131275E-02 -1.06155774E-01  9.97472814E-02  3.57698885E-02
  1.76387531E-01  3.84963266E-02  7.42172835E-02 -4.50831658E-03 -2.36578595E-01
  2.12686658E-02 -5.51612590E-02 -1.53712222E-01  4.99246309E-02 -1.08090001E-01
 -1.08936983E-01  1.21699457E+00  3.45524553E-01 -4.22049454E-01 -2.40536672E-01
 -1.01556389E-01  9.05411905E-02 -8.59388524E-02 -2.03784195E-01 -1.67826512E-01
  2.72262503E-01 -3.54784026E-02  2.79728362E-01  6.28991917E-02 -2.52543799E-01
 -1.22435840E-02  4.64895380E-01  1.98231918E-01 -9.05702478E-01 -4.00152173E-01
  3.96215737E-01 -1.62849415E-01 -4.24703667E-01  3.71549685E-01  1.86747281E-01
 -3.18725890E-01  8.99787428E-02 -4.21394436E-01 -4.22259325E-01 -4.81353380E-01
  1.98796747E-01 -2.35061839E+00 -7.51479930E-01 -1.18041784E+00  4.77059128E-01
 -4.65349798E-01  1.83626204E-01  5.44630285E-01 -2.50150395E-01 -8.86763048E-02
  2.27639939E-01 -2.17362161E-02  8.80115696E-02 -2.76033904E-03 -5.77580476E-03
 -6.57263419E-03 -4.02616539E-02  3.12059316E-01  9.05591964E-02  2.75192750E-02
 -1.35365495E-01  2.18693573E-02 -9.07677753E-02  2.05192180E-01 -1.37389852E-01
 -2.50428241E-02 -3.40640328E-02 -9.17752260E-01  3.63949360E-02  5.99374246E-02
 -1.95998023E-02  2.86034645E+00 -1.09978732E+00 -1.13142330E+00  3.68916563E-01
  1.26607213E-01  2.57223425E-01 -3.82097410E-01  6.55424734E-01 -2.06999666E-01
 -3.11942631E-01  3.86594229E-02  2.36339912E-01 -3.10483949E-02 -3.40531791E-02
  6.22332908E-03 -1.06930135E+00 -5.02094863E-01 -5.51050195E-01  2.94254439E-02
 -1.27460686E-02 -1.81907456E-01  2.74195799E-01 -3.43099735E-01 -1.78955977E-02
  4.07351789E-02 -1.12607704E-02 -6.19439823E-02 -2.05962474E-02 -1.04594793E-01
 -8.28826409E-03  4.86682645E-02  5.30802795E-02 -8.79874362E-02 -9.60911721E-02
  2.41446324E-01 -4.46108080E-03 -5.86458361E-02 -3.05963695E-02 -1.04672545E-01
  1.07609088E-02  3.29714472E-02 -2.28860786E-02  1.02723998E-02  2.19569506E-02
 -2.31592100E-02  2.56870135E-02  5.51229561E-02  3.10196613E-02  5.80688482E-02
 -6.98512550E-03 -4.69728119E-02  4.21517020E-02  1.71285990E-02 -1.29874028E-01
  1.71210769E-02  2.38094505E-01  1.69835143E-01  1.76409517E-01  5.16977736E-02
 -1.55860599E+00  1.80721444E-01  4.52390001E-01 -1.64326610E-02 -1.69523280E-01
 -1.20194269E-01  1.59882507E-01 -7.09908116E-01  1.01255759E-01 -9.46708160E-03
 -2.96710928E-02 -8.90396744E-01 -2.82896512E-01  2.17187130E-01 -1.72805513E-01
 -1.01366161E+00 -9.49433967E-01  5.76916427E-01 -5.05419091E-01 -4.81495464E-01
  2.44420583E-01  1.83941995E-01 -4.19584026E-01  9.95066408E-03 -4.48885995E-02
 -1.22479280E-02 -8.38424768E-01  4.08105722E-02 -1.63177685E-01  9.06626336E-02
  2.18635161E+00 -1.70575708E-01  9.76286304E-01 -4.84343578E-01 -1.91161236E-01
  3.63610659E-01 -1.81125649E-01 -2.08609625E-01  1.27098274E-01 -3.91470146E-01
 -3.02916740E-02 -7.08356282E-02 -1.00959484E-01 -3.56009616E-02 -2.14687082E-03
  6.36428115E-01  4.21208415E-02 -6.29570482E-01  3.39293511E-01 -3.06909287E-01
  2.75833528E-01 -7.19900153E-02  3.91339036E-01 -2.30471826E-01 -1.62020497E-01
 -5.69343831E-02 -5.11778143E-02  1.06948409E-01  1.09595992E-01 -5.31316397E-03
  1.07731613E+00  3.37687766E-01  6.58137695E-01 -6.73194305E-02 -1.44461489E-01
  2.67875301E-01 -3.27430290E-01  4.13365819E-01 -5.08968416E-02 -3.25394362E-02
 -4.58575937E-02 -4.61678261E-02 -6.84749323E-03  3.18965509E-02  3.97038154E-03
  1.79906916E-02  1.48938593E-02  8.34516608E-02  1.83264849E-01  2.67412917E-02
  6.76355879E-02  4.15533620E-02  3.52948842E-02  7.18687211E-02 -7.70295018E-03
 -5.64168249E-02  1.01578776E-02 -1.33219508E-02 -1.87360561E-02  1.12355566E-01
  6.04108208E-02 -7.68497300E-02 -5.80846642E-02 -6.33129710E-02  1.30420358E-02
  7.64752681E-02 -7.64291183E-02 -4.08359670E-02  6.25375727E-02 -2.68339770E-02
  4.26790681E-02  1.42484083E-02 -9.83345473E-02 -7.93194115E-03  5.77297073E-01
 -1.38781772E-01 -3.74559631E-01  4.48651470E-02  2.00892065E-01 -1.47492576E-01
 -1.73186042E-01  2.82285399E-01  9.32010047E-03 -5.91063115E-03 -4.02145700E-02
 -1.04883243E+00 -2.30265872E-01  1.11152181E+00 -6.01574320E-01 -1.24897713E+00
  1.97018019E-01  8.73194214E-01 -4.23773071E-01  3.57774154E-01 -4.63380458E-01
  3.78465349E-02  6.08179177E-01 -2.72921224E-01  5.56414126E-01 -1.31508547E-02
 -5.50068383E-01 -9.54548946E-02  3.39981334E-01 -1.93906609E-01  2.46480655E+00
 -4.55914180E-01  1.30340452E+00 -7.44673959E-01 -4.06605143E-01  9.11699690E-01
 -2.98781351E-02 -4.48282881E-01  2.39177025E-01 -9.05871926E-01 -5.75126615E-03
  8.60210281E-02  5.40253275E-02  6.95548400E-03  6.03950790E-03 -2.83032262E-01
  9.96561942E-02  3.21869030E-01 -1.44695410E-01  7.96195964E-02 -2.19034233E-01
 -2.10200944E-02 -1.79411729E-01  1.04542881E-01  1.01445435E-01  2.46713069E-03
  1.25729359E-01 -3.23074626E-02 -3.95384845E-02  1.15026000E-02 -4.94404916E-01
 -9.71166339E-02 -2.81639821E-01 -1.11061909E-02  9.85786551E-02 -2.30034253E-01
  2.62442627E-02 -1.15801033E-01  2.14572119E-02  3.52586040E-02  3.55266697E-02
 -1.29162334E-02 -4.85542865E-02  4.59423830E-02  1.37208714E-02  9.11806049E-03
  2.43898007E-02 -4.46082109E-02 -6.39355406E-02 -1.31786864E-01  1.90531944E-02
  2.91184798E-02 -7.08345554E-04 -1.37286087E-02  1.75876120E-03 -1.02689144E-01
 -1.81840004E-02  3.88676068E-02  2.07203638E-02  8.54661607E-02  6.31688500E-02
  3.64019763E-02 -1.49748628E-02  7.83216153E-02 -1.36046780E-02 -2.31503503E-02
  1.74815947E-02  4.33463449E-02 -1.53855906E-02  9.03706633E-03 -3.29749070E-01
 -2.11190143E-01 -1.62912068E-02 -3.03239812E-02  1.21938362E+00 -6.28961540E-02
 -5.09775442E-01  5.13836578E-02 -3.27627227E-01  3.80426987E-01  1.22865182E-01
  1.73147775E-01 -1.55579749E-01 -4.40744146E-02  7.22344324E-06 -3.13492628E-01
 -3.23405986E-01 -3.59485747E-02 -2.83645259E-02 -9.43006283E-01  4.95377909E-01
 -2.20596997E-01  2.03730827E-01  5.71020520E-01 -7.06109180E-01  5.05138507E-02
 -8.17177270E-01  4.80137172E-01  3.59286181E-01 -3.85951021E-03  2.99446481E-02
 -6.70479519E-02  7.96110279E-02 -4.88330707E-02  1.08845550E-01 -4.83652404E-01
  1.04323867E-02 -9.38901407E-02  2.62146478E-01 -1.94277962E-01  3.13387494E-03
 -6.37670021E-01  4.00693383E-01 -3.45751209E-02 -3.56421619E-02 -1.23665284E-01
 -1.03685727E-01 -9.41199459E-02  2.64291943E-02  7.05790094E-01 -5.57394768E-01
 -3.78524529E-01  1.02087152E-01  4.58716237E-01 -1.95731018E-01 -3.01684941E-01
  6.09522255E-01 -1.71361811E-01  8.62047159E-02  1.37513925E-02  1.81258950E-01
 -2.75846155E-02 -3.43251396E-02 -5.17531499E-03 -7.93562289E-01 -3.54619567E-01
 -2.84263338E-01  3.53774525E-02 -9.63082610E-02  2.64824837E-03  2.79300137E-02
 -1.85524982E-01  6.50196127E-03 -4.02760757E-02 -8.93339301E-03 -2.90263073E-02
  2.64079277E-03 -3.01551915E-03 -3.90574978E-02  1.79718707E-02 -9.55025045E-02
 -1.03730198E-02  2.12342065E-01  1.65734224E-02  5.66424054E-02 -8.01846931E-02
  6.43260380E-02 -1.79063809E-02 -1.68566636E-02  1.38882433E-01  5.58432135E-03
 -4.89613637E-02 -2.29390210E-02  7.30005550E-02  6.49019972E-02  1.67033488E-02
 -2.81376323E-02 -7.79603830E-02 -6.56265742E-02 -2.70420815E-02 -5.67771546E-02
 -1.86352600E-02  1.96444588E-02 -8.24830858E-02  7.13421973E-01 -3.61226618E-02
 -6.12397964E-02  4.76311384E-03 -8.96967172E-01  8.06316074E-02  3.04891941E-01
 -5.62735643E-02 -2.65456310E-01 -2.76180429E-01 -3.71404462E-01  1.28531665E-01
 -1.54855295E-02  8.69400133E-03 -3.11184843E-02  2.20660217E-01 -2.52270816E-03
 -4.19590559E-02  2.85944471E-02 -9.94360943E-01 -7.27390528E-01  2.90525845E-02
 -1.96866623E-01 -5.88983943E-02 -5.50211355E-02 -4.69677849E-02  2.94022823E-02
 -3.24249260E-02 -4.40415667E-03 -1.59370966E-01  2.28642030E-02 -1.58485463E-02
 -4.58398747E-02  6.40536212E-03  1.67569939E+00  9.10368033E-02  2.98875923E-01
 -9.86692297E-02 -5.81800127E-01 -4.93266947E-01 -4.89453983E-01  2.42640654E-02
 -4.64076763E-02  2.09787819E-02 -2.49691870E-01 -3.96323665E-02  5.54956638E-02
  2.63429789E-02 -1.19256353E-03  2.56321062E+00 -2.45664074E-01 -2.42041484E-01
  8.64962193E-02 -8.47519499E-01 -7.99013445E-01 -8.22820463E-01  4.63139280E-02
 -3.26188183E-02 -2.12955115E-02 -3.81891181E-01  8.34729019E-01 -7.58096697E-02
 -3.08040121E-03 -1.73850984E-02  2.91037323E+00  3.41952313E-01  6.11225541E-02
  7.11500076E-02 -1.24282828E+00 -1.20766543E+00 -1.21501095E+00  3.64443525E-02
 -1.55347522E-02  3.65247252E-03  2.21909937E-02 -5.27921376E-02 -1.75882490E-02
  6.79331487E-02  3.79183688E-02 -3.55670679E-02  9.20085068E-02  7.69921415E-03
  7.61825601E-02 -3.22138396E-01  9.40944230E-02 -5.10233098E-01  9.11618991E-02
 -4.51990385E-01  1.68639938E-03 -2.93111756E-01  3.32942316E-03  2.43027925E-02
 -1.06864708E-02  4.80465083E-01  1.40189219E-01 -2.71692592E-01 -2.29832022E-03
  8.33555755E-02  9.65936215E-02  4.93044130E-02 -9.29803883E-03 -2.92484769E-02
  7.64517227E-03  1.03685923E-02  2.10170488E-01  7.32605896E-02  1.87686328E-02
  1.93977610E-02 -9.40152781E-02 -2.83548322E-01 -2.97252375E-01 -3.80788096E-01
 -5.83853298E-02 -1.17498085E-01  1.42322922E-02 -5.69170310E-02 -3.32475650E-03
 -1.53950393E-05  2.34569671E-03 -2.57031855E-01 -7.86188067E-03  1.68779197E-02
  1.11786750E-02 -2.19151950E+00 -1.51916443E+00 -4.60242871E-01 -2.45425006E-02
  7.11212355E-02  1.62221342E-01  1.24608395E-01  3.46436794E-02 -4.65216603E-02
  2.02797375E-02 -1.97657576E-01 -1.11950896E-01  1.08282936E-02 -7.72548745E-02
  4.55593725E-02  2.32646060E+00  1.75136296E-01  5.88661842E-01 -2.67430818E-01
 -7.50355762E-01 -5.41541209E-01 -6.39359605E-01  3.36608174E-03 -2.09634177E-02
 -5.57878868E-02 -4.14045185E-01 -3.48080424E-01  1.37901409E-01  8.49939224E-02
 -1.50735735E-02  5.05368841E+00 -7.31590644E-01 -6.62791144E-01  1.94311621E-01
 -1.35567822E+00 -1.29051661E+00 -1.40133108E+00  1.17061404E-01 -4.46827120E-02
 -5.20420034E-02  3.04772990E-01 -4.58174607E-01  1.26901257E-01  4.53315917E-02
  1.39964904E-02 -2.59474089E+00 -4.78212934E-01 -9.76512828E-02 -9.14823757E-03
  9.55369733E-01  9.63517907E-01  9.56669703E-01 -1.58193316E-02  1.13698747E-02
  1.32829092E-02 -4.20104619E-02  9.08674476E-02 -6.03292585E-02 -8.78123788E-02
 -3.17569769E-02  3.25617179E-02 -6.05379507E-02 -3.25333411E-02  4.93454988E-02
 -3.89247186E-01  1.58253638E-02  3.08633843E-01  6.04772713E-04  3.48778270E-01
  1.92996025E-01 -1.17587729E+00 -1.94617961E-02  1.14006013E-02  2.12549885E-02
 -5.72034671E-01  1.73424371E-01 -3.98143771E-02 -2.19442593E-01  7.28518192E-01
  7.02788499E-01  7.52718026E-01  8.45727137E-04  8.78086197E-03 -5.50808474E-02
  2.13352911E-01 -1.00096036E+00 -4.13060062E-02 -2.63368122E-02 -2.05999684E-02
 -1.44925077E+00 -4.10022412E-01 -4.37029348E-01  1.59550786E-01  6.04239613E-01
  8.02081945E-01  7.65317745E-01  3.63906439E-02  1.37289867E-03 -6.84845391E-02
  2.33812740E-01 -1.79235148E+00  1.27665559E-01  2.44357285E-02  1.43562107E-02
 -6.72365662E-01  1.14758765E-01  2.06156746E+00 -1.02706490E+00  1.01764632E+00
  1.23570423E+00  9.92127043E-01  5.42944638E-02 -1.93022004E-02 -1.66311992E-01
 -3.28199563E-01 -4.99630239E-01  1.12745162E-01 -2.70044440E-01  1.54529333E-01
  4.54385910E+00 -4.10469076E-01  7.05917967E-01 -4.22929678E-01 -1.08968188E+00
 -1.08271702E+00 -1.11939805E+00 -1.93504988E-02  1.18461345E-02 -2.76333249E-02
  1.72026968E-01  3.59094451E-01 -2.77279157E-02  8.14461885E-03 -1.19810805E-02
 -2.68890260E+00  8.00853728E-01  3.71314252E-01 -3.43997862E-02  3.66651089E-01
  4.31211151E-01  6.43856519E-01 -2.13996026E-01  3.47761761E-02  1.14430551E-01
 -5.89869644E-02  2.40099476E-02 -6.54208624E-02 -5.07300913E-02 -1.22806939E-02
  5.61569306E-01  1.95280223E-01 -2.33282380E-02  7.83556137E-02 -1.64981840E-01
 -2.50219912E-01 -1.78466861E-01 -7.18863729E-02  1.40816010E-02  1.50218757E-02
 -7.58341175E-02  9.48184673E-02 -9.96725138E-02  3.54079517E-01 -6.04398643E-02
  2.05122136E-01 -1.62291460E-02  3.32140500E-01  1.02109481E-01  8.17278208E-02
 -8.25697147E-03 -1.06896711E-01 -2.96452865E-02 -1.65592922E-02 -3.81065278E-01
  2.20560902E+00 -2.15026862E-02  5.94438787E-02  3.83373432E-02  1.75883857E+00
  2.40433049E-02  2.01232841E-01 -1.28703531E-01 -1.47837896E+00 -1.50082861E+00
 -1.42721858E+00  5.80064603E-04 -2.03620739E-02 -2.96065652E-03 -1.26546769E-01
  4.43936424E-01 -1.24479721E-02  5.78135191E-02  6.13212577E-03  9.76521628E-01
 -4.83135221E-01 -9.53461162E-01  4.83550276E-01 -5.07655889E-01 -2.85764181E-01
 -3.83695244E-01 -1.34717089E-01 -4.22621962E-02  8.71486327E-02  1.80459946E-02
 -3.58717321E-01  6.40353251E-03  1.04062716E-01 -4.60921321E-02 -1.21062977E+00
  5.11661456E-01  2.27035813E+00 -1.17526070E+00  2.23552221E-01  1.71355198E-01
  1.52938104E-01 -1.35936450E-02  5.65031149E-02 -5.39141077E-02 -3.19065871E-01
 -5.39296537E-01  7.77729668E-02 -1.54259313E-01  8.58775154E-02  4.90451202E+00
 -5.89447409E-01  9.16067567E-01 -5.43667463E-01 -1.04856972E+00 -9.64289073E-01
 -1.04409102E+00 -1.19998739E-01  7.68198089E-02 -9.95730273E-02  1.95849442E-01
  3.91597464E-01 -9.79907046E-02 -4.32824476E-02 -2.58078569E-03 -3.03628685E+00
  7.35567604E-01  2.85520462E-01  2.69801622E-02  5.44347352E-01  5.68371069E-01
  7.15278958E-01 -6.83153221E-02 -1.50226717E-02  9.37199832E-02  6.35757407E-02
 -7.67994602E-03  1.83209036E-02  3.90629947E-02  9.56643225E-03 -1.27512667E+00
 -1.75930841E-01 -3.60940883E-01 -1.07138572E-01  2.75603496E-01  1.74787940E-01
  1.42791958E-01  1.07992455E-02  4.88036797E-03 -4.49220799E-02  9.72537996E-02
 -5.05240557E-01  7.80856746E-02 -2.52038361E-01  9.16007457E-02 -4.12762806E-01
  1.02638277E-01 -1.18471516E-02  1.11117438E-01  1.71938256E-01  5.93289436E-02
  5.50444813E-02  7.94366524E-03  3.82214437E-02  2.20405132E-01 -1.05036549E+00
  5.25819620E-02 -3.80767303E-02  5.85132879E-05 -1.67620579E+00 -2.12133104E-01
  3.72734448E-01 -1.39603452E-01  7.60037321E-01  8.04190011E-01  8.43518215E-01
 -6.78959861E-03 -3.96037979E-02  3.24221426E-02 -1.22182668E-01  5.42706384E-01
  9.23700887E-02 -3.10632523E-02 -3.32554399E-02  6.80342423E-01 -9.28618698E-01
 -5.33215779E-01  5.08545155E-01 -3.48525514E-01 -4.50665682E-01 -4.82791645E-01
 -8.58756692E-02  1.19963767E-01 -9.23799057E-02 -3.76705168E-01  1.70075890E+00
 -8.35087717E-02  1.32119859E-01 -1.08986803E-01 -9.93910496E-03 -5.22591317E-01
  2.54177963E+00 -1.30879292E+00 -1.38627839E+00 -1.50556131E+00 -1.29191573E+00
 -4.70117410E-02  5.39217280E-03  1.72986084E-01 -3.04406142E-01 -5.00645179E-01
 -2.52111573E-02  4.90109109E-02 -1.06958192E-02  5.10720856E+00 -4.24368995E-01
  1.19540467E+00 -7.45609959E-01 -1.01664012E+00 -7.00678689E-01 -9.56196759E-01
 -1.41096214E-01  1.00256314E-01 -2.71464394E-01  1.79566396E-01  2.87922678E-01
 -1.84065828E-01 -9.40748328E-02  8.72317648E-03 -2.66898964E+00  6.49362863E-01
 -9.33185425E-02  1.58332272E-01  5.94131154E-01  7.19718509E-01  6.07916724E-01
  1.69098803E-01 -8.94838374E-02 -1.08982849E-02  5.17479237E-02 -3.40920075E-02
  2.55675040E-02  1.98826810E-02 -7.21576042E-03 -1.05181851E+00 -1.48385018E-01
 -2.66330195E-01 -1.94289809E-02  1.95331821E-01  1.71026569E-01  1.42308140E-01
  2.53780033E-02 -3.83862381E-02  8.96749031E-03 -6.53754685E-03  1.51119322E-01
  4.54025466E-03  4.23534994E-01 -2.87097709E-02  8.19948016E-02  1.07529772E-01
 -5.37827583E-02  1.23108405E-01  1.65620839E-01  4.03420166E-02 -3.01137668E-03
 -6.35057540E-03  8.64327728E-02  1.46167790E-01 -7.72267748E-01  1.03978370E-04
 -3.52564154E-02 -3.18319636E-02 -1.74825945E+00 -9.11574967E-02  3.04275542E-01
  1.73452510E-01  5.50807116E-01  6.24499501E-01  5.85539842E-01 -6.44053997E-02
 -5.10863046E-02  1.40313044E-01 -4.52774727E-01  2.14426785E+00 -3.61201437E-02
  2.94295056E-02 -9.08101564E-02  4.08755434E+00  3.20298574E-01 -1.73800492E-03
  3.61719007E-01 -1.84565808E+00 -1.73639052E+00 -1.64334108E+00 -5.32059448E-03
 -1.53177510E-02 -5.77200772E-02  2.20958180E-01 -1.12722167E+00  7.50296371E-02
 -4.90170945E-02  3.16979948E-02 -5.02751535E-01  1.45900493E+00 -6.66325858E-03
  2.47595059E-01  1.10562676E+00  9.09573633E-01  7.57640405E-01 -5.14388502E-02
  1.23413716E-01 -1.25658399E-01  5.98396811E-02  1.26157309E-01  3.23170643E-02
 -6.85405038E-02  4.87891845E-02 -1.09523055E+00 -1.53558047E-01 -4.99220970E-01
  2.13247375E-01  2.30797592E-01 -1.08122398E-02  2.04430241E-01 -7.71379960E-03
  2.64701817E-03  1.72013395E-01  8.34890885E-02  2.67020644E-01  5.02415881E-04
 -6.73661745E-03  2.98604519E-03 -1.49357963E+00  2.99793936E-01  4.87686188E-01
 -1.98593106E-01  1.84896569E-01  1.29932281E-01  3.24315038E-01 -1.55064990E-01
  5.02765577E-02  1.11329206E-01  3.12648255E-02 -1.20815483E-01  3.89547260E-02
  5.86695706E-02 -1.73074510E-02 -7.60475886E-01 -1.04872939E-01 -1.04280676E-01
  1.20309343E-02  1.96847569E-01  2.67675860E-01  3.00165579E-02  1.50766852E-01
 -1.41431447E-02 -2.71598085E-02  7.92789269E-03  1.72030177E-01  3.88570599E-02
  1.80091242E-01  1.91519334E-02  2.24154851E-01 -1.35727536E-02 -4.86019139E-01
  1.77790462E-02 -1.64950619E-02  4.33090157E-03  5.82137341E-03  1.56044534E-03
  6.42187449E-02
Orthonormal basis                          R   N=       10816
  1.08577543E-02  5.88032745E-02  8.79296861E-03 -1.62563140E-02 -1.01705149E-02
  8.37642081E-02  2.59721764E-02 -4.62249138E-02 -2.80958212E-02  4.44108557E-02
  4.88309156E-02  4.56757790E-02 -5.23140287E-03 -3.85721105E-03  7.57739426E-03
  1.78158375E-02  9.52475186E-02  2.28376195E-03 -2.21461098E-03  1.09154593E-02
  1.26176345E-01  1.00694938E-02 -2.40987078E-03  2.52242341E-02  7.71131536E-02
  7.61891693E-02  7.15044357E-02  4.50520762E-04  1.72419951E-04  2.93372334E-03
  1.26450281E-02  6.73321063E-02 -1.75297081E-02  4.81163042E-03 -2.55352127E-03
  9.15607102E-02 -5.55628382E-02  1.68764724E-02 -8.97772252E-03  5.84764139E-02
  5.27001153E-02  4.74313329E-02 -1.48306808E-03  3.53477605E-03 -6.11259397E-03
  3.26929367E-03  1.95576600E-02 -6.67492880E-03  1.02874155E-02 -5.88974972E-03
  3.54902888E-02 -2.39374536E-02  3.12729389E-02 -1.83126448E-02  1.98893182E-02
  2.42457229E-02  1.92248383E-02 -6.07430943E-03  3.78721038E-03 -7.31220487E-03
  3.43454100E-03  2.05776916E-02 -1.00868152E-02 -4.01368443E-03  7.51555457E-04
  3.71852979E-02 -3.55725393E-02 -1.45930660E-02  3.41925369E-03  2.52580436E-02
  2.28385444E-02  1.90290293E-02  7.27598487E-03 -1.99519327E-03 -3.16617725E-03
  7.86639094E-03  4.50107888E-02  1.34172423E-02  1.20094167E-02  1.97581395E-03
  7.18084008E-02  4.05534971E-02  4.10177624E-02  6.48647475E-03  4.12426893E-02
  4.53345913E-02  3.81381378E-02  1.05129820E-02 -3.03492958E-04  3.43715622E-04
  2.12541672E-02  4.92068590E-02  2.26785986E-02  5.17407285E-02  2.01932462E-02
  4.66602500E-02  3.43050233E-02  7.50199429E-02  1.56394194E-02  3.82735680E-02
  2.32222982E-02  5.23208083E-02  2.00273329E-02  4.58599416E-02 -1.26131185E-02
 -6.22243806E-02  8.43957738E-03  8.14175381E-03  5.01577653E-03 -6.97852123E-02
  2.99582105E-02  1.38905808E-02  8.04723811E-03 -4.61676595E-02 -5.01144059E-02
 -4.88266421E-02 -3.44671239E-04 -1.08075684E-03 -3.98352953E-03 -6.33303856E-03
 -2.96463148E-02  4.26231704E-02 -5.51433404E-03 -4.79710383E-03 -2.77092273E-02
  1.07673516E-01 -1.66298173E-02 -8.64724776E-03 -1.39944916E-02 -2.97553070E-02
 -2.49766071E-02 -5.33415301E-03  1.00055799E-02 -6.64381674E-03  2.34006758E-02
  1.11500476E-01  3.15497280E-02 -2.24854886E-03  3.25333510E-03  1.13684192E-01
  6.79744251E-02  7.70337679E-04  3.46623308E-04  8.35454334E-02  9.38745757E-02
  8.10287083E-02  6.92176846E-03  5.50539064E-05 -1.49616570E-02  1.00061560E-02
  5.47038567E-02 -3.17856183E-03  2.44990190E-02 -1.36885221E-02  8.02783531E-02
 -1.16371269E-03  6.01516535E-02 -3.32569323E-02  4.73883738E-02  6.28366922E-02
  5.15912402E-02 -4.90587087E-03  3.06357505E-03 -1.65261357E-02  1.12454313E-02
  6.21924832E-02 -1.68919351E-02 -1.50937756E-02  3.72301327E-03  9.33221877E-02
 -4.08516753E-02 -4.37584426E-02  1.17659659E-02  6.31526436E-02  6.75142584E-02
  5.62494934E-02  1.55387030E-02 -4.01617656E-03 -9.46915466E-03 -7.69845378E-03
 -4.06178074E-02 -2.18104347E-03 -9.40985648E-03 -1.98277845E-03 -5.26365299E-02
  6.06186444E-03 -2.59011893E-02 -5.15340605E-03 -3.21512934E-02 -3.99980330E-02
 -3.46914740E-02 -3.13266390E-03  4.69857349E-04 -5.37300621E-04 -2.01428640E-02
 -3.42970505E-02 -2.65790619E-02 -4.64552783E-02 -3.36653037E-02 -5.84270481E-02
 -1.10062549E-02 -1.67657653E-02  3.25999365E-02  5.70717361E-02 -2.03221917E-02
 -3.34454610E-02 -1.57680550E-02 -2.62860967E-02  2.10408592E-02  9.88851226E-02
  5.95834725E-03  1.30357088E-02  3.09319890E-04  1.03241803E-01  1.32306820E-02
  4.42107657E-02  7.39672637E-03  7.85613972E-02  7.35864470E-02  7.67786459E-02
  1.21027523E-03 -1.02152758E-03 -2.50860340E-03 -3.73563231E-03 -1.78128410E-02
  9.34484223E-03  6.02089611E-02  1.32091542E-02 -1.58882325E-02  2.01767094E-02
  1.36612534E-01  3.13764177E-02 -1.51469097E-02 -1.74131015E-02 -8.76120645E-03
 -1.59240767E-02 -4.05351807E-03  1.35160258E-02 -7.62297801E-04 -2.95187906E-03
  1.56139230E-02  3.58083622E-02 -2.55543320E-03 -2.24526577E-03  3.34857949E-02
  8.07271520E-02  2.33084116E-03 -3.16317367E-03 -5.93244431E-04 -2.84068008E-03
  5.66619971E-04 -5.19786372E-03  3.76708325E-04 -4.44662243E-03 -2.24541977E-02
  7.27918460E-03 -2.85167590E-04  4.54587901E-03 -3.00805367E-02  2.38744024E-02
  7.62334993E-03  1.07083892E-02 -2.31338497E-02 -1.82062106E-02 -2.13963220E-02
  2.71850730E-03 -4.10466686E-03  1.13721191E-03  6.96018744E-03  3.55108770E-02
 -7.52014047E-03  2.98173138E-03 -7.51286198E-05  4.72002010E-02 -1.66378422E-02
  1.36682480E-02  3.42437882E-04  3.48997232E-02  3.26011914E-02  3.24939090E-02
 -2.14853607E-03 -4.30782183E-04 -2.56929258E-03 -1.82936523E-02 -9.30696217E-02
 -1.67781719E-02  5.66795415E-03  1.13225209E-03 -1.11285715E-01 -3.27690021E-02
  2.63756691E-02  6.07102546E-03 -7.96028682E-02 -7.90141032E-02 -8.04954907E-02
 -3.48410358E-03  2.27610556E-03  9.19350533E-04  5.62002278E-02  9.15896196E-02
  4.26502482E-02  6.77190733E-02  4.38159584E-02  6.98710803E-02 -2.97858205E-03
 -3.46815529E-03  3.06474182E-02  4.86957067E-02 -5.31545375E-02 -8.18568278E-02
 -5.98998961E-02 -9.31911080E-02 -1.42341516E-02 -6.21975195E-02  1.37720113E-02
 -5.73616319E-03 -2.82195821E-02 -5.68625641E-02  3.10267068E-02 -1.18286305E-02
 -6.39222380E-02 -4.80619584E-02 -4.79736045E-02 -4.61241540E-02 -3.06283295E-03
 -7.02363104E-03  1.03708599E-02  1.26308148E-02  5.18694552E-02  6.81634131E-03
  6.09144764E-03 -4.40727100E-02  3.93184742E-02  1.64590367E-02  1.92576751E-02
 -9.76256304E-02  4.03260539E-02  3.79839458E-02  3.92461326E-02  1.57372660E-02
 -2.12384298E-04 -4.80075470E-03 -9.52024429E-03 -3.77432048E-02 -8.37632343E-03
  8.11521709E-02 -5.78526957E-02 -2.62453617E-02 -7.63100928E-03  1.28180581E-01
 -1.04791075E-01 -1.86324996E-02 -3.59352045E-02 -3.00550194E-02  2.09256174E-02
 -3.24058593E-03  1.10466649E-02 -2.18379004E-02 -1.06962847E-01  9.70445190E-03
 -1.99149313E-02  7.76040429E-03 -1.27713246E-01  1.76058404E-02 -1.98318799E-02
  1.11449083E-03 -9.31468331E-02 -9.95761568E-02 -9.22344246E-02  7.41097156E-03
 -2.46879900E-03  6.37340465E-03  1.51266911E-02  7.36641670E-02 -1.29722228E-02
  1.46102765E-02 -1.34651999E-02  8.75591534E-02 -2.32645936E-02  4.71959927E-02
 -3.96679901E-02  6.92842725E-02  6.27647834E-02  6.42308383E-02 -6.99629595E-03
  8.25618875E-03  1.12511134E-03  1.42226786E-03  9.80687217E-03  5.07925858E-03
  9.20300035E-03 -1.67296169E-02  1.16489684E-02  6.47082303E-03  1.91273198E-02
 -4.54022509E-02  8.64016681E-03  1.26994214E-02  5.87429104E-03  8.87214009E-03
 -6.45622862E-03 -5.18539851E-03 -2.43031802E-02 -2.96249523E-02 -4.92284901E-02
 -6.90185716E-02 -3.41705473E-02 -4.64057480E-02  5.77108764E-02  7.64341801E-02
  7.28022912E-02  9.40796493E-02 -1.41521895E-02 -2.30262946E-02  9.58442921E-03
  1.32995021E-02  9.59077403E-03  3.67229634E-02 -2.41002091E-02  2.09018252E-02
  3.61980953E-02  3.22771738E-02 -4.44363691E-02  3.01723274E-02  6.69964496E-02
  3.04349081E-02  2.56610573E-02  2.59292912E-02  1.18129898E-02  1.08872044E-02
 -1.79168929E-02 -2.47195893E-02 -9.87429072E-02 -3.88004799E-02 -2.29067196E-02
  2.58894932E-02 -6.28939144E-02 -6.22424982E-02 -4.07429515E-02  5.69941131E-02
 -7.58283165E-02 -6.54370830E-02 -8.13776764E-02  2.20661201E-02 -9.90225780E-03
  4.80985272E-03 -4.73398127E-03 -1.83064784E-02  7.05146732E-02  3.09372508E-02
  5.32915955E-03 -7.97418268E-03  1.05145723E-01  4.33564649E-02  1.68879014E-02
 -1.74129544E-02 -7.15461026E-03 -1.66059629E-02  3.48152435E-02 -2.02746092E-02
 -2.23172383E-04 -3.09595861E-03 -1.50557421E-02  1.08175324E-02 -1.62986373E-03
  5.38636205E-03 -1.46845554E-02  2.76334960E-02  5.04259185E-03  8.88412033E-03
 -1.27344808E-02 -1.11505084E-02 -1.40076088E-02  1.05380953E-02 -6.65479854E-03
  3.22901096E-03  2.15232549E-02  1.03250833E-01 -1.86411789E-03  2.77230043E-03
  1.46122024E-04  1.17883711E-01  1.81461405E-02  1.57084923E-02  1.44594697E-03
  8.41839746E-02  9.49629434E-02  8.99192652E-02 -4.12662269E-03 -2.74505560E-04
 -9.49621752E-03  2.22498857E-02  1.01886818E-01 -1.49034127E-02 -3.59280363E-02
  1.60148253E-02  9.97715160E-02 -5.08343507E-02 -7.88785263E-02  3.60060664E-02
  7.28970275E-02  7.83939368E-02  9.26239637E-02 -2.05723337E-02  1.12575961E-03
  5.36615966E-03  2.17608239E-02  2.93593081E-02  4.14196169E-02  5.24697437E-02
  3.18188954E-02  3.97009922E-02 -7.04491606E-02 -7.52256420E-02  6.41431798E-02
  7.05927012E-02  8.15530994E-02  9.66288554E-02  6.59386945E-02  7.54810775E-02
 -4.84571865E-03 -2.04940208E-02  6.96993282E-02 -4.89420634E-02  6.80491874E-02
 -1.67211198E-02  1.16408089E-01 -7.97214672E-02  1.20220554E-01 -2.01058687E-02
 -8.29159333E-03 -1.79353458E-02 -1.23488359E-02 -9.38960685E-03 -1.06327199E-02
  1.08049928E-03  2.32908773E-03  7.54559104E-02 -2.59272768E-02  1.16429103E-01
 -9.88995660E-03  1.02566161E-01 -3.99483238E-02  1.81348185E-01  6.80501599E-03
 -4.51761855E-03  2.58173177E-03  3.78156776E-03  1.10133538E-02 -2.47306750E-03
  1.11670927E-02  3.38403221E-02 -9.69906605E-02  6.87663551E-02  1.95516204E-02
  1.31959434E-02 -1.26962089E-01  8.84934136E-02  6.07991926E-02  3.54319533E-02
  1.28934704E-02  2.45109455E-02  1.71823705E-02 -2.07116998E-02  2.54791584E-02
 -2.31811663E-02 -9.99066447E-02 -3.29469172E-02  7.07741357E-03  1.56594571E-02
 -9.69346329E-02 -8.46422096E-02  3.79573531E-02  2.51995114E-02 -7.11552658E-02
 -7.69366866E-02 -8.72389822E-02 -2.35522070E-02  7.80447801E-03  7.51707443E-03
 -5.61944863E-03 -2.30574480E-02 -2.24986233E-02  1.08595339E-02  1.20146637E-02
 -2.49612222E-02 -5.23779937E-02  3.17384229E-02  2.73445602E-02 -6.66461568E-03
 -2.88891431E-02 -1.91442393E-02  8.33369106E-03 -1.37821650E-02  2.64901972E-06
 -3.48889398E-03 -1.51465129E-02  1.48575124E-02 -1.59008637E-02  6.24995072E-02
 -1.62242063E-02  3.69998233E-02 -3.41996836E-02  1.24346026E-01 -6.25239904E-03
 -2.15311707E-02 -7.61770070E-03  7.28226005E-03  1.91534444E-02  7.86404891E-03
 -1.52551971E-02 -1.58704112E-02  5.71922746E-02  6.35011885E-02 -8.84653097E-02
 -9.65106000E-02 -9.46318657E-02 -1.07516637E-01 -6.01896902E-03 -1.06469114E-02
  5.67696016E-02  5.84287498E-02 -3.31085808E-02 -3.75150374E-02  9.12817158E-03
  3.37497012E-02  5.17336455E-02  1.40756193E-01  2.75010789E-02  2.80547155E-02
  8.46462210E-02  1.96058322E-01  2.71220456E-02  3.42832314E-02  1.86898376E-02
  2.15028648E-02  2.59358456E-02 -3.54432957E-03 -2.72684839E-02 -1.86647947E-02
 -6.38877647E-02  1.15115269E-01 -1.07818677E-02 -6.62878416E-02 -2.17463385E-02
  1.34761697E-01 -1.39637374E-02 -9.12157879E-02 -5.09419732E-02 -3.46515812E-02
 -5.42591662E-02 -9.94406944E-03  2.33385446E-02  1.06061272E-02  1.60847955E-02
  4.37752334E-02 -4.79175260E-02 -8.88484804E-03 -6.39086619E-02  1.57860724E-02
 -6.00056643E-02 -1.54677396E-02 -9.62282992E-02  1.79573833E-02  3.54434565E-02
  3.81867518E-02 -6.37010468E-03  3.09640981E-03  1.45462694E-02 -1.09056772E-02
 -4.33491936E-02 -2.00422516E-02 -1.71110836E-03 -3.02924576E-02 -4.08404524E-02
 -4.40561983E-02 -5.83731041E-03 -6.43069892E-02 -3.40893196E-02 -3.80184715E-02
 -2.54016837E-02 -1.07701714E-02  1.53460821E-02 -1.59676090E-02 -1.64925414E-02
 -6.83808776E-02 -2.66893060E-02 -9.45561260E-03 -1.49486217E-02 -6.45689574E-02
 -6.46623956E-02 -1.70184929E-02 -3.41886544E-02 -4.26649643E-02 -5.52594255E-02
 -5.95144104E-02  1.51328819E-02  4.55865510E-03  1.33840205E-02  4.30303833E-03
  1.57516715E-02  1.73028844E-02 -1.07514873E-01 -6.35526800E-02  1.38138893E-02
  4.49028760E-02 -1.75181258E-01 -1.11200997E-01  1.73518895E-02 -4.78295752E-03
  2.05802626E-02 -2.98247430E-02 -1.88931862E-02  8.07094152E-03  1.41873873E-01
  1.36219324E-01  4.76187553E-03  2.67857756E-03 -5.38577099E-03 -5.04734348E-03
  1.93137425E-02  3.24771019E-02 -2.32531295E-02 -6.87447165E-03 -4.90170457E-03
 -5.80834897E-03  1.31529685E-01  1.22624871E-01 -3.41964618E-03 -1.25680042E-02
  1.19112346E-01  2.25142799E-02 -1.30139630E-02 -8.53048975E-03  1.63530613E-01
  3.64886907E-02 -1.70115689E-02 -1.68717014E-02  1.64411154E-03 -1.24349171E-02
  1.23238527E-02 -2.05649233E-02  5.81998429E-03  6.90516935E-03  1.59225720E-02
  8.95188695E-03  3.65382318E-02  7.98955925E-03  7.52368316E-03  3.24517252E-02
  4.30607155E-02  1.44095159E-02 -1.91973479E-02  2.84390104E-02  2.26304158E-02
  2.62166946E-02  5.20063611E-03  1.76960952E-03 -3.83579531E-02 -1.13865636E-01
 -6.87498402E-02 -3.74726065E-02  7.47011392E-02 -2.86012644E-02 -5.76210149E-02
 -9.23801925E-03  9.24794423E-02 -1.11836664E-01 -5.18387970E-02 -7.87405704E-02
 -3.08764834E-02  1.15175795E-02 -5.09768038E-02  3.59934150E-02  1.39327435E-01
 -1.80816092E-02 -5.11934938E-02  5.40333070E-02  1.23889202E-01 -3.33384235E-02
 -1.12163927E-01  1.10125841E-01  1.15993706E-01  8.96281860E-02  9.71152616E-02
 -1.00454170E-02 -8.07512720E-04  4.41070863E-02  7.37459233E-03  2.48149769E-02
  1.48093828E-02  1.26565261E-01 -3.58791151E-02  2.72557230E-02  1.28484243E-02
  2.06275744E-01 -4.62243025E-02  1.55078205E-02  7.42468742E-03  2.85544020E-02
 -7.42581743E-02  2.24336664E-02 -9.69383626E-03 -1.28641435E-03 -2.79649862E-03
  1.37102184E-02 -2.37548179E-02  8.54570126E-03 -2.93855344E-03  2.93117814E-02
 -4.43851303E-02  1.40079468E-02 -1.34319342E-03 -4.34586482E-03  7.47408934E-04
  5.61251763E-03  3.54740565E-03 -3.23060077E-03  7.79472900E-02  7.66415093E-02
 -2.39890866E-02 -1.94368668E-02 -1.02434771E-01 -9.14421951E-02  1.78954678E-02
  1.59763702E-02  1.47170176E-01  1.27597497E-01  2.09037058E-02  2.46468764E-02
  1.17499860E-02  1.19552582E-02 -2.74932701E-03 -1.32470597E-02  1.11415714E-01
  3.12216231E-02 -1.02176722E-01 -9.85118410E-03  1.39718451E-01  4.04576198E-02
 -1.22986724E-01 -9.18804818E-03  2.27974354E-03 -2.32391800E-02  1.55814641E-02
 -1.63447040E-02  2.36327773E-02 -1.35858256E-03  4.11585362E-03 -4.06267777E-02
  9.97839567E-02  8.31766688E-03  2.18425422E-03 -4.79116533E-02  1.11990510E-01
  7.01516046E-03  9.34367333E-04  1.08731062E-02  1.61826670E-04  4.60195545E-02
  3.14799005E-02  1.50476789E-02  9.14847795E-03  2.32830113E-02  8.96412635E-02
  1.10195394E-01  1.35417578E-01 -2.92050619E-04  7.00112972E-02  1.27600371E-01
  1.78541481E-01  2.59196342E-02 -1.82279404E-03  2.39973486E-02 -3.17102271E-02
  3.62791183E-02  1.37634181E-02 -4.56138878E-03 -1.63969315E-02  5.45285216E-02
  7.23446409E-02  6.09214349E-02 -1.59459168E-02  9.73637319E-02  1.25566244E-01
  1.12589623E-01 -2.79145501E-02  2.67026343E-02 -3.39799872E-02  2.42354915E-02
 -3.13231333E-02  1.22151119E-02 -9.49947798E-03 -3.77719548E-02 -1.21682197E-02
 -5.62292087E-02  1.05806443E-01 -3.20037700E-02 -2.57268274E-02 -7.79928983E-02
  1.86809734E-01 -2.35911431E-02 -3.70868098E-02 -2.04804315E-02  2.08897540E-02
 -4.79529193E-02 -2.05819681E-02  1.52826573E-02  6.33777890E-02 -5.43011217E-02
 -1.41266055E-02 -1.50002085E-02  4.39763449E-02 -1.00610208E-01 -1.80009157E-02
 -2.93697762E-02  3.00394842E-02  5.72142557E-02  5.13336270E-02 -7.49741361E-03
 -2.23056081E-03 -4.49760281E-03  8.36817845E-02  6.66032814E-02 -1.09303434E-01
 -8.83152147E-02 -7.13073978E-02 -5.73986225E-02  1.50686462E-02  1.01669968E-02
 -1.12379236E-01 -7.13545160E-02  1.75795553E-02  2.93976767E-03  3.03705364E-02
  1.32064673E-02 -1.88625901E-03 -1.13254980E-02 -7.20927506E-02  7.30427152E-02
 -1.86328705E-01 -6.11656081E-03 -8.24326656E-02  7.89688828E-02 -2.13473193E-01
  2.42122614E-02 -3.12559150E-03 -4.73686565E-02 -3.09149783E-03  1.60852787E-02
  1.73635510E-02 -9.73766013E-03 -3.25444346E-02  3.72409210E-02  5.79955687E-02
  3.76038318E-02 -1.03079031E-02  2.06197741E-02  5.72772965E-02  3.63133134E-02
 -4.23494280E-03 -2.00344451E-02 -4.63638781E-02 -4.51802862E-02 -1.41352621E-02
 -5.16279947E-02  1.30166276E-02  3.56221959E-02 -5.81592229E-02 -1.69535046E-02
 -2.95354499E-02  4.63037377E-03 -5.22791303E-02 -1.27573862E-02 -4.04842073E-02
  5.85800481E-03  4.12097001E-02  2.74567977E-02  5.67981923E-03 -2.16601418E-02
 -1.91452166E-02 -3.56562781E-03 -1.17186804E-02 -4.87470718E-02 -2.02992148E-03
 -2.07367830E-02 -1.16254763E-02 -8.10313788E-02 -1.40296720E-02 -2.88297910E-02
 -4.19952782E-03 -1.43969200E-02 -6.78600420E-03 -2.69761692E-02  1.51889724E-02
 -1.21459410E-02 -8.76428783E-03 -2.99020687E-02 -3.76163131E-02  2.46230685E-02
 -3.65912130E-02 -2.55398573E-02 -6.30077447E-02  3.77887644E-02 -6.06111908E-02
 -1.20219627E-02 -2.14739257E-02 -2.82272698E-02  4.81288171E-03  1.12986635E-02
  3.63998213E-03  2.28922851E-04 -8.61609608E-04 -4.35440145E-02 -3.96782465E-02
  1.72320121E-01  5.08535353E-03 -4.93627806E-02 -4.36761579E-02  2.25282057E-01
 -7.73066850E-03 -1.69912619E-02  2.28147952E-02 -1.87493517E-02  3.26656486E-02
 -5.15129587E-02  3.05354361E-02  2.54970018E-02 -2.02572194E-01 -1.49554860E-01
  1.31165436E-01  9.98259743E-02 -2.55158794E-02 -1.38263489E-02  4.15231665E-02
  3.34505081E-02  1.83416304E-01  1.27813496E-01 -1.06697062E-01 -6.89299627E-02
 -3.18718546E-03 -1.34067562E-02 -1.58690303E-01  9.93208308E-03 -3.83916542E-02
 -1.76012317E-03 -1.51005386E-01  7.90239182E-03 -4.23167988E-02  2.69993709E-02
 -3.36148292E-02 -2.35139448E-02 -4.61195518E-02  3.65787733E-02 -1.24344211E-02
 -6.76024362E-03 -2.55961985E-02  2.00399089E-02 -4.92067548E-02  4.97856348E-03
 -8.10646823E-03 -1.22853998E-03 -4.14843771E-02  6.02553906E-03 -3.53468291E-03
 -2.50633453E-02 -2.77844790E-02 -3.22209726E-02  5.52724799E-02 -1.67510739E-03
  1.09520970E-02  3.31878825E-02 -1.22473869E-01  4.84393937E-02  1.62541365E-01
  3.92042720E-03 -1.04841313E-01  6.41897621E-02  1.68691583E-01 -2.93405855E-03
  2.58780000E-02  4.77648741E-02  8.23324434E-02  2.15667817E-02 -2.91810744E-02
 -4.81666587E-03 -1.60648909E-02 -1.00178203E-01  5.83271271E-02  9.77813431E-02
 -1.64054754E-02 -1.46514417E-01  8.40537770E-02  1.51448464E-01  3.12750034E-04
  1.05118890E-02 -4.46892035E-02 -6.79716267E-02  2.58099047E-02  4.43119846E-02
  6.10655695E-04  6.23206839E-03 -3.93743402E-02  9.47466266E-02  5.01643975E-02
  1.16109259E-03 -5.37975071E-02  1.48338743E-01  8.71449160E-02  1.45799493E-02
 -1.59724083E-02  1.41491603E-02 -8.26745373E-03 -2.67209097E-02 -3.97920221E-02
 -3.85688793E-03 -1.76931363E-02  2.78029611E-02 -1.93692594E-02 -1.30337861E-01
 -8.34460290E-03  3.96367731E-02 -1.67210300E-02 -1.53320423E-01 -4.73470310E-03
 -6.72573105E-03 -2.68803028E-02 -2.36492718E-02 -1.60005114E-02  5.73902567E-02
 -9.04413130E-02 -5.26811409E-02 -4.55176669E-02 -2.87400320E-02  1.71210784E-01
  1.21400174E-01 -3.28213896E-02 -1.85648394E-02  6.65909513E-02  2.88649348E-02
 -1.28001218E-01 -7.33480816E-02  1.13184938E-01  6.91255061E-02  3.12486140E-03
  5.54279509E-03 -4.84332076E-02 -1.73356750E-01  4.55633600E-02 -1.34768151E-03
 -4.08770149E-02 -1.59851201E-01  4.00826496E-02  7.26624498E-04 -4.32973767E-02
  5.31171895E-02 -7.01303172E-02 -1.89832964E-02 -8.51909043E-03 -1.42050640E-02
 -4.09252599E-02  8.44188684E-02  2.22827170E-01 -5.72459377E-02  5.18282680E-03
  3.94583777E-02  1.44308423E-01 -5.85986461E-02 -2.32143566E-02 -8.06950481E-02
  1.70461225E-02 -4.31801471E-02 -2.43392088E-02  1.55632963E-02  6.25742195E-03
  1.31033837E-02  1.50511211E-02  6.30966625E-02 -1.75841738E-02  3.64227673E-03
  2.48024173E-03  6.53179001E-02 -2.14972739E-02 -2.83525580E-02  2.17771838E-02
  3.26105931E-02 -1.07419695E-01  2.87107646E-02 -4.33939728E-02  1.31610726E-02
  4.24563663E-02  4.94230217E-02  1.10567504E-02  1.86927108E-02  2.48892626E-02
  6.81627379E-02 -9.07533813E-03  3.92486265E-02  8.20821274E-03  4.01180292E-02
  2.55521973E-02  1.64755379E-02 -2.30355006E-02 -4.83474147E-03 -2.37094273E-02
 -7.93999142E-02 -8.97490635E-02  2.89235091E-02 -4.15047878E-02 -5.62611964E-02
 -1.39897964E-01  2.14220055E-02 -5.35930795E-02 -3.74885531E-02 -5.71794781E-02
 -5.75827293E-02 -7.56549486E-03  1.94243740E-02 -6.31671027E-03 -2.14166986E-03
 -1.20679082E-02 -1.30872009E-01 -1.69951108E-01  1.45705786E-02  1.51901981E-02
 -1.47958446E-01 -1.47745126E-01  1.20505371E-02 -4.11503889E-02 -1.25778678E-02
  3.03354596E-02 -9.42512051E-02 -1.33805594E-02  8.81762727E-03 -1.99840176E-01
 -1.23448706E-01  1.16916399E-01  7.37284425E-02  5.14341888E-03  7.66525751E-04
  1.20124386E-01  9.46379644E-02  5.05596388E-02  3.21115370E-02  8.04876815E-02
  6.56790784E-02  8.63282150E-02  6.16412206E-02  2.14383513E-02  7.75445554E-02
  6.57225672E-02 -1.47522498E-01 -1.81995763E-01  4.56045692E-09  4.52203294E-02
 -9.31909794E-02 -1.34445581E-01  5.42550205E-02  8.04347731E-02  3.57249036E-02
 -7.54864187E-02 -3.37953407E-02  9.27078799E-02  8.09725192E-03  2.80497429E-02
 -1.25182574E-02  1.17042453E-01  2.04047584E-01 -4.23168311E-03 -9.35484479E-04
  3.51978212E-02  1.35876060E-01 -2.34742847E-03  6.47234543E-02 -7.68970501E-04
 -1.19210084E-01 -3.60810406E-02  1.37722908E-01 -9.15674120E-03 -1.90339434E-02
 -2.04663488E-04 -4.31469241E-02 -6.05171663E-02 -1.89163822E-04  1.31254764E-02
 -5.08845747E-02 -4.75650835E-02  1.80296622E-02 -8.87353268E-03 -4.67396258E-02
 -5.45466129E-03 -4.93666810E-02  4.36961315E-02 -2.02180806E-03 -6.24321480E-03
  7.69825515E-03 -6.10631773E-02 -6.47982821E-02  2.25082142E-03  6.17831891E-03
 -6.76069897E-02 -9.79549196E-02  4.05201043E-03 -2.57882692E-02  1.59306501E-02
  1.43428009E-02  3.09070537E-03 -1.53080854E-02  1.39658063E-02  4.40034057E-02
  6.29331665E-02 -3.19059853E-02 -2.13299593E-02  3.24480457E-02  8.84926953E-02
 -4.33357975E-02 -3.30345281E-02  2.18141879E-02  3.66541819E-02  2.57508157E-02
 -2.66952683E-03  4.88752523E-03  2.45321197E-02 -1.17964870E-02 -4.11045443E-02
  4.01958671E-02 -1.21213095E-01 -9.60254776E-02 -1.67689064E-02  6.63339651E-02
 -1.15832126E-01 -8.64757661E-02 -3.01633203E-02 -1.36427050E-02 -3.62880378E-02
 -5.06692070E-02 -1.40987736E-02  1.16821616E-01 -5.97975075E-02 -5.79476153E-02
 -1.24610277E-01 -1.00457354E-01 -1.31010210E-02 -3.26960556E-02 -1.70762170E-01
 -1.12969997E-01 -2.82756333E-02 -2.50025596E-02 -8.38532461E-02 -3.94064684E-02
  1.83724614E-01  1.06057364E-01 -7.44198723E-04  5.35577915E-03 -3.88628384E-02
  1.40280430E-02  1.58201703E-02  2.81594045E-03 -3.18153576E-02  1.95096806E-02
  1.65262196E-02  2.30171989E-03 -1.05858101E-02  2.22680844E-02 -2.79126074E-02
 -4.68653176E-03 -2.57985619E-03  1.97371120E-02  4.39368955E-02  8.21146930E-02
  2.27499128E-02 -9.94141117E-02  2.20189796E-02  6.03869152E-02 -1.53827885E-02
 -6.32114834E-02 -4.35494074E-02  4.07885691E-02  9.11634011E-02 -1.16192486E-01
 -1.34243519E-02 -6.15291852E-02 -3.29313514E-02 -6.63371838E-02 -3.40865602E-03
  4.61054927E-02  3.24707902E-02  6.04579694E-03  5.80169790E-03 -2.38941884E-02
  5.61009778E-02  1.28292029E-02 -9.15078240E-02 -5.09906940E-02  1.41542952E-01
  3.22153528E-02  2.95493656E-02 -1.81900659E-03 -4.68660356E-03 -1.71250400E-02
 -7.21671995E-02  1.00904944E-01  2.38228484E-02 -3.78360445E-02 -4.16256355E-02
  9.82406039E-02  3.15164051E-02 -6.36884287E-03 -1.30646783E-02  2.68608719E-02
  2.96139953E-04  6.39367960E-02  3.58193572E-02  1.06837570E-01  1.29164257E-01
 -9.26006398E-02  1.23066523E-01  7.00341209E-02  1.81152330E-01 -8.45585751E-02
  1.44335378E-01  6.34981588E-02  4.54406424E-02  8.22708206E-02  2.56315826E-02
 -3.77262753E-02  2.55990826E-02 -3.37284066E-02 -1.09842636E-01  1.14115891E-01
 -1.63315085E-01  1.00920243E-01 -5.06930635E-02  1.72371317E-01 -1.54697490E-01
  1.01754404E-01 -7.55577624E-02 -9.73626264E-02 -4.01935012E-02 -1.89258672E-02
 -4.83445731E-04 -3.82793836E-02 -2.88338800E-02 -2.15052819E-02  2.86688515E-02
  2.38549146E-02  3.47767861E-02  1.67534426E-02  1.58358376E-01  7.91224896E-02
 -1.54030777E-01 -7.87638016E-02  1.43441382E-01  9.98045549E-02  3.29608590E-02
  3.98085215E-02  6.20628911E-03  1.23761599E-02  5.64858825E-02 -3.30164114E-02
 -1.13910879E-02 -3.21692022E-05  3.50368715E-02 -2.99577154E-02 -1.31699342E-02
 -1.00662952E-02  1.56173425E-02  1.90722338E-02  3.74625921E-02 -6.70366128E-03
  6.49882522E-03 -1.58127016E-02 -5.34731729E-02 -1.07867704E-01  5.60744575E-02
 -1.70023747E-02 -1.14110856E-03 -4.60822005E-02  2.90075146E-02 -1.03416546E-02
 -5.68551451E-02 -3.39137851E-02 -2.46957712E-02  1.20119811E-02 -1.66955698E-02
  3.03844781E-03 -3.15020700E-03  3.07922635E-03  6.39322489E-03  1.20213954E-01
 -7.47113003E-02 -5.07909965E-03 -4.12770208E-02  1.67571016E-03 -2.38539414E-02
 -7.60304573E-02  6.15869785E-02  2.42661849E-02  2.80327517E-01 -2.17124116E-01
 -1.21751586E-01  1.49290909E-02  4.50655880E-02 -1.84093440E-01 -1.85366172E-01
  1.07203207E-01  4.67054903E-02 -1.79917798E-01 -1.69474978E-01  9.39109119E-02
  7.76953594E-02 -2.70908658E-03  2.21532388E-02 -1.16009193E-01  4.49215548E-02
  6.11454082E-02  1.30720074E-02  4.29839886E-02 -1.66558334E-01 -1.79098130E-01
 -2.54593195E-02 -1.12298125E-02 -1.26512175E-01 -1.10747619E-01 -6.34010455E-02
  6.76954433E-02 -6.39181378E-03 -1.06651927E-02  1.60501554E-01 -1.53514451E-02
  9.75368098E-02  1.04811648E-02  2.40521678E-02 -8.16349432E-02  5.56930858E-02
 -4.18435015E-02  1.80392357E-02 -8.29172488E-02  5.58774623E-02 -3.70882660E-02
  1.17060111E-02  1.98203351E-02  1.02017136E-02 -2.24595429E-02  4.94715666E-03
  8.03743679E-03  1.78770034E-02 -2.14070557E-03  7.27867894E-03 -2.95984927E-04
 -6.71048991E-02 -3.41109604E-02  2.11711325E-02  2.22622692E-02 -1.13696248E-01
 -5.89075467E-02 -5.09972224E-02 -1.02578695E-02 -1.97494304E-02 -7.14977222E-03
 -8.67864113E-03 -2.04897448E-02 -8.64137109E-02  5.98979589E-02  6.08171367E-03
  3.02230075E-04 -5.21891281E-02  4.57421206E-02  9.58035988E-03  3.18726603E-02
 -2.21333848E-02 -5.18906125E-02 -6.03666048E-02  1.58067474E-02 -2.18673503E-02
  1.64265940E-02  4.86117502E-02  1.15405698E-01 -1.13904954E-01  7.50754043E-02
 -1.57390113E-03  9.03193546E-02 -3.73295870E-02  5.01092175E-02  8.01802509E-02
  4.31266946E-02 -2.00514173E-02  1.13518983E-01 -7.93188916E-03  2.46598832E-02
 -2.84351111E-02 -3.39600327E-02 -2.16461279E-03  2.67352286E-01 -1.33223956E-01
  2.36249564E-02  9.26833409E-03  6.39689841E-02 -3.12313249E-02  3.61797451E-02
 -4.76819926E-02 -4.25319989E-02 -7.12283347E-02  7.24756062E-02  3.89817021E-02
  2.64350723E-02  7.46871244E-02  2.14694844E-01 -2.22727606E-01  1.25852556E-01
  8.61609866E-02  2.05940212E-01 -1.88450462E-01  1.05879059E-01  5.40241659E-02
  4.03150963E-02  6.19358852E-02  1.14104194E-01 -5.54298761E-02  5.35363401E-02
 -1.22822632E-02 -3.59237179E-02 -1.46261941E-01 -4.51359545E-02  2.71072556E-02
 -2.75630522E-02 -1.70322891E-01 -4.54729913E-02  2.66510736E-02  1.36403982E-04
 -3.66697161E-02 -2.73680420E-02  1.81841444E-02 -1.15528098E-02  4.08121930E-03
 -2.66853436E-04  1.28742775E-02  1.07740373E-01  2.76828444E-02  2.12938150E-03
 -1.24924766E-02  8.58108475E-02 -8.12160457E-03  9.77494462E-03  2.17640679E-02
  1.71751272E-02 -1.16278770E-02  6.95792252E-02 -5.74980633E-03  2.23202589E-02
 -1.99549153E-02  2.90342781E-03 -3.88666080E-02 -1.69618113E-02  1.21540391E-01
  6.20963829E-02 -1.26753895E-01 -7.51136770E-02 -1.55154336E-02 -1.27434985E-02
 -1.70334331E-02 -2.01974737E-02  1.12739175E-02 -6.01328321E-03 -1.60050257E-03
 -8.07663234E-03  2.76501452E-04 -2.62192681E-02  6.21074222E-03  1.91409606E-03
  9.71445116E-03 -2.00041922E-02 -2.02094492E-03 -1.24339024E-02 -1.45844409E-02
  8.74307836E-03  1.50977912E-02  6.57573748E-03 -3.25695194E-03 -1.07103450E-02
 -2.92950761E-02 -3.21328924E-02  2.77843287E-02 -3.78756182E-02  2.76152245E-03
 -2.66087250E-02  9.75852372E-03 -2.03144318E-02 -1.77208745E-02 -2.98359262E-02
 -1.38946060E-02 -4.36127296E-02  2.60627797E-02  2.93658642E-03  1.07718688E-02
  2.15841006E-02 -1.48759937E-02 -1.49133743E-03 -1.32389817E-02  1.01929315E-02
 -1.79014001E-02 -9.19502770E-03  1.67543523E-02 -1.57107375E-02  1.61749579E-01
 -1.03922435E-01  8.48210145E-02  6.40839519E-02  2.77764966E-01 -5.73266562E-03
 -3.46402708E-03 -2.07790852E-02 -2.29674207E-01 -2.29502719E-01  1.79597541E-02
 -3.31941333E-02 -1.78006304E-01 -2.33904654E-01  3.28519520E-03 -3.23544209E-02
  5.57643051E-02  2.97335378E-02  7.71421458E-02 -3.80156052E-02  1.03700766E-03
  5.34435089E-03 -7.85045769E-02  1.48135052E-01  3.06779047E-01 -2.05558004E-05
 -7.78955862E-02  1.61871934E-01  3.06132565E-01  7.22686690E-03 -1.61720620E-02
  1.81095828E-02 -1.16024397E-02 -1.11307305E-01 -5.97991211E-02  6.08690290E-03
  7.45616282E-03 -8.59990193E-02  2.24712305E-02 -5.38257891E-03  1.46309477E-02
 -6.50099500E-02  2.99163983E-02 -1.19066367E-02  4.28831111E-03 -3.55424640E-03
  1.01496577E-02 -3.21991295E-02  2.45060757E-03 -3.18005394E-02 -1.72656722E-02
  3.92187499E-03  2.04260675E-02  9.75168010E-03 -1.53342427E-02 -1.00033724E-03
  3.42368476E-02  1.77596018E-02  1.26228949E-03 -5.42505377E-04 -1.86132845E-03
  2.57597318E-03 -3.78474510E-02 -4.94164051E-04  1.37754501E-02  3.90002722E-02
  1.49273614E-02 -6.51619757E-02 -3.39293071E-02 -3.23460023E-03  5.52950379E-03
 -1.94066335E-02 -1.35859887E-02 -7.57945004E-03  4.99770838E-02  4.01984340E-02
  2.64393589E-02 -1.28464911E-02  4.71848088E-02 -2.51047458E-03 -1.96353580E-02
 -2.16669869E-01 -3.79170814E-02 -3.73962496E-02 -1.19139260E-02 -5.00241352E-02
 -1.99463059E-02 -2.57700537E-02 -1.23319800E-01  7.35924183E-02  4.75659388E-03
  3.19079600E-03 -1.63862282E-01  1.66326050E-02  7.40630287E-03 -2.16590402E-02
  2.58940297E-01 -2.59607742E-02  5.39643099E-02 -3.05138319E-02  4.73793745E-02
 -2.19730569E-02  7.50374085E-03 -9.09704941E-02  3.94533392E-02 -6.73136077E-03
  1.39559848E-01  2.56414693E-02 -2.07094107E-02 -9.07733369E-03 -2.17963803E-02
  5.55948414E-03  1.17422128E-01 -4.58328224E-02 -2.42108778E-02  1.95349194E-02
  8.60644743E-02 -3.45904557E-02 -2.06187206E-02  3.61113132E-03 -2.49042983E-02
  2.26916399E-02  1.60016348E-02 -5.25479351E-03 -3.59694045E-02 -7.03574013E-02
 -2.92584689E-01  5.27208986E-03  9.53777441E-03 -6.34851782E-02 -2.29847524E-01
  2.55201735E-02  6.13665402E-03 -6.78359502E-02 -1.59658170E-03 -4.67466005E-02
  1.34839066E-02 -1.27449297E-02 -1.37417175E-01 -3.19970978E-02 -6.96945770E-02
  3.17693033E-01 -2.21740355E-02  7.04077555E-02 -5.16485077E-02  2.68483882E-01
 -3.71430246E-02  5.96281318E-02 -5.94450608E-02 -2.58741801E-02 -3.72320128E-02
  3.36912359E-02 -1.35567205E-02  2.26053804E-02 -7.87127113E-03 -8.81923620E-03
 -3.10002036E-03 -1.01658670E-02 -4.66027372E-02 -3.62881127E-02  3.31990431E-02
  1.69179633E-02  1.30484698E-01  2.79371974E-02  6.09113121E-02  1.87553742E-02
  5.61738216E-02  1.99699149E-02  2.53515794E-03 -4.56942339E-03 -2.94615060E-03
  1.33495463E-02  4.59677458E-03  2.44182979E-03  2.72780323E-02  1.74878767E-02
 -7.78485518E-03  8.27736316E-02 -8.34032257E-02 -1.17886650E-02 -2.41823875E-01
 -4.51984367E-02 -1.01628055E-01 -9.65086375E-04 -1.43532065E-03 -2.73518114E-02
  6.12235674E-02 -1.58001243E-02 -1.06092579E-02  3.94707809E-02  6.47864769E-02
  4.63166697E-03 -9.14542192E-02  6.49248206E-02  2.30937304E-02  3.65127512E-01
  2.04886346E-01  1.33508723E-01 -9.12413441E-03 -3.04470849E-02  5.25635926E-02
  5.72333576E-03  7.09668632E-02 -1.31430463E-02 -4.34072637E-03  6.31948582E-02
  3.22586069E-02 -1.08122819E-01  9.93562052E-02 -5.73329256E-02 -1.92758375E-01
 -2.41197876E-01 -9.51795139E-02  2.08498697E-02  2.60992048E-02 -1.01094417E-01
  4.12188536E-02 -1.76561159E-01 -1.86726242E-02 -6.01011799E-02 -2.41140691E-02
 -9.88514462E-02 -8.71109708E-03 -1.19068085E-02  1.43279628E-02 -4.81461630E-02
 -6.03308960E-02 -4.83172817E-02  2.09246689E-02  2.95918795E-02  3.14074229E-02
  1.54370868E-03  3.93520768E-02  1.92023818E-02  1.09037771E-02  4.30487553E-03
  4.56277058E-02  5.75612660E-02 -1.39059822E-02 -6.11397255E-03  1.59745532E-02
  3.47775709E-02  1.91773108E-01 -7.52901780E-03  1.07536999E-02  1.71871498E-01
  6.63763911E-03 -2.77032756E-02 -2.79508880E-02  9.23975415E-02 -6.48004392E-02
 -2.09962489E-02 -1.37911406E-02  2.35306752E-02  1.05264624E-02  1.31698450E-01
 -6.87839441E-02 -2.05298931E-01 -1.23994708E-01 -2.48443219E-02  1.12793118E-02
 -5.35998793E-04  1.10481879E-01  2.68556144E-02  9.12714419E-03  2.57825051E-03
 -9.17682961E-02 -1.59617019E-02  6.73703139E-02  1.43932755E-03 -3.04651978E-02
 -5.86532262E-03  2.18144279E-02  7.65599679E-02  4.35470615E-02 -3.78168143E-02
 -1.05881230E-02 -1.48186221E-02 -4.48510670E-03  3.97047829E-02  3.51331055E-02
  3.73330276E-02  5.62190672E-02  7.17708782E-02 -1.13082440E-01 -8.28570631E-02
  1.53986242E-01 -1.36540388E-02  8.25189631E-03  7.72725452E-03 -6.06179931E-02
 -9.87844477E-02 -1.27947721E-02  9.01132015E-03 -7.69417472E-02 -8.74756885E-02
  2.35433167E-02  6.33339204E-02 -5.80179566E-02 -1.54576689E-01  8.46776702E-02
  4.66377435E-01  5.65601704E-03  1.64154929E-02 -2.10056896E-02 -4.61442573E-03
 -3.53281929E-02 -1.19582855E-03  2.09613823E-03 -2.71601479E-02 -2.97395448E-02
  1.47712899E-02 -2.58426338E-02  4.55817917E-02  1.05244935E-01  1.53790962E-01
  1.40772040E-02 -4.42191070E-03 -4.76584678E-03 -7.00111960E-03  2.37632257E-02
  1.17521564E-01  3.08373734E-03 -5.48666822E-03  2.75386227E-02  7.90651590E-02
 -3.31799806E-04  1.26332149E-02 -9.23478173E-03  1.53682155E-02  5.03869059E-02
  2.72575589E-02 -4.35567290E-03 -3.63447408E-03 -2.28122687E-02  1.65611229E-02
 -1.03769221E-02 -6.38897520E-03 -7.29175658E-03  1.29830112E-02 -1.37407083E-02
 -1.28460722E-02 -1.04603937E-03  9.95436742E-03  9.01340601E-03 -1.34651164E-02
 -8.35335725E-02  1.17410524E-02  1.20018727E-02 -6.93871078E-02  9.10143460E-04
 -5.18826102E-02  1.23850261E-02 -2.96252544E-02  9.50370124E-03 -6.24472868E-02
  2.69765301E-02 -5.52657768E-02  4.59498901E-02  9.42843651E-03 -1.47183588E-01
 -4.32556775E-01 -4.40889772E-02 -2.97380266E-02 -3.96055718E-03 -2.05896216E-02
 -3.88530652E-02 -3.30620734E-02 -1.33115620E-01 -2.81265422E-02  3.83775444E-02
 -8.48174165E-03  1.19640914E-01  8.90516149E-03 -1.61836313E-01 -2.25355079E-02
 -3.78981894E-03 -2.52641412E-02  1.87163284E-02  1.52567027E-02 -1.77795726E-02
  8.06926023E-03  3.11096385E-02 -2.04611012E-02 -2.98386065E-02  2.79587755E-03
 -5.38820296E-02 -5.59265126E-03 -9.21932490E-03  4.66814491E-02 -9.35465168E-02
 -2.96592629E-03 -2.48305709E-02 -9.62283875E-02  6.42399144E-03  1.52427269E-02
  1.31207787E-02 -6.17347409E-02  9.57585268E-03  3.17762525E-02 -8.15942860E-02
 -3.23768464E-02  5.82308431E-02 -5.67576473E-02  3.63111262E-01 -7.85622324E-02
  3.89394200E-02  4.07642352E-02  1.47755204E-02  2.24059039E-02  1.44751995E-01
  3.16194419E-02  1.07658817E-02 -3.84092689E-02  1.09809687E-01  1.59611636E-01
 -6.23309993E-02 -2.80731330E-02  1.54389891E-02 -2.60331257E-01  3.32660799E-01
 -6.66233240E-02 -7.48934658E-02  7.29319210E-02 -1.96026840E-01  5.89289010E-02
  2.37129894E-02  1.25232898E-02 -1.52457959E-02  6.86015671E-03  2.66629714E-03
 -3.57759985E-02  3.02814569E-02  1.51273417E-02 -5.69168303E-02 -4.93503265E-02
 -4.36415827E-02 -5.57326339E-02 -3.56722510E-03 -1.05474185E-01 -2.27522698E-01
 -2.48582399E-02  3.66247345E-03 -8.69253876E-02 -1.65835366E-01 -1.08062808E-01
  6.42540938E-02 -1.44522181E-02 -8.95416732E-02 -1.12893366E-01 -2.40185024E-01
 -1.31815170E-02 -3.27348081E-02  3.37017949E-02 -2.20029729E-02 -5.22043389E-02
 -3.55539150E-03  3.84275208E-02  6.66191849E-03 -3.61515471E-02 -3.21716976E-02
 -2.93449052E-02  6.97027004E-03 -5.84488838E-02  3.65813327E-04 -1.24493017E-01
 -4.01617399E-03  5.51630329E-03  9.29795672E-03  1.18281135E-02  1.84557106E-02
  1.12730894E-02  7.33256076E-02  3.42554270E-02  1.40377055E-01  3.13540631E-02
  3.05429729E-02  1.69349677E-02  1.53059204E-03  1.36926373E-02 -1.48438377E-03
 -1.19941240E-03  2.56900897E-03  6.89116202E-03  7.02920204E-03 -6.01615903E-04
  2.45005803E-04  1.02258259E-02  4.51739193E-03  1.25737780E-02 -4.00132402E-03
 -1.05361192E-02 -5.05906024E-02 -2.87368520E-02 -8.76095206E-03 -5.42282112E-03
  4.58099951E-03  4.64500154E-02  3.61620705E-02 -4.98968971E-03 -9.53289489E-03
  2.33326406E-02  2.02546574E-02 -5.30924797E-03  2.08425889E-02  1.01529942E-02
 -1.80084979E-02  1.22909950E-01 -1.13911997E-01  2.57921176E-02 -3.10389018E-02
 -2.61316585E-02  1.69039927E-01  5.67535922E-02 -2.24574428E-02  2.48774068E-03
  1.42144875E-03  2.03359930E-04 -6.14240209E-03  2.48120049E-02 -9.07618100E-03
 -5.42165054E-02 -1.15206439E-01  2.01551547E-01  8.48753121E-02  1.09584069E-02
  1.01438869E-02 -4.36244685E-01 -4.12129152E-02  4.62866673E-02  9.21723049E-04
 -3.23681650E-01 -3.43734021E-02  4.35803663E-02 -7.05331986E-02  4.49675250E-02
  2.93297255E-02  4.76166704E-01 -1.83993157E-01 -9.81036438E-02 -1.04452962E-02
 -1.33117441E-02  4.57161556E-02 -9.09673204E-02 -5.35880636E-02  4.53382232E-03
  5.14095024E-03 -8.65795664E-02 -4.13270363E-02 -1.72932278E-02 -3.24119004E-03
  2.14183591E-02 -8.35713405E-02 -9.82627978E-02 -1.74423244E-01  3.75285047E-03
  1.05855827E-02 -4.58419504E-02  4.29882830E-02 -1.23816300E-02  4.82573302E-04
 -3.42087517E-02 -8.09042201E-03  2.24593398E-03  1.40911305E-02  1.88970848E-02
 -1.82307354E-02  5.24204626E-02  1.65825910E-02  5.92143578E-02 -1.65897052E-02
 -1.43507051E-03 -1.68574170E-03  3.38677806E-04  1.41380728E-02  3.45323099E-03
 -9.88578054E-03 -3.26580095E-03  2.53630260E-02  4.96440277E-03 -4.42867761E-02
  1.51034459E-02 -1.09766848E-02  3.10883266E-03 -5.30619942E-03  3.64022148E-03
  1.52938450E-02  7.59845793E-02  3.45939213E-02 -3.70372444E-03  1.63360277E-02
  7.49305599E-02  3.17855905E-02  4.06595347E-02 -3.01221855E-02  1.08635867E-03
 -3.15185382E-01 -1.02038711E-01  2.10451356E-02  2.17342712E-02  6.59199641E-02
  8.95945456E-02  7.76510790E-03  4.67213138E-02 -1.13892216E-02  9.62906278E-02
  2.47558694E-02  1.06457696E-02 -1.02399903E-01  1.66536639E-01  7.23612874E-02
  1.30191999E-01 -1.53797221E-01 -4.60432592E-02 -1.71975420E-02 -3.82792723E-02
  1.02284374E-02 -6.71491329E-02  1.22267189E-01 -8.60772023E-03 -3.77397523E-03
 -1.18034719E-02  1.35322731E-02 -5.34149226E-02  2.13652918E-02 -4.68615859E-02
  2.48688502E-01  9.20897287E-02  3.94135435E-02 -8.18977202E-03 -5.11234340E-03
  5.86798069E-02  6.76921880E-03 -9.64697591E-02 -1.46918954E-03  7.41005137E-02
  2.31046737E-02 -7.07709150E-02  3.74081753E-02  6.48342892E-04 -3.02474095E-02
 -1.62900131E-01  1.87578696E-01  1.33953666E-01 -3.71528476E-03 -2.78591301E-03
  4.15084979E-03 -1.43634651E-01 -9.72289133E-02 -1.84561782E-02  3.66565813E-02
 -6.17855656E-02 -8.08093967E-02 -1.84258967E-02 -2.87684826E-02  2.52910913E-02
 -7.96726565E-02 -1.52367358E-01 -2.35065693E-01  3.36797663E-02  6.18619159E-02
 -1.85297508E-01 -6.88700462E-02  1.14661176E-02  1.41526192E-02 -1.29277512E-01
 -9.34534224E-02 -6.32912397E-04  1.15170502E-01  7.38434299E-03 -2.47425549E-02
  3.46509847E-01  9.34106303E-02  1.09932390E-01 -9.34032883E-02 -3.03005066E-03
 -7.88515625E-04 -2.88785286E-03  6.71198699E-02  6.10368804E-03  3.97412090E-02
 -9.84651323E-03  4.01685631E-02  8.73236080E-04 -7.10555601E-02 -2.72028044E-02
 -7.16047806E-02 -1.46696200E-02 -4.41918570E-02 -4.78725721E-02 -2.63961769E-02
  6.14013983E-02  4.71243326E-02 -7.05022473E-06 -2.00578301E-02  2.95192185E-02
  3.35254099E-02 -4.67542833E-02 -1.23897253E-02 -2.73464705E-02  3.03534138E-02
  1.82423392E-02  9.91085787E-02  7.27246539E-02  7.68652676E-02  2.33843165E-02
 -1.38785516E-02  4.27122399E-02  4.70614510E-03 -4.18599236E-02 -2.05250464E-02
  2.46419929E-02  8.80099908E-02 -4.76999864E-03  5.43445947E-02 -1.62420154E-01
  1.92043229E-01 -4.38283090E-02 -1.96571457E-01 -1.01136704E-01 -4.58357716E-02
  5.67316420E-02  8.37184941E-02 -1.82927613E-02  1.43771508E-02 -1.74707711E-02
  4.21705463E-02  1.05573979E-01 -1.14431592E-01 -1.03450644E-01  7.07361203E-03
 -8.50908329E-03 -2.48153796E-01  5.98055255E-02  3.60844414E-02 -6.67211793E-02
  6.07479117E-02 -2.92433876E-01 -6.46111628E-03 -3.15336525E-02  3.30431822E-03
 -1.84347569E-01  5.60537976E-02  2.22846668E-02 -9.96371504E-02  6.87086078E-02
 -1.98843088E-01  3.32604515E-01  4.67724957E-02  4.58104803E-02 -2.20437697E-01
 -1.85736340E-01  7.38046244E-02 -7.83093498E-03 -9.74295978E-02 -9.03924479E-02
  5.60166989E-02 -2.23806851E-02  4.33915553E-02  1.75496764E-03 -2.22739291E-01
  2.21915667E-01 -4.45273441E-02 -2.82544573E-02 -4.15314356E-02 -1.03922410E-01
 -6.39404308E-02 -4.90673036E-02  1.06506636E-02 -3.44446421E-02 -4.55722956E-03
 -2.43475038E-02 -1.39324707E-02 -2.33106404E-02 -1.58875621E-02 -3.45372402E-02
  2.21628771E-02 -6.72630565E-02  4.48490201E-02  2.42518880E-02  2.72668205E-03
  2.22712883E-02 -7.01222866E-04  1.91332924E-02 -3.19627915E-02 -3.06038671E-02
  7.94920081E-02 -3.80161338E-02  6.82643620E-03  1.92780195E-02 -1.12047151E-03
  2.07108115E-02  4.07704260E-02  3.08926749E-02  2.74528073E-02 -8.59623241E-02
 -6.81724015E-02  2.61885890E-03  2.32263589E-02 -7.23349379E-02 -6.23270783E-02
  3.70926496E-02 -3.29145966E-03  1.60891541E-02  1.37416326E-01  7.57849302E-02
 -2.05282899E-01 -4.73567115E-02 -7.67452655E-02  5.03823601E-02  3.95673322E-03
 -6.86531106E-02  6.78059604E-03 -8.34726656E-03  2.00026153E-02 -6.38057984E-03
  3.70897156E-02 -9.02578238E-02 -9.54192376E-02  8.14069279E-02 -2.32312028E-02
  4.89174601E-02 -5.06123750E-02  9.61484303E-04 -7.83129275E-02  2.01877567E-01
  1.20312166E-01  5.43219460E-03 -2.12545248E-02  2.33748204E-02  1.63075413E-02
 -8.88276742E-02  6.91031655E-02  5.10134648E-02  2.99712718E-02  2.28537558E-01
 -2.91407739E-02  5.49846666E-02  3.96206999E-02  3.43675524E-02  1.13610100E-02
 -2.36037658E-01  3.43857428E-03  1.79756903E-02 -1.55953784E-02 -1.42311094E-01
  5.97086981E-03  6.72723492E-02 -6.71645045E-02 -8.77398896E-03  1.47449473E-02
  3.83399247E-01  6.80834260E-03  4.71523306E-03  1.34895780E-01 -1.88167721E-02
 -2.21845274E-01  8.55227492E-03  6.78626208E-02 -4.48699922E-03 -1.40565354E-01
  9.24504620E-02 -1.24468590E-01  3.89115318E-02  9.57518540E-02 -3.40154935E-01
 -7.46887265E-02  1.23514487E-02  1.08400850E-02  1.34110122E-01  9.92920795E-02
  1.09837383E-02 -8.25244573E-03  7.39858814E-02  5.40308251E-02  6.49192917E-03
 -3.75565331E-02  1.30547734E-02  3.09060452E-02 -2.00426155E-01 -6.27064646E-02
 -5.05648389E-02  9.08597460E-03 -2.54843814E-02  1.31356770E-02 -2.00287669E-02
 -7.10660641E-03 -1.28618067E-02 -2.03059416E-02  1.65900082E-02 -8.94405293E-02
  5.85814005E-03  3.02030453E-02 -8.84990512E-03  2.38889606E-02 -4.35475896E-03
 -1.06383513E-01 -8.93693999E-02 -8.99134401E-02  1.35724788E-01  1.39859747E-01
 -2.62501772E-03 -7.27880127E-02  9.62655143E-02  1.16739394E-01 -9.95777250E-02
  1.39437840E-02 -6.66968217E-02 -2.08860778E-02 -1.09873070E-01  4.27855271E-01
  8.02968716E-02  1.07096777E-01 -1.28335644E-01  7.42584583E-02  3.27820480E-02
 -1.66311599E-02 -4.88671369E-02 -9.66742898E-03  2.88559580E-03  8.76205956E-02
  3.13483799E-02  8.40124705E-02 -6.68017896E-02  3.78291076E-02 -7.01134563E-04
  2.49760637E-02  5.05794319E-02  1.00671931E-01  1.45179321E-01  6.76194752E-02
 -3.78544132E-02 -1.55889335E-02  3.95599563E-03  4.43058807E-02  4.75276682E-02
  4.52928075E-02  1.14134699E-03 -5.19059137E-02 -7.14196523E-02 -4.77722339E-02
  2.30277587E-02  1.51901843E-02  1.30181700E-02 -3.30271254E-02 -1.13454568E-01
 -4.84111372E-03 -8.96946721E-04 -3.45019736E-02 -4.94361027E-02 -1.98955006E-02
  4.72693635E-02 -2.76690296E-02  1.18026160E-02 -1.68723798E-01  2.13081309E-04
 -3.40212385E-02 -1.57160967E-02  5.61187094E-02  1.95366860E-01 -1.45382885E-01
 -6.44926798E-03  5.46394756E-02  1.35125463E-01 -8.25328294E-02  2.47428753E-02
  1.64651018E-02 -3.56428471E-02  4.45104762E-01 -2.14610853E-01 -2.98171310E-02
 -7.30201616E-02 -6.06800593E-02 -4.54768740E-02 -9.68083468E-02  1.46348668E-02
 -7.15006341E-03 -3.45426789E-02 -3.83790725E-02  1.19640954E-02 -6.21706034E-02
  3.28262215E-02 -3.35083544E-02  8.46267061E-02 -3.57856455E-02  3.45527938E-02
  5.96507821E-02  4.60375073E-02 -2.94344806E-02  5.01430056E-02 -1.76146776E-02
  3.77921675E-02  5.89989521E-03 -3.78498009E-02 -5.91306294E-02  5.88635030E-03
  1.67608233E-02  2.36058086E-02  4.86572976E-02  1.87370314E-02  9.01063217E-02
  7.16543976E-02  2.43075782E-02 -1.00207434E-01 -1.20818931E-01 -4.84590274E-03
  1.89491472E-02 -7.36243803E-02 -1.09036620E-01  2.61284623E-02 -3.18977038E-02
  1.27703541E-01  1.97266363E-01  4.61813965E-02 -3.61315158E-01  3.12367518E-02
  2.47377201E-02  1.41924336E-02 -1.11553798E-01 -3.90357425E-04 -1.14918744E-02
 -2.76505657E-02  4.20196306E-02  1.35019752E-02  3.06709116E-02  7.85603631E-02
 -7.03396604E-02 -2.18294515E-02  1.53194269E-01 -1.52786963E-01 -1.94292869E-02
  1.85069079E-02  6.80057449E-02  2.17072150E-02 -8.04874637E-02 -5.11820105E-02
 -1.45102652E-02 -4.17138182E-02 -1.16145130E-02  1.35198324E-01 -2.67907943E-02
 -6.39418545E-02  7.12855661E-02  6.01873104E-02 -1.76510445E-01  3.81876016E-02
  1.77829018E-02  6.07626286E-03  2.84305396E-02 -1.24679615E-02 -7.50503638E-03
  5.37311199E-03 -1.48320899E-02 -7.31408581E-03  1.13467809E-02  2.09969827E-02
 -4.79458702E-02  9.40400024E-02 -2.33094454E-02 -4.72461247E-02 -3.74883007E-02
 -1.19289317E-02  1.41096681E-02  1.13961952E-01  4.13913336E-02 -1.72092755E-02
  5.36954348E-02  1.00374860E-01  1.01316864E-02 -4.77204803E-03  5.97152203E-02
 -5.29738594E-02  3.69793531E-01  1.00079371E-01 -1.55742558E-01 -3.77712659E-02
 -2.46299880E-02 -5.95437918E-02 -1.68405280E-01 -1.00068192E-01 -2.69969022E-03
 -4.71427547E-02 -1.17330302E-01 -5.71578842E-02  2.54041418E-02  5.91228792E-04
 -4.80714368E-02  3.55424908E-01  1.54115773E-01 -1.41052029E-01 -1.16187227E-02
 -5.84588718E-02  8.57579780E-02 -3.91980505E-02 -3.72186979E-02 -4.16540590E-02
 -6.38356597E-02 -3.25855607E-02  1.29872686E-02 -1.88139132E-03  4.51527519E-03
  3.42772094E-03 -6.44216536E-02  2.60848435E-02  5.42174940E-02  5.09424026E-02
  6.34715423E-02 -1.80274080E-02 -2.60154442E-02 -1.35870563E-03  4.16798331E-02
 -1.89552293E-04 -1.28627266E-03  5.96491358E-02  4.52147784E-02 -1.41895690E-02
 -1.90146275E-01  4.97950718E-02 -3.83492157E-02 -9.75081787E-02 -7.25250793E-02
  3.83568546E-02 -3.56802982E-02 -2.83506963E-03  9.92124304E-03  6.13273649E-02
 -4.24375343E-02 -1.23533956E-02 -1.58923616E-01 -1.44160298E-02  5.41939930E-02
  1.40643879E-02 -1.70748977E-01  6.48650282E-02  4.08749541E-02  1.73931093E-02
  8.41073308E-02  5.15148155E-02 -2.91050726E-02  7.43013775E-02  1.46423145E-02
 -6.58898808E-02  1.81173748E-03 -1.40073074E-02 -2.21435985E-01  2.61548658E-01
  1.69394483E-02 -1.48709067E-01  1.23543240E-01 -1.28869536E-01 -6.66588363E-02
 -6.76566004E-03 -9.17016519E-02  3.11272058E-03  2.60181916E-02 -3.33111717E-02
  4.47126325E-02 -8.15762043E-02 -9.04527575E-04  4.80996222E-02 -8.57169000E-03
  6.81844667E-03 -3.13392265E-01  3.76895887E-01 -1.59266330E-01 -9.79118655E-02
  1.15158912E-01  1.53396601E-01  9.69165591E-02 -1.01386757E-02  4.36389954E-02
  6.36615692E-02  6.41333422E-02 -8.81440214E-02  9.40389359E-02 -3.71908265E-02
  2.07068001E-01  2.63937018E-01 -1.54119676E-02  8.58283230E-02  5.50018336E-02
 -3.17828892E-02  9.02309860E-02  1.60573103E-02  1.10116195E-02 -1.47667557E-03
  4.03900100E-02 -8.15101704E-04  8.24379984E-02 -5.81950573E-02  2.52720882E-02
 -4.42036625E-02  6.15380046E-02  5.69130954E-02 -5.01704483E-02 -7.71579048E-03
 -5.06187781E-02 -2.27351008E-02  2.98589669E-02 -1.97022809E-02  8.18047317E-02
  5.42311597E-02  5.97214557E-02  5.15909059E-02 -4.09820332E-02 -1.52307187E-02
 -6.07136823E-02 -1.75657889E-02  2.16855059E-02  2.17614592E-02 -7.51403139E-02
 -1.12256892E-01 -2.70276079E-02 -2.45024223E-03 -1.90699317E-02 -6.51202113E-02
 -1.28486686E-03  3.40474277E-03  6.01458167E-02 -2.40683357E-02  3.10509983E-01
  1.19747304E-01  4.80070393E-02  9.18013493E-03  1.21615448E-02 -1.49955331E-01
 -1.47887836E-01 -7.91202413E-02 -2.55254920E-03  1.08271030E-02 -4.66139817E-03
 -1.06408477E-02  3.65868859E-02 -1.52075819E-02 -2.32183509E-03  1.40831763E-02
 -1.26658369E-01  6.40676649E-02  4.05325661E-02  1.36003655E-02 -6.45620480E-02
  2.66969704E-02  5.21648373E-02  6.12086408E-02  3.34373643E-02  1.43881254E-02
  5.63655959E-03 -1.27756151E-01 -2.31369036E-02  1.72512779E-01 -1.03189541E-01
 -7.36823928E-02  2.14725086E-01 -7.92334096E-02 -3.19077434E-02 -2.97408740E-02
 -4.67357979E-02  1.85562378E-02  1.40441860E-02 -3.46640023E-02  2.47316544E-02
 -1.32842012E-02 -3.18108469E-02  9.58747407E-03  5.48047610E-02 -5.13238189E-02
 -1.32522566E-01  1.70695380E-01  1.38082080E-02 -3.10547388E-03 -9.19857675E-03
  2.36355349E-02 -5.05456256E-02  2.06807677E-02 -5.85610867E-02 -4.19221421E-02
 -8.05276231E-03 -5.50840143E-03 -4.10460757E-02  4.85690973E-02 -2.58131097E-01
 -1.12385410E-01  2.60670256E-01 -1.44759830E-01 -9.04940388E-02 -1.00802304E-01
 -1.81244720E-01 -1.96490911E-02 -1.07518370E-02 -8.13636015E-02 -1.12310077E-01
 -5.79178803E-03 -5.23935405E-02  3.85437091E-02 -6.91478979E-02  4.68483620E-01
 -1.20774888E-01 -3.49878843E-02  6.27096128E-02 -1.56278283E-02 -3.41325277E-02
 -6.74857068E-03 -9.26352399E-03 -8.45120656E-03 -8.12561465E-03  1.39342233E-03
 -2.86585926E-02  2.27501842E-03  9.01832851E-03  3.97279177E-02 -4.69239119E-03
  4.95045085E-02  4.11081260E-02  2.96608201E-02  5.39785050E-02  8.11016706E-03
  1.84235484E-02 -2.44569354E-03  6.06688947E-02  2.16219129E-02  1.72474489E-02
  1.64977220E-02  1.73398376E-02  1.63531801E-02 -1.58868882E-01  2.66637589E-01
  1.01409642E-01 -3.06293154E-02 -2.29110574E-02 -2.98376370E-02 -3.09470870E-02
  6.83698817E-02  4.43293976E-03 -6.74511758E-03 -4.34107930E-02  1.03846822E-02
 -7.97813162E-02 -1.79285590E-02  5.94800552E-02 -1.59101132E-01 -1.16622627E-02
 -1.07667853E-01 -1.21814348E-01 -3.80388818E-02  2.48781783E-02 -8.60586266E-03
 -5.21549038E-02  1.61523488E-02 -1.16901770E-02 -1.43565140E-02  1.04164745E-02
 -4.58970769E-02  3.48479564E-02 -1.84419272E-02 -3.96911533E-02 -1.21223659E-02
  9.21140140E-02  5.69861804E-02  2.23084902E-02  5.38004001E-02  1.51555272E-01
  3.18345628E-02  4.13344520E-03 -5.18758906E-03  8.03931226E-02  1.81045011E-02
  3.19842673E-03 -8.43613584E-02  7.53462357E-02  2.08928771E-01  4.05524025E-02
  6.12338239E-02  1.17935748E-01  5.19391680E-02 -1.28003256E-01  9.44109303E-02
 -9.43584513E-02  1.64800503E-02 -6.49551994E-02  3.51930730E-02 -4.39749746E-02
  3.95142056E-04 -2.30208181E-02  3.06350282E-02  7.19887381E-03 -2.32145127E-01
  3.02496567E-01  1.02650760E-01  3.83416623E-02  1.00864349E-03 -4.01390027E-02
 -1.36756847E-01  1.76606009E-02  3.46944436E-02  3.06304646E-04 -1.01471547E-01
  5.90742976E-02 -7.25675998E-02  3.17908363E-02 -3.37114501E-02  5.47871904E-01
 -1.55091729E-01 -5.24744771E-02 -6.94276665E-04 -2.75996059E-02 -1.22772745E-02
  4.03394188E-02 -2.43191080E-02  4.58787375E-02  1.28799542E-02 -9.10579533E-02
 -1.02019604E-02  2.30830928E-02 -2.72691598E-02 -1.26514141E-01  4.34204030E-03
 -2.14638147E-02 -3.98737314E-03  1.62705251E-01 -3.65924168E-02  3.11947418E-02
 -1.84751341E-03  9.23892002E-02 -3.71245030E-02  2.81104482E-02  8.78190937E-02
  8.79103934E-02 -1.76610435E-01 -1.76738244E-01  5.92772970E-01 -9.74020933E-02
  1.09237979E-01  1.68910449E-02  2.74285925E-02 -1.68667285E-01 -2.16607664E-02
  1.22202081E-02 -1.12484033E-02 -6.32806701E-02  2.65547146E-02 -3.24138987E-02
 -1.82215201E-01  2.07610993E-01 -8.53304091E-03 -2.62856768E-02  1.46484730E-01
 -6.34597761E-02 -3.01980324E-02  8.15553619E-02 -3.27713667E-02 -1.55028411E-02
 -2.47893735E-02 -2.83982689E-02  2.24022322E-03  1.26139622E-02  2.75081695E-02
  2.54547773E-02 -9.91186765E-02  3.75570750E-02 -1.02307062E-02 -7.35750408E-02
  6.28061723E-02  2.11895879E-02  2.31164552E-02  5.89936274E-02 -2.85485118E-02
 -1.01946185E-02  2.42662562E-02  3.72991462E-03  9.03827240E-03  1.77884917E-02
 -3.34350024E-02 -7.17545374E-03  4.60922465E-02  5.03584584E-02 -1.13198943E-01
  4.29275560E-02  2.32586195E-02 -5.18716418E-02  1.70167668E-03 -1.65545764E-02
 -7.15261346E-03  8.32506959E-03  2.65582360E-02 -1.30277192E-02 -4.64294670E-03
  2.13052199E-02 -1.65960894E-02  1.28116337E-01 -1.67452020E-02 -6.04267856E-02
 -1.17349912E-01 -7.62023113E-02 -1.66575728E-01 -1.50311253E-02  6.22160076E-02
  1.97062538E-03 -5.66936882E-02  2.00094516E-02  4.08946456E-02 -4.54356176E-02
 -1.82403835E-02 -7.97440659E-03  4.41193640E-03 -3.29805021E-01  8.91476164E-02
  4.25764254E-02  2.24107783E-02 -1.01814598E-01 -1.44202070E-02  1.32931154E-01
 -9.43825217E-03  8.52579031E-02  1.13491490E-02 -4.19360277E-03 -1.37872455E-02
 -1.07569980E-02  3.62213620E-02  5.95288212E-02  1.75703145E-02  4.55879816E-02
  2.53922922E-02  1.26641019E-02 -4.45016059E-02  6.68454177E-02 -7.49801854E-03
  2.94930962E-02 -6.96029124E-03  3.72498703E-02  3.28422487E-02  3.93801920E-02
 -3.21166176E-02  3.96686989E-02  3.34198039E-01  2.00500356E-01 -5.74822206E-02
 -1.14386898E-02 -1.84709722E-02  1.45533879E-02 -8.95183776E-03 -8.64964021E-03
 -2.23605770E-03  1.06402865E-02 -1.10701017E-02  9.98442948E-02 -9.40221929E-02
 -9.83106394E-03  6.01895747E-02 -1.68340788E-01  7.65329850E-03  2.62596834E-01
  4.26758272E-02 -1.95912197E-02  4.78470831E-02  1.00883935E-01 -1.93539215E-02
 -6.91459534E-03  6.78204638E-02  1.96474777E-03 -2.38655483E-02  6.56808958E-04
  9.43928500E-03 -4.57983270E-02  1.00121467E-01 -1.52275811E-01  1.09020392E-02
 -8.51416806E-05 -4.00981180E-02 -1.99321201E-01 -7.65835929E-02 -1.46676064E-02
  6.10202680E-03 -1.43475473E-01 -1.33177338E-02 -5.74982953E-02  1.55073588E-01
 -1.24391034E-01 -2.93392953E-01 -1.47120769E-01 -2.22716872E-01 -7.97837174E-02
 -2.70430247E-02  1.36693763E-01 -1.18609320E-01  3.25279752E-02 -1.19466813E-03
  3.98906274E-02 -6.23374936E-02  1.81329065E-02  6.40814866E-02 -4.44803677E-02
 -6.56846016E-03 -1.07596710E-01  1.14138305E-01 -2.19777597E-01  2.05004441E-03
  6.96643168E-03  1.09729077E-01 -4.03636980E-02 -1.05826434E-01 -7.29326373E-03
  3.76237264E-02 -2.56083406E-02 -7.24584639E-02 -6.91005668E-02  4.83524176E-02
  3.05091105E-02  1.40632042E-03  3.57155926E-01 -1.70036212E-01 -8.43549551E-03
 -1.31257583E-02 -4.70747771E-02 -1.42058268E-02  3.80334922E-02 -2.32682395E-02
  2.95767684E-04  1.17650884E-03  4.38966850E-02 -7.01114930E-03  7.37306203E-02
 -1.81000147E-02 -4.14369053E-02  8.41517930E-03  1.45911454E-01  6.23411385E-02
 -7.63327614E-03 -6.04128798E-03 -4.09600620E-02 -7.94969053E-03 -1.12224454E-02
 -4.62865016E-03 -1.50847934E-02  1.85242466E-02  3.96857110E-02  2.90847006E-02
  1.16488258E-02 -1.11124341E-01 -1.03819562E-01 -3.80282020E-02 -8.87363228E-03
  1.23728329E-01 -9.87851232E-02 -4.95658589E-02 -6.06915241E-03  1.52905898E-02
 -3.76985237E-02 -8.13610348E-03 -9.44012377E-02  5.28776876E-02  3.53457657E-02
 -1.12809493E-01 -4.97406461E-02  2.71854582E-02  8.99340468E-02 -2.68008566E-03
  4.22944808E-02 -1.92481701E-02  1.20670315E-01 -2.75023415E-02 -2.77199976E-02
 -9.01866702E-04  6.71310516E-03  5.43804338E-02 -6.20039713E-02 -3.47135947E-02
 -3.18896724E-02  1.14208285E-02 -5.74684875E-02 -4.09577559E-02 -8.92777413E-03
  3.60520715E-02 -5.33489316E-02 -4.69555167E-02 -1.12736256E-02  4.83958034E-03
 -5.61831439E-02 -9.49028719E-03 -1.76201377E-02  8.63482432E-02 -6.39465112E-02
 -1.72593528E-01 -4.07787555E-01 -2.03082501E-01  5.96103875E-01  1.29556819E-01
 -1.17318025E-01  6.70871536E-02 -4.54472566E-02  2.10219432E-03 -5.39792944E-02
  1.55140239E-02 -1.69794363E-02 -8.56325238E-02 -3.08221023E-02 -3.74383751E-02
 -2.24548950E-03 -1.59395366E-01  1.68311476E-02  2.58353559E-01  6.25276356E-02
 -2.97592302E-02 -6.59023043E-03  4.92033195E-02  1.03021689E-02  2.27719438E-03
  1.76137034E-02  2.05425689E-02  1.05969731E-01 -1.02976035E-01 -1.06606494E-02
 -8.60130923E-03 -1.01609677E-01  6.71688135E-02 -7.38685526E-03 -3.37873294E-02
 -1.61000670E-02 -3.28409280E-02 -3.41346120E-02 -2.61111724E-02  4.79731524E-02
  3.21507319E-04 -3.80106355E-02 -4.90751744E-02 -5.49088179E-02 -2.19820721E-02
 -3.93700418E-02 -3.67465545E-02  1.18463745E-01  3.48976734E-02 -1.91607559E-02
 -1.42285952E-02 -1.69262950E-02 -3.55802109E-03  2.59345181E-03 -2.55284439E-03
 -3.10491995E-03  1.80712604E-03 -5.96103268E-03  4.16676924E-02  4.00342741E-02
  1.58251082E-02  2.95805780E-02 -7.15709222E-02 -1.04565374E-02  3.51007624E-02
 -7.65409941E-02 -3.24064051E-02 -5.63791230E-03  1.02296141E-02 -1.35124629E-02
 -7.70337471E-03 -5.90377361E-02  5.77218133E-02  1.83714276E-03 -1.27705480E-01
  1.67887608E-02 -9.86582023E-03 -6.56235237E-02 -6.70876729E-03 -5.40372633E-03
  1.74503042E-02  3.06994164E-02 -9.88008233E-03  1.82031703E-03  2.32133120E-02
 -1.75121357E-03  2.81117573E-02  1.92621898E-02 -3.73661354E-02 -1.20226160E-02
 -5.39491942E-02  5.51793906E-03  5.98651143E-01  8.75308309E-02 -3.61236504E-03
 -1.99482370E-03 -5.67210543E-04 -1.00206261E-02 -2.48459616E-03  1.29871580E-02
  1.49776598E-04 -5.63619529E-02 -9.33616335E-02 -6.33006486E-02 -8.63099700E-02
 -1.74836777E-01 -1.10034026E-01 -4.80460227E-01 -6.98481789E-02 -7.51393762E-03
 -3.45564459E-02  2.02262346E-02  2.82504465E-03  1.25547089E-02  2.25660662E-03
  7.92553805E-04  5.65874774E-02  6.12311944E-02  4.93884183E-02 -7.89363122E-02
 -1.40356582E-01  8.30593964E-02  3.78554295E-01  7.11297852E-02  5.61085937E-03
 -4.86963274E-02  6.15549107E-02  7.54477436E-03  1.16797532E-02  1.04257396E-03
  2.64977420E-02  7.12613324E-02 -7.99927412E-02 -3.28998948E-02  5.83771565E-02
 -1.39968304E-01  5.86387486E-02 -2.41407849E-02 -1.49558687E-02 -5.61369789E-03
 -1.40247591E-02 -1.63564712E-02 -1.82331923E-02  2.92832155E-02  3.03833550E-03
  3.87398919E-04  1.90632845E-02 -5.41724510E-02 -2.88020806E-02 -2.99146381E-02
 -3.81203174E-02  8.45899875E-02  1.67858950E-02 -1.99982128E-02 -4.71252281E-03
  1.41978801E-02  1.92566573E-03 -2.23811354E-02 -1.22028243E-02  1.30745005E-02
  2.38673620E-02  6.25505928E-02 -7.65229587E-02 -7.21659779E-03 -1.72146848E-01
 -2.85137882E-02 -1.72708336E-01 -2.78747991E-02  7.05658239E-04 -2.01794495E-02
  3.41285670E-02  2.36992617E-03  9.63165974E-03 -2.49937803E-02  2.14747340E-04
 -3.67628831E-02 -3.62876651E-02  6.77699978E-02  6.91690063E-02 -4.64737506E-02
  3.74576444E-02  9.40437801E-02  1.06913313E-02 -1.03298866E-02  1.65492891E-02
 -2.60078879E-02  1.92382561E-02 -1.02424446E-02 -1.45451159E-02 -4.38105390E-03
 -2.23315177E-02 -2.69548336E-02  4.95341495E-02 -5.72252891E-03 -6.34491312E-02
  1.13008409E-01  6.42952161E-01  6.60701767E-02  2.88338350E-02 -9.91732281E-03
  4.86699312E-02  5.73978984E-04 -9.25188347E-03  5.86004365E-02 -1.08947253E-02
 -8.22144358E-02 -1.15133181E-01 -3.46779496E-02 -8.41098150E-03  4.50466383E-03
  6.60062457E-02  2.92880541E-01  2.81300388E-02  3.60629359E-02  1.55645492E-02
  2.07511736E-02 -5.75462286E-03 -2.08550314E-03 -7.03886798E-03  9.30974610E-03
 -5.77045484E-02 -1.92655111E-02 -3.83801994E-02  2.61949114E-02  9.74446723E-02
 -1.10494522E-01 -5.06302705E-01 -6.83282116E-02 -3.19281000E-02  6.71839717E-02
 -3.99577457E-02 -1.97337051E-03 -2.49513475E-02  1.38178439E-02 -2.12614604E-02
  1.02053840E-02  2.55873547E-02  6.30273359E-02 -3.13526082E-02  1.17390641E-01
 -7.40398777E-03  2.59592717E-02 -6.20906581E-03 -5.81169487E-02 -1.03276690E-02
 -1.84485642E-02  3.38806131E-03  4.38407365E-02  2.41206156E-02  2.78994168E-02
 -8.88351229E-03  3.90891067E-02  2.22845266E-02  1.06586472E-02  2.99975330E-02
 -2.20143190E-01 -2.46697115E-02 -3.76876607E-02 -5.46009302E-02 -3.75049893E-02
 -4.05917750E-03 -3.35149344E-02 -2.37183427E-02 -9.31127424E-03  2.06977916E-02
  1.11405732E-01 -1.17240679E-01  2.29406078E-02 -2.62800810E-01 -2.81369561E-01
  4.68800392E-01  2.38979526E-02  1.34273074E-01 -7.79298636E-02  2.18495531E-02
  2.58491171E-02  1.74748822E-02 -6.25911095E-02  1.74140189E-02 -1.19994330E-01
 -6.92665487E-02  9.31895961E-02 -1.19998164E-02 -1.50770495E-01  1.27154694E-01
 -3.90868373E-02 -3.50206711E-02  9.81720231E-02 -4.18794462E-02  5.74251039E-02
 -3.53389599E-03 -1.84593533E-02  1.98217828E-03 -1.15024672E-02 -2.20591040E-02
 -1.22909961E-02 -3.53475581E-02  2.74818692E-02 -7.07300415E-03 -3.34453251E-02
 -5.84584620E-02 -7.24580673E-03  2.37696000E-02  1.92897664E-02 -7.89782257E-03
 -6.41508304E-03  1.55440874E-02 -1.93937429E-02  6.93363810E-03  1.00845340E-02
  1.68847010E-02 -1.42450287E-02 -1.47184582E-01 -2.28266317E-01 -1.40768063E-01
 -2.78169873E-01 -2.18958981E-02 -6.82106462E-02 -4.71842007E-03  1.57001079E-02
  4.95498344E-03 -6.90510336E-03  9.06080376E-03 -2.38401821E-03  1.50981146E-02
  5.56939837E-02  4.55871707E-02 -5.16036548E-02 -1.96191332E-01  9.32343960E-02
 -2.64646097E-01 -5.14930409E-02 -9.66721665E-02  1.37482977E-02 -9.79422559E-02
  1.56481836E-02 -1.18628629E-02  3.98387667E-02 -4.26322125E-02  4.60064554E-02
 -6.90503618E-02  5.04568670E-02 -1.57893399E-01  2.03749257E-01 -6.96701389E-02
  9.28408609E-02  1.86763649E-02 -1.76085321E-02 -5.11968366E-03  1.62565204E-02
  2.64859023E-02 -1.62818688E-02  3.57023078E-04 -1.73768832E-02  1.13901141E-02
  3.17188449E-02  2.27022845E-02 -2.85593725E-02  2.27418234E-02  6.73531231E-01
  8.63440007E-02 -2.05899896E-02  5.77356501E-02  5.33566078E-02  3.35688237E-03
 -7.82186331E-03  2.74014169E-03  1.65412513E-02  3.53895936E-03  7.94074760E-03
 -3.03512090E-02 -3.65340658E-02 -7.46674404E-02  7.03522047E-02 -2.79916011E-01
 -1.11906987E-02  6.59665818E-02 -6.47246991E-02 -5.82884432E-03 -1.10195756E-02
 -2.37762702E-03 -2.28275111E-02 -4.17157905E-03  1.21861009E-02  7.81952564E-03
  4.26699976E-02 -1.20803316E-02  4.06249916E-02 -3.93317610E-02 -2.07191044E-01
 -1.08434263E-02 -1.98448332E-02  1.61335943E-03  3.65726515E-02 -2.52733769E-02
 -5.98751614E-03  9.94014698E-04  2.92243455E-03  7.21054891E-02  4.11256564E-02
 -7.62196486E-02 -6.34490546E-03  1.41110233E-02 -9.08433731E-02 -2.69500783E-01
 -2.07929688E-02  2.08986202E-02  3.26803789E-02 -3.09443012E-02 -5.81979366E-03
  1.59132323E-02 -3.52446940E-02  1.66850014E-02  6.08508251E-02  2.35498342E-02
  4.51538187E-03 -2.83524614E-02 -8.04522271E-02 -1.13535982E-01 -2.37905464E-01
 -7.16039886E-03 -6.07473753E-02 -9.44715711E-03  5.66800477E-04  4.13052894E-03
  2.51386193E-03  1.39906263E-02 -7.11004588E-03  4.80070615E-02  3.29601646E-02
  3.07601271E-02 -2.91235180E-02 -1.26377642E-01  5.67440963E-02 -3.71226874E-01
 -2.82424676E-02 -3.54693512E-02  7.41954841E-02  1.89579394E-02 -3.06017908E-04
 -1.64900313E-02  1.57786539E-02  3.73807934E-03  5.61918913E-02  5.31104832E-03
  4.58302665E-02 -3.72650451E-02 -1.37503187E-02  4.65509201E-02 -5.26005217E-02
 -3.86541840E-02 -8.52024821E-02 -4.12555926E-02 -6.35233114E-02 -3.80022822E-02
  5.24088462E-02  3.81540539E-03 -1.58682924E-02 -7.66645706E-03  3.69066704E-03
  8.29353427E-03  1.17118080E-02  4.32753012E-03  5.23541906E-01  3.68205620E-02
 -9.39477018E-02 -1.87151403E-02  1.10718259E-01  7.24695328E-03 -3.44740360E-02
 -4.39569431E-02  4.61767737E-02  5.59474941E-02  6.06823427E-02 -1.94099335E-01
  1.65301116E-01 -1.14675473E-01  8.51793307E-02  5.31186712E-01  1.82794690E-02
  3.01219920E-02  2.82417846E-02 -1.28212605E-03  1.62620032E-02  1.60509349E-02
 -1.80676958E-02  1.79815548E-02 -4.01157188E-02 -1.49471737E-01  6.81073605E-02
  1.47867297E-01 -3.03338272E-02  4.69517244E-02  1.11872124E-02 -3.35605825E-03
  1.30743906E-02  3.40824813E-02 -2.91967812E-03  1.30550099E-02 -5.39065317E-03
  1.43417868E-03  1.11188307E-02 -5.07369600E-02  3.69624067E-02  4.76738798E-03
 -3.09650556E-02 -9.33006621E-02  6.94971833E-02  5.07766835E-02  3.34048738E-03
 -8.59367157E-03  1.37318403E-02  4.25300171E-03  5.32946208E-03  1.30881206E-03
  3.56059435E-02  4.15705379E-03 -1.60797833E-03 -5.65613297E-02  4.65459032E-02
  8.04695890E-02  2.03340542E-01  9.31368441E-02  9.71759134E-02  2.11487223E-03
  4.35807802E-02 -8.02513162E-03 -1.22382141E-03 -4.93962375E-03  1.35595550E-02
 -9.49560021E-03  6.56939088E-03 -2.98098242E-04 -2.02340148E-02 -2.53776754E-02
  4.88209449E-02  1.36678258E-01 -1.21336183E-01  3.10079840E-01  6.12436893E-04
 -1.47805043E-02 -5.70361716E-02 -4.33194353E-02  4.27977741E-04  8.95574644E-03
 -4.58492657E-03 -1.25394064E-02 -9.72912301E-02 -6.91431887E-03 -2.44578001E-02
 -2.52786238E-02  5.21676994E-02 -5.66378852E-02  5.05470203E-02 -2.74987760E-02
 -1.38121733E-01 -2.62288999E-02 -7.61578114E-03 -5.65081603E-03  3.66760031E-02
 -3.90088673E-03  3.12225691E-02 -1.20459276E-02  1.38544235E-02  1.07032435E-03
 -3.72010017E-04  7.99236319E-03  2.50105604E-01 -1.38142473E-03  8.36545293E-02
  1.61077917E-01 -5.01961732E-02  8.28089967E-03  4.80109476E-02  7.29621441E-02
 -5.29122175E-02 -1.36423139E-01 -1.74619777E-01  2.33327947E-01 -2.46218832E-01
  1.77579221E-01 -1.41950969E-02  4.63778732E-01  2.55475529E-02 -1.10889756E-01
  3.84278043E-02 -4.73034071E-02  4.30640458E-03 -2.43300017E-02  4.16136076E-02
 -1.74895052E-02  2.57858851E-02  9.89093493E-02 -2.06315584E-01 -1.15915600E-01
  9.06320982E-02 -1.32701276E-01  3.77548055E-01  1.45025128E-02  1.46432518E-03
 -2.15409247E-02 -2.22720734E-02  1.42000195E-02  2.65826559E-02 -8.35517563E-03
 -2.18381875E-02 -4.15589651E-02 -9.79079937E-02  6.16411212E-02  3.32406860E-02
  1.02140190E-01  3.62507090E-03  1.02701830E-01  3.12657895E-03 -3.28514978E-02
 -5.18524652E-02  2.51617142E-02  3.52814379E-03 -2.46519584E-02 -1.33180082E-03
 -2.78902720E-02 -5.70377117E-02  7.80279608E-02 -5.12200340E-02  1.11395401E-03
 -6.60288198E-02  7.42845591E-02 -8.39112473E-03 -4.91802428E-03 -1.58508183E-02
  4.98234553E-02 -1.54825441E-02  8.89809244E-03 -2.91860078E-02 -6.95654423E-03
  4.91391678E-04 -2.48910520E-02  6.31117011E-03  2.41209042E-02 -7.01086629E-02
 -4.54202099E-02  1.50084797E-01 -2.21345709E-01  1.15305158E-02  7.32461428E-03
  4.87966634E-02  9.48762437E-02 -1.44248049E-03  2.91007307E-03  1.14190097E-02
  2.22138893E-02  5.80700776E-02  5.30524045E-02  3.53676567E-03 -4.64496592E-02
 -8.70607726E-02  7.05132517E-02 -1.38726275E-01  8.48344123E-03  1.41422258E-01
  1.28581316E-02 -4.30532809E-02 -2.08409932E-02 -1.22217971E-01 -3.00996865E-02
 -1.68522258E-02  1.93027258E-03 -6.21055711E-03 -1.63740428E-02  2.96095153E-02
 -1.51475569E-02  2.33174234E-03  8.34323625E-03 -2.39524252E-02 -3.31037019E-02
  2.08583117E-02 -3.38967747E-03 -2.86656878E-02 -2.08703746E-02  2.25628727E-02
  3.79534504E-02  1.14037906E-01 -1.33884504E-01  7.20908842E-03 -1.65343790E-01
 -8.38325873E-02 -2.13526140E-01  2.91909711E-03  1.93620017E-02 -9.00892337E-02
  5.39666211E-02  1.02472925E-03 -1.17546820E-02 -5.43597677E-02  2.70733515E-02
 -8.11278537E-02 -4.10574795E-02  1.84353412E-01 -6.68378712E-02  8.38980825E-02
  2.88430309E-02  6.98086173E-01 -3.73162561E-02  1.24059948E-02  4.36958816E-02
  7.42120936E-02 -3.69196494E-04 -6.13282668E-03  7.04324060E-03  3.71234637E-02
 -5.44356538E-03 -1.06592542E-01 -1.54650548E-01 -6.85873072E-03  3.39446981E-02
 -1.55353733E-01 -5.27992150E-02 -1.05674404E-03  3.47513576E-02 -2.50335669E-02
 -1.04085402E-01  1.84383816E-03 -6.98787178E-03 -9.59634593E-03 -4.05337124E-02
  1.97466379E-02  1.16766647E-01 -1.10127849E-01  2.69922530E-01  2.38771677E-01
  5.01434893E-02 -1.43456170E-01  1.49673532E-02 -9.09304517E-02  1.84923408E-02
 -7.98370888E-02  1.50717124E-02 -3.02470978E-02 -7.77143109E-03 -3.00278918E-03
  2.16361565E-02  3.80037067E-02  3.46174115E-02 -2.93770884E-02 -2.75849132E-03
  1.88100545E-01  6.68280421E-02 -2.79992390E-02 -7.27066131E-02 -2.62312962E-02
 -2.99022307E-02  9.31739867E-03 -6.69920498E-03  1.16204578E-02  9.14024093E-05
  1.57754992E-02 -7.97112789E-02 -6.24077617E-03  1.10361275E-02 -1.51734603E-02
  1.35443228E-02  6.83338934E-02 -6.94011362E-04 -8.09756146E-02 -1.41918024E-02
 -3.66964145E-03  5.67278030E-03  9.66463311E-02  9.03101503E-03 -2.41947231E-02
 -1.65526126E-02 -1.99975533E-02  2.13601838E-02 -1.34356551E-02  1.33020885E-02
 -1.12046417E-01  5.29609365E-02  1.17218677E-02 -1.24426004E-01  2.17961196E-02
 -5.72842361E-03  4.14405673E-02 -7.02410923E-02  2.28575951E-02  2.76475895E-01
 -2.06426902E-01  6.52029062E-02  3.68235589E-01  1.28786088E-01  3.49449107E-01
  1.22595456E-01 -6.17897452E-02  2.51927065E-01  1.88314557E-02 -7.66096900E-02
  8.90873420E-03  8.13809722E-02  7.12994357E-03 -7.41021416E-03 -2.51919918E-01
  2.35650674E-01 -1.38606538E-01 -3.50736224E-03  1.14941290E-02 -5.27737473E-02
  1.14188314E-01 -5.32808702E-02  1.91220250E-02  4.60738857E-02  4.47937627E-02
  1.02622192E-02 -3.61984697E-02  1.59037420E-02  3.00577702E-02 -3.22015292E-02
  4.15755410E-02 -1.44428585E-01 -2.80983708E-02 -1.27522700E-01 -9.73335131E-03
 -4.81694626E-02  1.74534711E-02  3.76113517E-02  6.55075772E-02 -5.06691199E-02
  9.62938158E-03  4.34542974E-03  3.90531817E-02  3.48661831E-03  7.57537136E-02
 -9.47426211E-02  6.07193495E-02  9.59863860E-02  5.15257338E-03 -4.91914967E-03
  1.83632807E-03 -3.44268657E-03  3.83439529E-02 -5.92640827E-02 -8.29364588E-03
 -3.20885292E-03  1.53026281E-02  1.34877002E-03  2.10140431E-03  5.20353236E-02
 -3.26681905E-02 -3.03974024E-02  4.96932294E-02  4.31108630E-02 -6.93494669E-02
 -2.15362451E-01  1.12809295E-01  4.09870040E-02  4.72950485E-02 -2.35686397E-03
  1.79996986E-02  5.99391900E-03  2.45700750E-02  3.73690741E-03  3.84733941E-01
 -2.06105073E-01  6.33444198E-02 -4.75261502E-02 -8.24177739E-02  2.29760053E-02
 -4.82028916E-02 -5.36322075E-02 -5.84382666E-02 -7.64970511E-03  1.02713694E-01
 -1.10343610E-02  3.02127294E-02  1.52633929E-02 -2.64238757E-03  1.51658746E-02
 -8.18614217E-02 -4.07038340E-02 -9.53454627E-02 -5.49365465E-02 -2.64512281E-02
  1.69443741E-02 -1.02790777E-02 -1.15222918E-02 -2.34165137E-02 -3.25173869E-03
  6.26914610E-03 -2.25677624E-03  3.93843528E-03  2.29143500E-02 -7.07746993E-03
  2.44852356E-02  1.45567113E-02 -3.13033001E-02  1.91475639E-02  7.56102603E-02
 -2.86697331E-02  5.37247095E-03 -7.13100502E-02 -2.26822705E-02 -4.17441321E-03
 -5.05926479E-04 -1.23343986E-02 -9.92634613E-03 -1.13236353E-01  4.24324809E-02
 -2.97918070E-03 -9.21403604E-02 -2.25827548E-02  9.25970711E-03 -3.60627606E-01
  7.17714259E-02  8.90888766E-02 -2.21484489E-02  2.77730476E-01 -6.90420070E-03
 -1.93079210E-03  8.19179099E-02  4.69849585E-02  4.59964258E-02 -9.07257819E-02
  2.46953056E-01 -7.31989964E-02  4.83745455E-02  1.81721409E-02  8.74601078E-02
 -3.50716404E-02 -2.99760363E-03 -2.97633931E-01 -1.26417189E-01 -2.84758613E-02
 -3.99253913E-03 -1.30051707E-01 -2.70036211E-03 -1.96219162E-01  4.01481760E-01
 -2.92179096E-01  1.14632555E-01  3.65956861E-01 -1.65688581E-01  2.15602922E-02
 -1.29101342E-02  5.58562230E-03  2.94703927E-02 -1.74150021E-01  8.56145396E-03
 -3.01880327E-02 -1.13031215E-02  3.40992658E-03 -1.01691365E-01  3.40177192E-03
  8.88655690E-02  4.98007497E-02  2.11262861E-01  2.19249519E-01 -6.43516134E-02
  3.52737947E-02  2.83322785E-02 -9.60123195E-03  2.57323064E-02  6.68213289E-03
  9.99578637E-03  1.59034882E-02 -1.89159522E-03  1.17499466E-01 -7.79589711E-02
  3.74151684E-02  1.30724071E-02 -5.16526106E-03  3.62288499E-02 -1.44530692E-02
 -7.86232087E-03 -1.08867886E-02 -4.51649176E-03  1.53074840E-04 -7.31407931E-03
  3.29242494E-02  1.55802504E-02 -2.74645413E-02 -9.59050275E-04 -1.81359788E-02
 -2.30449278E-02 -3.22213302E-02 -2.07007467E-02 -1.28253758E-02  2.16864203E-02
 -7.09396345E-02  9.79080206E-02 -1.11815941E-01 -4.08008159E-03 -2.30964058E-02
  4.60033923E-02 -2.48553551E-02 -2.16851146E-01  1.46044391E-01  1.17666819E-01
 -1.52555457E-01 -5.05356549E-02 -1.12392071E-01  4.45499935E-02 -4.60153331E-02
 -1.59606953E-01 -1.87532349E-01 -6.13656271E-03  9.75448913E-03 -1.87007264E-02
 -5.57406792E-02 -1.90846872E-02 -1.32250570E-01 -2.50928372E-02  5.27030307E-02
 -2.83359350E-01 -1.14427713E-02  6.10576173E-02 -3.41964759E-03  1.37840955E-02
 -1.04003814E-01  2.42700132E-01  5.08042686E-02  7.48867544E-03 -3.63141671E-02
  5.31082947E-02  5.60246458E-02 -2.09501809E-01  2.72410847E-01 -3.24438529E-02
 -1.93150177E-01 -3.83201802E-02  6.43986706E-02 -7.34984626E-02  3.35386088E-02
  5.56236062E-02  4.73600823E-02 -1.01074912E-01  2.21593135E-04 -5.71124991E-04
 -6.35271311E-03  5.17076736E-02 -6.61713421E-03 -1.06848074E-01  1.42277398E-01
  6.26827606E-02 -5.24218234E-02 -8.11093142E-02 -2.59292132E-02  2.40217004E-02
  8.48670411E-02 -6.49222478E-02 -1.30116286E-01  1.56238922E-02  2.91484033E-03
 -4.54967706E-02  5.81256195E-03  3.66025215E-01 -3.51117837E-01  4.49084394E-02
  1.79186128E-02  3.29832316E-01 -1.87903344E-01 -3.05624780E-02  5.08273706E-04
 -2.39779997E-02 -5.19667172E-02  5.99959634E-02  1.51758123E-02  1.79774651E-02
  3.34931301E-02 -2.76456914E-03  1.20665965E-01 -1.30515750E-01  2.79274262E-02
  6.31955990E-02  3.53571170E-02  1.05563603E-01 -6.28187475E-03 -1.97042662E-03
  4.86964469E-02 -2.20113796E-03 -1.11643225E-01 -2.04263402E-02  4.81171060E-02
  3.70436370E-02 -3.22503757E-02 -5.57619307E-02 -2.55617341E-02 -3.16771263E-03
 -4.15307538E-02 -9.09350905E-03 -1.88948160E-01  3.13294198E-01  7.50829322E-02
  1.49606798E-01  2.86480379E-01 -4.98324397E-02  2.41110658E-02 -8.25748949E-02
  4.89134405E-03  4.53041009E-01  1.60444464E-01  5.43550958E-02 -6.67074202E-03
 -9.47830115E-02  2.78547110E-02  7.95918036E-02 -1.30849154E-02 -9.19698535E-02
 -2.83130350E-03 -1.65379842E-02 -3.01533767E-02 -1.84775606E-02 -2.12445380E-02
 -8.82002770E-03  1.55298058E-02 -8.96428240E-02  4.65877522E-02  6.38603567E-02
  3.28199685E-01 -1.44088795E-01 -1.43984894E-02  2.87608004E-02 -7.06763096E-02
 -3.71821338E-02 -7.67472206E-02 -1.53444495E-02  3.87692864E-02 -3.25641441E-02
 -5.60027447E-02 -2.99023602E-02  2.27799656E-02  6.84629037E-02  3.30225848E-02
  2.20363972E-01  4.47813138E-02  1.89820676E-03 -2.51378645E-03 -5.48701557E-02
  6.82494930E-03  9.50074404E-02 -7.14867877E-03  9.69838804E-04 -2.05665995E-02
 -8.31011002E-03 -1.02583276E-01  4.72713502E-02  4.65274434E-02 -8.84107657E-02
 -1.11698856E-01  3.34233902E-02 -7.85257477E-02  9.60264381E-02 -1.61709806E-01
  2.07422666E-01 -7.33207260E-02  1.90282295E-02 -5.67327719E-03 -4.65739342E-02
 -8.84900905E-03  6.97264931E-02 -1.19453956E-01  1.90308119E-01 -3.70858357E-02
  8.71797444E-02 -4.68826121E-02 -2.53842866E-02  4.73103592E-02  8.55340258E-03
 -3.23265676E-02  2.05517650E-01 -1.46510080E-02  4.42962740E-03 -1.34685517E-02
  2.68546588E-03 -2.99419058E-02  1.36348242E-01 -3.11886765E-02 -3.18004757E-03
  4.39391138E-02  7.59244297E-02 -7.24980403E-02 -2.27536815E-01 -2.05569300E-01
 -2.07364409E-01 -3.58137850E-02 -1.70431104E-01  1.14720454E-01 -3.76047342E-02
 -5.68226027E-02 -1.58625423E-01 -3.57363758E-02 -8.16436513E-02  2.84014369E-02
 -2.01867927E-02  5.02378298E-02 -1.21208825E-01  1.81266255E-01 -7.53853372E-02
 -4.79151217E-02  3.07918258E-02  2.52174798E-02 -3.19172011E-02  2.85755612E-02
  1.37718883E-01 -2.66710742E-01 -1.28422797E-01  2.44025434E-02 -8.54203782E-02
  8.20256700E-02  7.01418081E-03 -7.09793133E-02 -4.44782892E-02  3.11178460E-02
  5.25844729E-02  2.41335595E-02 -1.70824372E-02  2.33428655E-04 -1.35322699E-03
 -9.96903294E-02  3.05050362E-02 -8.06297447E-02 -3.87679698E-02  1.64655908E-01
  5.18838525E-03 -9.28727906E-04 -1.96754872E-02 -1.47214891E-02 -9.08314279E-02
 -5.39200139E-02  2.15171822E-02 -2.16657338E-02  7.37327768E-03  1.60306784E-04
 -7.13838842E-02 -6.42351368E-03  3.65146887E-02  1.17446799E-01  2.37115173E-01
  5.74014142E-02  1.22845106E-02 -1.15697366E-02  1.08060788E-01  3.38224700E-02
 -1.12373811E-02  3.14539956E-03 -2.38199406E-02 -1.03931616E-02 -4.51111847E-03
  1.17698023E-02  3.45596572E-03 -2.58723550E-02 -1.84202500E-02 -1.69409975E-01
 -8.10341334E-02 -2.71780405E-02  2.06648482E-02 -3.76899203E-02 -3.42938761E-02
 -6.78685403E-02  1.35575929E-02 -1.76326141E-02 -8.43092206E-03 -9.24338032E-03
  8.37055919E-03 -1.84305564E-01  2.03065206E-01  7.45317166E-02  1.33586906E-01
  4.63381004E-02  1.01959703E-01 -1.80768902E-01 -5.92294644E-02  3.45627922E-01
 -2.03152920E-01  4.38356328E-03 -1.40103962E-02  4.01834117E-02 -2.73107316E-02
 -3.33794185E-01 -2.87252652E-01  3.25823169E-01  2.43571094E-01  3.22132059E-02
  2.06029945E-01  1.72322994E-02  6.46500038E-02 -1.84255012E-02  1.04290290E-01
  1.20211686E-01  9.17251684E-02 -2.83849472E-02  6.46992376E-02 -6.37380254E-02
  2.23192829E-02  2.09942915E-01  1.65999898E-01  8.74225787E-02  1.12047490E-01
 -1.32947958E-01  2.37078553E-01 -1.28529213E-01  1.92242314E-01 -4.61437940E-03
 -3.84730656E-02  2.72125398E-03 -6.21167264E-03 -4.27403115E-02  6.34749868E-03
  1.84631035E-01  3.07936392E-01 -1.22448094E-02  3.73423172E-02  5.99597082E-02
  1.02084781E-01 -7.51567535E-02  7.50604378E-02 -5.13371320E-02 -2.54324411E-02
 -1.27043366E-02  4.48977782E-03 -3.13857506E-02 -5.47359879E-02 -3.93337000E-03
 -1.01023414E-01 -5.04831727E-02  2.21892758E-02 -5.51079460E-02  4.92857265E-02
 -2.95449806E-02  4.56360811E-02 -7.07531439E-02  1.39372079E-01  5.09098871E-02
 -1.76484582E-02  3.29765813E-03 -2.33563279E-02 -1.41348150E-02  1.37311429E-01
 -9.31151191E-03 -3.24629725E-02 -1.08552218E-01 -2.31045246E-01 -1.43664236E-01
 -1.84260292E-03 -2.80705188E-03  5.83844914E-03 -1.35599969E-02  7.21523656E-03
 -1.70393102E-03  1.19226150E-02 -9.14240251E-03 -1.89895523E-03  1.01609332E-01
  3.25838135E-03 -1.17278555E-01  9.34549611E-02  1.38420231E-01  2.43705267E-02
  4.11838829E-02 -3.23307526E-02  8.08427920E-02  4.53467721E-02  1.28065592E-01
 -1.66784193E-02  2.57431070E-02  1.10808867E-02  2.16853264E-03  4.68904149E-02
  2.11431167E-01 -2.99824633E-01 -1.40161698E-01 -2.02321545E-01 -4.25660335E-02
  2.57173132E-02 -5.72477935E-02 -3.34524149E-02  2.96875563E-01 -2.56727687E-02
 -1.01590506E-02  1.40214867E-02  2.05996895E-02 -4.17264249E-02 -2.40775709E-01
 -1.92409366E-01  3.35320363E-01  2.07302036E-01  3.43123953E-02  1.86428109E-01
 -1.19986984E-01 -1.37720158E-01 -2.57539927E-02 -1.26173308E-01 -1.60724504E-01
 -1.54239799E-01  4.00545122E-02  4.11430260E-02  7.94346999E-02 -1.30665641E-02
  1.70987408E-01  3.78431741E-02  4.39734317E-02  5.62830295E-02 -2.80727733E-02
  9.10974312E-02 -1.20305718E-01  1.95046097E-01 -9.31423869E-02 -2.16605480E-02
 -8.67292810E-03  8.34585836E-03 -1.74167758E-02 -9.58851350E-02  8.52297913E-02
  2.01076928E-01  5.13455117E-02  1.01770925E-01 -7.31636947E-03 -2.94866138E-02
  8.02571017E-02  2.07507932E-01  1.24584492E-01 -1.71454770E-01 -1.14146167E-02
  3.79463670E-02 -8.69656398E-03  2.35061616E-02  1.47457995E-01  4.53026950E-02
 -2.48576583E-02  1.90063038E-01 -3.28462710E-01 -4.05763980E-02  5.20600804E-02
 -5.59872441E-02 -1.04291343E-01 -5.95332236E-02  1.98321179E-01  1.32432034E-02
  1.20396977E-03 -1.30795766E-02  1.11884397E-01  5.22649188E-02 -3.47478141E-02
 -1.23508727E-01  6.69592702E-02 -9.10638356E-02  1.73226567E-01  3.62730952E-02
 -3.49109217E-02  8.50307636E-02 -3.23051871E-02 -1.30376398E-01  1.21854031E-02
 -2.20291352E-02  8.79679228E-02  1.13284244E-02  2.12121509E-01 -1.98238897E-01
 -1.68629070E-02  8.30756234E-02 -5.43565509E-02 -1.15038967E-01 -9.77788966E-02
  1.26525753E-01 -2.43809215E-01  9.69099540E-02 -2.83591874E-01  2.55665707E-02
 -4.48983751E-04 -2.06720818E-02  3.46890858E-02 -1.75268330E-01 -4.41642738E-02
  3.68781949E-01  1.43553555E-01  2.41268566E-01  3.99287168E-02  2.71451467E-02
 -3.07114834E-02 -8.31423548E-02  1.44730890E-01 -1.50881389E-01 -1.41017461E-02
 -2.03466954E-03 -5.08108682E-02  1.44146355E-03 -1.25050688E-01  9.96267463E-02
 -3.28090911E-02 -7.54467898E-02 -7.37725135E-02 -1.37558474E-01 -4.56012636E-02
 -9.46446848E-02  3.61376500E-02 -3.38738738E-02 -7.38559839E-02 -7.90401164E-02
 -3.55242709E-02 -8.89530711E-02 -8.09324820E-02 -1.32572511E-01  4.64261301E-02
  4.87933606E-02  2.94197885E-02  2.23472028E-02 -1.53578728E-02  1.23201894E-02
  1.29048328E-01 -5.18244447E-02  3.88223892E-04  5.67728472E-03  4.29147490E-02
 -8.34013991E-03 -1.08854490E-02  2.04602843E-01 -2.11022668E-01  2.81203043E-02
 -3.30158678E-03 -1.29541022E-01  4.43842224E-02  3.68226635E-02 -8.90204212E-02
 -1.94753002E-01 -1.85385315E-01 -1.39316765E-01  1.76668255E-02  2.25377558E-02
 -1.05129771E-02 -5.56046584E-02  4.83950335E-02 -8.41937797E-02 -1.47270838E-01
 -6.77661282E-04 -1.79375440E-02  2.41678598E-01 -2.16961026E-02  6.67300067E-03
 -1.28156395E-01  5.81157653E-02  1.01092096E-01  3.43691205E-02 -4.47226250E-02
 -8.89994894E-04  2.89860901E-02  2.57586821E-02 -2.09624008E-02  9.10884918E-03
  9.41617506E-02 -7.85993754E-02 -1.26485718E-02  1.41826017E-02 -1.42120922E-02
  2.01091307E-01  1.53036276E-02 -7.27151047E-02  1.37792117E-02 -3.64074576E-02
  2.91659789E-02 -1.86725642E-02  3.91021378E-01 -1.00891086E-01 -2.87087227E-01
  2.24274210E-01 -8.37231336E-02 -1.82673104E-01  3.98135475E-02 -6.32000361E-02
  1.12443459E-01 -1.16966559E-01  1.71052227E-02 -5.27166268E-03 -7.68591508E-04
  3.54220809E-02  2.84171251E-03  2.55978677E-02 -2.93634935E-02 -7.64716340E-02
 -6.50134089E-04  9.30652614E-03  7.76206148E-02  3.12450105E-02 -8.99960480E-02
 -1.37799507E-01  1.02515742E-01  3.70094419E-01  1.02148113E-02  1.11041761E-02
 -7.63248072E-02 -5.85609307E-03 -6.07549486E-02  2.83267250E-01 -3.57919612E-01
 -3.28079297E-02  2.55981359E-01  6.89921499E-02 -7.20708235E-02  1.80850922E-02
 -5.70245629E-03  2.12753788E-04  6.25172171E-02  1.71765169E-02 -1.52515130E-03
  9.29093050E-02  3.14863289E-02  1.02572426E-01 -1.12960747E-01  3.54222227E-02
  3.49786256E-02  1.47099087E-01  4.64105148E-02 -6.21938245E-02  1.44696786E-01
  2.76307900E-02 -1.42813819E-01 -2.80051124E-03 -2.21810057E-02  1.68781741E-02
  1.21667686E-02  2.09751772E-02 -2.19422954E-01  7.45298653E-02  1.22682472E-01
  1.21192303E-02 -2.27576842E-02 -6.37130568E-02  1.06893713E-01  1.76224777E-01
 -1.18557679E-01 -2.66823604E-01 -9.11012052E-03 -4.07087466E-02 -2.83339480E-02
 -3.63139233E-02  1.31125657E-01  1.80802080E-02  6.28345653E-02 -4.52520140E-02
  6.99818725E-02  4.04454933E-01  5.68828122E-02 -3.17234541E-02  8.45551413E-02
  1.77633268E-02  7.63747641E-02 -3.59289981E-02  3.29529298E-02  1.15554795E-02
  3.56318307E-02  6.30953521E-02  2.46699162E-02 -1.47454339E-01 -1.75299245E-01
 -1.22038786E-01  1.76657074E-02 -1.60927229E-02  1.75096311E-02 -2.00629610E-01
 -1.37736143E-02 -1.19751932E-02 -8.37591576E-03  4.13355329E-02 -7.01181849E-04
  4.11491492E-02 -2.96134045E-01  3.81302340E-03  2.97351007E-01 -1.96368299E-01
  1.47988977E-01  1.47822956E-01 -4.96778091E-02  8.30017054E-02 -1.51655436E-01
  4.80535272E-02 -1.00758511E-01  4.22079115E-03  1.24230149E-02 -1.08275718E-02
  3.30773179E-02 -1.24091809E-01  1.41215875E-01  7.49308786E-02  6.52566376E-02
  2.32362462E-02 -5.79043003E-02  2.05735757E-02 -2.51014093E-02 -3.20792519E-02
 -2.14494005E-02  3.69271089E-01 -3.82531856E-03 -8.12174451E-03  2.20875557E-02
 -4.81167238E-02 -9.54773441E-02  9.39587205E-04  6.87680571E-02 -1.45819623E-03
  3.53203566E-01  2.99045556E-01  2.44088515E-02 -9.59923340E-03  1.13038027E-01
  4.77073432E-02  6.84520364E-02  5.63804750E-02 -9.25272340E-02 -6.08062022E-02
 -2.24282294E-02 -1.08063280E-01  2.58793152E-02 -6.98851302E-02  5.69661804E-02
  2.85728845E-02  2.79950920E-02 -4.75197954E-02  1.71338242E-01  1.31296480E-01
 -1.35568744E-01  7.61719907E-03 -2.39081940E-02 -3.42669867E-02  3.43421297E-02
  4.29138177E-02 -1.19430884E-01 -1.52661878E-02  5.75321447E-02  1.15953904E-02
 -5.38556155E-03 -6.16436781E-02  9.77044838E-02 -1.79324310E-02  8.02836316E-02
 -1.35729668E-01  1.28047174E-02  7.09940986E-03 -6.06514850E-02  6.41624286E-02
 -5.93558269E-02  1.74638464E-01  7.43528606E-02  6.20545881E-02 -5.19222443E-02
 -1.05022018E-01 -4.70329275E-02  2.06306734E-02  1.65877339E-01  5.81108763E-02
 -5.70655693E-02  1.55395411E-02 -3.06459826E-02 -7.72086923E-02 -1.29563445E-02
 -1.09477737E-01  1.83425503E-02  1.20159614E-01 -5.31812498E-02 -7.10161411E-02
 -5.65691171E-02  2.69905611E-02 -6.46538796E-02  1.08550828E-01  1.13056987E-03
  9.32627976E-02 -6.33634054E-03 -3.12073086E-02 -5.49911078E-02 -1.92822198E-02
 -1.27993006E-01  1.11134898E-01 -7.03404907E-02 -2.90088598E-02  6.16030996E-02
  1.75659402E-02 -4.81124319E-02  1.23466390E-01 -9.76353558E-02  3.72669697E-01
 -1.00517612E-01  6.79868924E-03  4.02627366E-02 -1.03006202E-01  3.65880717E-02
  3.82368541E-01  8.02993540E-02 -3.08301356E-01 -2.41489067E-01 -1.01518010E-02
 -1.62698214E-01  7.77740943E-02 -2.21822439E-01 -2.06585854E-01  2.45290097E-01
 -1.44224492E-01  2.12549546E-02 -1.66103071E-02 -1.02557797E-01  4.03032709E-02
  6.95954546E-02 -5.00268993E-02 -3.37619404E-01 -1.30137720E-01 -9.15907518E-03
 -1.24551928E-01  4.50386064E-02 -5.74525896E-02  1.98967255E-02  7.81976270E-02
  7.66671918E-02  4.45105313E-02 -3.91590908E-02 -1.19376236E-01 -3.92280996E-02
 -2.53586912E-01 -1.64914981E-02  2.09273124E-01  4.27086343E-02  1.84812403E-01
  3.37498615E-02 -1.01696694E-01  1.91053464E-01 -7.22893651E-02 -3.41558842E-02
  1.13928545E-02 -2.21201688E-02  1.52774792E-02  3.88903395E-02  2.28463101E-02
 -8.07700345E-02 -1.43741079E-01 -4.65382749E-02 -5.71103607E-02 -5.35317182E-02
  2.21395960E-02  8.91304113E-03 -1.80071418E-02  1.30698337E-01 -2.19030722E-01
 -1.19462246E-02 -2.33211677E-02  2.43794454E-02  2.86064264E-02  5.31172609E-02
 -3.64526419E-02  7.89925649E-03 -5.07375091E-02 -5.65623105E-02  9.42832672E-02
 -3.19629304E-02  5.27347188E-02 -1.41469675E-01  4.38803357E-03 -1.24316620E-01
  1.08700563E-02  6.29758261E-02  9.77116618E-03  5.70396078E-02  3.70320018E-02
 -2.14140828E-02  9.07304416E-02  1.15087170E-01 -2.55124968E-02 -2.02862854E-02
  1.16795208E-02 -1.08709296E-02 -1.14617280E-01 -1.27966808E-01 -4.22711176E-02
  3.49845211E-03  7.44336700E-02  8.85574162E-02 -1.86818514E-02  3.74052320E-01
 -1.35848387E-01 -2.28670191E-01  1.16028410E-01 -3.59853067E-02 -7.21021733E-02
 -2.28424456E-02  6.02285078E-02 -8.46977137E-02  3.65253689E-01 -2.14274006E-01
 -2.80269264E-03  5.18951947E-02 -8.73790250E-02  6.34386190E-02  1.66027214E-01
  8.40224526E-02 -1.90661606E-01 -1.77563767E-01  2.95089259E-02 -6.88098813E-02
 -7.36265658E-02  2.28103845E-01  2.30944263E-01 -3.51970407E-01 -8.38784506E-02
 -2.43665244E-02  3.00534436E-03  1.25899785E-01  1.17956248E-02 -4.81389278E-02
  3.78595116E-02  3.29826921E-01  8.64158327E-02  1.45752232E-02  1.61041974E-01
  7.24897800E-02  2.55458845E-02  2.23775452E-02  6.31756739E-02  8.86810563E-02
  8.59745959E-02  3.53310737E-02 -7.36699222E-02 -5.10046387E-02 -1.95696878E-01
  1.08763387E-02 -1.49442841E-01 -6.80472281E-02 -2.71173406E-01  2.67667251E-02
 -8.38342154E-02 -2.96820539E-02 -1.24688695E-01 -8.82228700E-02  2.01198544E-02
 -9.94388704E-02  4.47496125E-02 -3.15795128E-02 -3.37658757E-01  1.37456072E-01
  3.94408668E-02  1.03153774E-01  1.70874723E-01  9.82906887E-02  3.38837525E-02
 -9.24745432E-02  1.14379580E-01  1.43254431E-01  4.27084813E-01  2.38585864E-02
 -1.19534048E-02 -1.58564784E-02 -9.05083339E-02 -1.34886068E-01 -5.06090074E-02
  8.00674006E-03  2.68530539E-01  2.09768842E-01  2.02310819E-01 -1.46187528E-02
 -3.27612835E-03 -8.56077494E-02  2.44120049E-03  6.60869221E-02  2.37258780E-02
  3.85293261E-02 -9.50561421E-02 -1.54769114E-01  1.77954208E-02 -6.02513302E-02
  3.46392608E-02 -1.55001904E-02 -1.94990786E-02 -3.03131963E-02  9.67856216E-03
 -2.15312481E-02 -5.59285185E-02  6.23226107E-02  2.17737570E-01  1.97289342E-04
  2.95481591E-02 -3.46958295E-02 -1.07564127E-01  1.92598223E-01  4.61806550E-02
 -2.56629813E-01  2.86607985E-03  4.96397940E-03 -1.99994845E-03 -4.42513783E-02
  9.00704034E-02 -1.49493348E-01  3.17836108E-01  1.17575837E-01  1.66190337E-02
  2.45704845E-02 -1.31433562E-01 -6.17560051E-02 -4.12978605E-02 -1.42656632E-01
  2.66382192E-01 -5.21172718E-02 -5.94195752E-02 -1.70818333E-01 -1.29492145E-02
 -1.95190757E-02  5.22833156E-02  6.25052610E-02  3.23726277E-01  1.72768612E-02
 -1.99363660E-02 -3.04224042E-02 -6.44958829E-02  1.48230476E-01 -1.49258746E-01
 -5.13119393E-02  8.50550123E-02  8.68262040E-02  1.27655634E-02  9.38392205E-02
  3.24076727E-02  1.31467485E-01  4.35766546E-02 -8.21758164E-02  1.01228307E-01
  7.03464782E-02  1.80390887E-01 -1.09131303E-01 -1.05220015E-01 -8.53091738E-02
 -3.71027258E-02 -2.52943812E-02  1.43537907E-01 -6.37735751E-03 -3.13211845E-02
  2.44263443E-01 -1.00688386E-01  3.94680451E-02  1.72554197E-02  1.62692084E-03
  6.10698946E-02 -6.00700365E-02  6.35564610E-02 -2.38668507E-01  1.09665137E-01
  3.86474349E-03 -1.53964755E-01  8.80078813E-02  4.13246207E-02 -1.26268558E-01
  1.17390657E-01 -3.18554278E-01  5.74075208E-01  8.79823282E-03 -7.82524448E-03
  5.81403942E-02 -1.09057975E-01 -4.19286135E-02 -1.25872245E-01 -6.65823244E-02
 -9.27945986E-02 -3.42488054E-01 -1.90041663E-01  1.97702557E-03  1.89025255E-03
 -7.09801520E-02 -1.71761356E-02  1.13382905E-01 -1.16783837E-02  2.11141113E-02
  2.39621795E-02  3.32039934E-02  1.46951775E-01  3.68827965E-03 -1.45563268E-01
  2.30369160E-02 -4.34475794E-02 -6.39023753E-03  6.97612096E-04  7.06360735E-03
 -9.87575356E-02 -7.81225541E-02 -2.97426067E-02 -4.90315952E-03  5.86614849E-02
  5.38722906E-02  2.30445975E-02 -1.69473842E-01 -4.17868369E-03  1.88894786E-01
  1.32661516E-02 -1.54631339E-02  3.63247395E-02 -2.29661569E-02  5.34936607E-02
 -1.16824641E-01  1.32746593E-01 -1.78868387E-01 -3.76709852E-03  6.23831215E-02
 -2.36266565E-02  7.10016533E-02  1.60366398E-01  4.33149953E-02 -1.77473452E-01
 -2.62633529E-02  7.06769295E-02  7.91842431E-04 -6.18199931E-03  4.35027636E-02
 -1.15334222E-02  3.05020419E-02  1.58490433E-01 -1.31368927E-02  8.18712587E-03
  8.32457721E-03 -1.22456473E-01 -2.38934012E-01  2.15994706E-01  8.42930842E-02
  2.13252550E-02 -1.90562620E-01 -3.33524421E-01 -8.30073929E-02  3.70892302E-02
  6.09465829E-02 -2.72495286E-02  6.04663722E-02  1.06862630E-01  1.33856387E-01
  2.21281255E-01 -9.42774110E-02 -6.21260110E-02  3.36029354E-02 -1.65180516E-01
  3.76346109E-02  5.28982116E-02  1.64332539E-02 -2.09639084E-02 -3.06916922E-01
 -4.32080940E-01  3.30073883E-01 -5.13395779E-03  7.22590413E-02  9.53015492E-02
 -3.05134140E-02 -5.55657893E-02  2.15594038E-01 -1.93189561E-01 -1.18267025E-01
  8.69273216E-02 -1.45527670E-01 -8.27906100E-03  7.65120095E-02  3.18483525E-04
  2.51136670E-01 -1.36309126E-01 -1.08596384E-02  9.79716357E-03  9.63592594E-03
 -1.21701854E-02  6.37528653E-02  2.20298410E-01 -1.35287881E-01 -8.04975661E-02
  2.15512012E-02 -1.42642060E-01 -3.21811892E-03  2.73835615E-03  2.28382735E-02
  8.52811249E-04  4.12095512E-02 -2.21093170E-03  3.58146212E-02  2.16183075E-02
  6.55928930E-02  1.97075540E-02  3.81748339E-02 -5.42905918E-02  1.02160990E-01
  7.25449840E-02  6.78455583E-02  8.31435354E-03 -1.39056029E-02 -8.58605508E-02
 -6.25112782E-02 -1.64294052E-02  2.56073872E-03  5.07201195E-02  5.27633844E-02
 -2.44961766E-03  2.94921855E-02 -7.72076805E-02  5.18507464E-02 -2.93645522E-02
 -4.91843928E-02 -2.04242341E-02  9.34908118E-03 -2.12739560E-02  4.08635059E-03
  3.37138262E-03 -2.85065208E-01 -6.09813237E-03  1.75754480E-02  3.63186868E-02
  1.39728207E-01  1.03181236E-01  1.16877750E-01 -2.42732389E-01 -1.31241737E-02
  1.27401184E-01  1.06389724E-01  6.66700325E-03 -2.50143158E-02 -7.20085370E-02
  2.91940159E-01  4.59148657E-01  5.04443789E-03  2.43202177E-02 -7.76416631E-02
 -1.87258206E-01  3.73702646E-02 -1.81193349E-01  1.08705212E-01  7.87355976E-02
  3.65386922E-02 -1.36987425E-01  1.36573272E-01  1.64085834E-01 -5.59004865E-02
 -1.17243291E-01  1.90345222E-02 -4.61227127E-02 -1.55986896E-01 -8.00007460E-02
 -1.80821437E-02 -1.37316305E-02  3.88411993E-03 -1.39848214E-01  1.10510789E-01
  2.25284149E-01  2.83015140E-02 -1.05043653E-02  1.14933904E-01 -2.77230944E-02
  2.02679566E-01 -1.72117224E-02  3.06676170E-02  2.94863219E-02 -2.64612947E-02
  1.53978227E-01 -1.58791446E-01 -4.52462393E-04 -6.79071548E-03 -6.76379947E-02
 -1.34386905E-01 -7.90849500E-02  1.87135620E-01 -8.30284870E-02 -7.55554358E-02
 -7.65394499E-02  2.73605012E-03  4.47913602E-02 -2.58470268E-02  2.80463360E-02
  5.14045101E-02  1.41512386E-01  1.34198152E-01 -2.59554034E-01 -1.90590484E-01
 -2.65087189E-01  1.10155789E-02 -4.84427475E-02  9.12007752E-02  1.33830413E-01
  1.23631044E-01  2.21634713E-02  9.64488894E-02  1.98275332E-02 -1.46767227E-01
 -1.45648958E-01 -2.56275233E-02  8.29348801E-02 -2.18931270E-01 -3.25595084E-01
 -3.29564307E-02 -2.16568857E-02  5.10819180E-02 -2.83027669E-01  5.76318416E-02
  1.27437184E-01  2.48422274E-03  1.71067097E-01 -2.61913725E-02 -8.52848200E-02
  2.18616428E-01  3.76975624E-03 -2.00590338E-01 -2.56784306E-03  1.41062495E-01
 -1.17429558E-02  3.03169239E-02 -1.05245170E-01  5.03958631E-02  1.33331862E-01
  3.11530873E-01  6.65499161E-03 -3.07396813E-02 -1.06535406E-01 -1.56768872E-01
 -9.47667327E-02 -3.04378002E-01  3.29746843E-01  1.77126473E-02 -1.31096899E-01
 -1.62975310E-01  2.72069767E-02 -2.18218024E-02 -1.97288627E-01 -9.00844759E-05
  8.38960910E-02 -1.63937777E-02  7.19686889E-02  2.87595871E-02 -9.14264058E-02
 -1.07207262E-01 -5.47832991E-02  1.76215463E-01 -9.76131293E-02 -7.50708482E-02
 -1.66042519E-01  2.62581551E-02  3.60598899E-03  2.40056081E-02 -1.01588835E-01
  1.54221341E-01  5.04230652E-03 -2.65729926E-01 -1.48939182E-01  9.10207236E-03
  6.64304495E-02  1.01312400E-01 -1.37097042E-01  8.29687256E-02  3.36510999E-02
 -2.38794710E-02  5.53844502E-03  4.43680739E-01 -1.17507710E-01  3.22933979E-01
  1.92046821E-02 -1.26666542E-01 -8.55411534E-03 -6.53223312E-02 -3.35034832E-02
  1.85833678E-01 -1.55981792E-01 -1.80749326E-01 -8.99171697E-02 -6.77519844E-02
  7.11523553E-02 -1.29757748E-01 -5.91614382E-02 -2.32085037E-02 -8.42915656E-02
  1.96220906E-03 -8.43878923E-02  3.58590627E-02 -6.19434297E-02  1.44903646E-01
  1.22026669E-02 -3.73177022E-01 -1.70799615E-01 -1.26957713E-01 -4.45810921E-02
 -6.09214222E-03  4.37054208E-02 -1.70782039E-01  1.87928224E-01  7.61152804E-03
 -3.42106278E-03  4.00071343E-02  7.28477414E-03  2.85389850E-02  1.47872023E-01
  1.84389677E-02 -8.55300642E-02 -2.21703267E-01 -7.37053268E-02 -1.01386707E-01
 -1.18918026E-02  9.27306862E-03 -1.10492067E-01 -3.76357678E-02 -9.63214212E-02
  7.94967666E-03  3.80450298E-02  1.06949634E-02  7.63173478E-02  2.01868339E-02
 -1.40462267E-01  9.54203028E-02 -1.02906432E-01  1.18969936E-01  2.46705907E-02
 -1.34694746E-02  4.27640752E-02  2.33381852E-02  1.07697031E-01 -1.10219937E-02
 -4.41195266E-04 -4.01271662E-02 -6.95407441E-02  1.13249227E-02 -2.88773359E-01
  1.44826719E-01  1.83376367E-01 -1.13777392E-02 -3.73996727E-02 -6.94784717E-02
  1.04447029E-02 -1.47859988E-01  3.03401654E-01  1.36989549E-01 -2.03727811E-01
  6.05591281E-02 -1.71568966E-01 -6.75602062E-02  7.93572320E-02  2.47498278E-01
 -1.64340269E-01 -2.77626017E-01  1.21988038E-01 -1.32030204E-02  6.30287667E-02
 -6.84685003E-03 -3.78380764E-02 -1.37321636E-01 -5.40299834E-02 -2.71920326E-02
  1.89135785E-01  6.79420641E-02  1.30304634E-01 -2.26957436E-02 -7.65282359E-02
  1.64765127E-02  2.46035398E-01 -6.00862995E-02  9.66131065E-02  1.10631325E-02
 -2.25409043E-02  2.41692853E-01 -1.30528895E-01  2.42396335E-01 -5.09066860E-03
 -9.51281650E-02  4.55675210E-02 -5.81125348E-02 -7.40521118E-02  8.63914797E-02
 -4.98045505E-02 -3.88620739E-02  3.88429380E-03 -7.45045067E-02  1.88583988E-03
 -2.15803854E-02  4.54879835E-03  2.53969545E-01 -2.01464242E-01 -1.33604239E-02
 -8.88647739E-03 -1.31987154E-02 -1.19189154E-02  8.84541978E-02  2.57965815E-02
 -1.54625551E-01  3.01929444E-02 -1.51176174E-01  2.72228511E-02  1.61415854E-02
  3.46555853E-02 -1.78740587E-01 -1.22959798E-01  2.89943969E-01 -5.09865367E-02
 -1.50005642E-01 -1.16310207E-01 -9.32669633E-02  1.24034540E-01 -1.58603509E-02
 -3.16937610E-02  1.17546829E-02 -2.53489812E-01  3.94634098E-02  1.94213722E-02
 -2.59810729E-02  5.19391735E-01  1.56011372E-01  1.57916377E-01 -1.81262481E-02
 -3.05167372E-01 -1.13402742E-01 -8.97798643E-02 -3.24173398E-01  2.68872308E-01
  7.03053326E-02  2.72478945E-01 -9.13617663E-02  3.94050652E-02 -6.18323838E-02
  1.82060033E-01 -2.08125887E-01 -1.38644039E-01  2.61494021E-01  8.01583495E-03
  9.04203681E-02  6.17088826E-02 -1.59436125E-01  2.29206302E-01 -1.23921617E-01
 -2.47588259E-03  3.95121463E-02 -2.56264756E-02 -7.58621913E-02 -2.89014602E-02
  1.14133192E-01  2.54209928E-02 -1.06056701E-01  3.99293584E-02 -1.89974832E-02
  3.40644241E-02  4.39024480E-02 -2.16084835E-02 -9.00039565E-02  5.63784008E-02
  1.47389005E-01  8.28167452E-02 -1.22721534E-02  3.89769422E-02  5.52937409E-02
 -1.64251436E-02 -4.14908143E-03 -8.82371007E-02  4.92860489E-02  1.20786958E-01
 -9.04684028E-02 -3.54399463E-02 -1.43677505E-02 -1.72130311E-02 -3.77890803E-02
 -8.78129024E-02 -7.39402701E-02 -6.75980349E-02  1.48297363E-02  6.64858156E-03
  5.30766684E-01  3.61795272E-01  3.40111258E-01 -1.23263788E-02 -2.40916860E-01
 -8.16767748E-02 -1.43595963E-01 -2.15861776E-01  1.16820148E-01  1.23411874E-01
  2.39651559E-01  4.04895994E-02 -6.35023288E-02 -7.67527548E-02  1.33037495E-01
  1.50704607E-01  6.84913775E-02  1.42704253E-01  3.15677382E-02 -7.97604106E-02
 -2.80769463E-02 -1.12684567E-02 -4.55503728E-02  7.21105703E-02  1.75747029E-01
  1.61104563E-01  4.34795138E-02  3.57198672E-02  1.79865667E-02  2.37346915E-03
  1.23929595E-01  1.03222208E-01  1.72421267E-01 -8.03479327E-03  4.05827363E-03
 -2.30541022E-02 -4.24446260E-02 -1.62924695E-01  1.26783006E-01  5.47817375E-02
  1.38908010E-01  1.91932086E-01  2.31742765E-01 -6.40368375E-04  1.66635364E-02
 -7.60402365E-02  2.87188466E-02  2.54990812E-02  4.27130296E-03  5.04751367E-02
  2.12845384E-02 -3.66527122E-02  1.67797582E-01 -6.88443326E-02 -6.50640742E-02
 -3.02104052E-02 -6.06680017E-02 -6.28872417E-02  4.40297015E-02 -1.18621253E-01
  8.79131537E-02 -2.16326652E-01 -6.54659229E-02 -4.80534817E-03 -1.46135463E-02
  1.15001941E-01  3.65416523E-02  6.80262932E-02  1.14235851E-01 -2.29721088E-01
  5.65696433E-02  1.33267132E-01  2.65745985E-01  3.14424797E-02 -1.30519067E-01
  1.23398768E-02 -1.94547390E-01  9.12943594E-02  2.89791680E-02 -7.46912417E-02
  8.74265037E-02 -6.22361440E-02  1.38620407E-02 -1.95615301E-01  5.00000739E-02
 -6.23628285E-02  1.69538068E-02 -2.31043077E-02 -9.18376029E-02 -2.46283963E-01
  3.10997198E-02 -1.39972751E-01  3.55998184E-02  2.60580010E-01 -1.98056105E-01
 -2.67800724E-02  1.59523628E-01  7.30853395E-02  3.09998270E-02 -2.24653807E-02
  3.13280018E-02  5.68998892E-02  8.68741398E-03 -1.37697578E-02  2.05320199E-01
  3.18425755E-01 -4.17311676E-01 -3.90034666E-03 -3.50665539E-02 -1.21198235E-01
  1.95711100E-01  9.97446358E-02  9.80444210E-02 -2.15770628E-01  3.43180261E-02
 -7.53255721E-02 -1.19281301E-03  1.75808487E-02 -4.55572865E-02 -1.72436803E-01
  2.57153262E-01 -3.50945523E-03 -7.32524183E-03 -1.73142520E-02 -9.60212290E-02
  2.42734775E-02  1.58081568E-02 -1.25866753E-01  3.77054446E-02 -1.86350846E-02
 -1.54023159E-01 -2.06289008E-01 -7.20980951E-03  3.70011081E-02 -9.27185020E-02
  6.09438507E-02 -2.22392985E-01 -9.91240086E-03 -1.13812330E-01  2.62024346E-02
  9.93430574E-02 -4.36766582E-02 -7.69490103E-03  1.16577951E-01 -6.23358303E-02
  2.45288916E-02 -1.35497794E-01 -2.12899967E-02  4.51108782E-02  2.06940606E-01
 -1.61619556E-02 -2.15509248E-01 -6.70276039E-03 -1.42727011E-01 -4.22729106E-03
  1.53085945E-01 -3.63429373E-02 -4.81155155E-02  7.05834756E-02  5.35398746E-02
 -5.54437817E-03 -5.67140515E-02 -2.54253314E-02  1.11334961E-01  1.46020016E-01
 -1.00102395E-01  5.32970286E-02 -1.56614738E-02 -1.15693495E-01  3.44892277E-02
 -1.11531463E-02 -2.38062959E-01  1.72474713E-01  1.45888507E-01 -3.72860590E-02
 -8.77539415E-02 -6.02422769E-02 -2.22709594E-02  3.21772075E-02  2.64616485E-02
 -8.72899916E-03  4.45569103E-01  1.02740230E-02  1.66558523E-02  2.12239855E-02
 -2.52633569E-01  6.90823322E-02 -2.42898611E-01  1.84549693E-01  1.30313575E-01
 -7.69162383E-02 -3.17122051E-01 -1.84442178E-02 -1.91324837E-01  4.77862167E-02
  2.26524389E-01  8.14563825E-02 -1.35689461E-02  2.27682389E-02 -7.01941879E-02
  8.28323879E-02 -1.24407495E-01 -1.76127404E-01 -1.93890509E-01  3.28346723E-02
  1.90013820E-01  5.34059319E-03  1.81123177E-03 -5.96937027E-03  9.60934773E-02
 -3.54316504E-01 -5.05134441E-03  4.87570386E-02 -6.14523213E-02  1.75471829E-01
  2.08261751E-01  1.63526143E-02 -2.16676318E-01 -8.37602760E-02 -3.87778009E-02
  2.52400181E-03  3.25045027E-02 -4.62866486E-02 -1.30398975E-01  1.10638232E-01
 -2.03387308E-02 -2.28092024E-02  3.14689007E-02 -3.71321312E-02 -8.15511040E-03
  1.32037222E-01 -1.01459710E-01 -8.98278369E-02 -9.34002977E-02 -8.51075233E-02
 -8.37986315E-02  3.04979569E-03  4.83731743E-03 -9.98691989E-02  2.52287199E-01
  4.16499777E-01 -1.15758448E-02  5.05616381E-02 -1.08325975E-01 -2.04635444E-01
  9.99415341E-02  2.15043812E-01 -3.09119670E-01 -8.45697212E-02  1.48221533E-01
  1.94885132E-01 -1.58933700E-03  3.56070386E-04 -1.92456699E-01  3.13555077E-01
  5.67309927E-01  4.74512198E-03  1.31416072E-01 -2.59860057E-01 -4.56420412E-01
  6.45257127E-02  6.02536226E-02 -1.29442496E-01 -1.18326392E-01 -1.17208416E-02
  5.26225254E-02  5.96083267E-03 -2.00431079E-02 -2.44662971E-02 -9.09288715E-02
 -1.04350590E-01  3.94951050E-03  1.94654893E-02  5.71363726E-02  6.35496763E-02
 -5.37580415E-02  1.83230227E-01 -1.32604228E-01  9.96563225E-02  1.86533131E-01
  1.56550892E-01 -2.10367425E-02  6.48753080E-02  3.65569195E-02  2.55156590E-02
 -7.18105287E-02 -3.57662755E-03  3.58833072E-02 -2.42163954E-02  2.77619721E-02
  6.14667077E-02 -1.96455678E-02  5.36653912E-03  6.02042329E-02 -4.82073150E-02
 -1.21979818E-02  2.66458200E-02 -4.16884338E-02  6.66771594E-02  1.76495455E-01
  4.27766139E-02 -1.26069975E-01  1.08525436E-01 -1.83949367E-02  2.52767195E-02
  1.13276932E-02 -3.09234836E-02 -3.63133633E-03 -9.55021144E-02  1.33732486E-02
  1.59373858E-02 -1.79158539E-02 -7.41166393E-02 -2.18611135E-01  2.90224659E-01
 -7.15226159E-03  5.55885322E-02  1.56515466E-01 -1.66473291E-01 -4.88577360E-02
 -2.84902675E-01  3.15493286E-01  2.85706852E-02 -4.44238573E-02 -2.19339907E-02
 -2.69304018E-02 -8.94299820E-03 -2.31995340E-01 -2.05885687E-03  1.15813622E-01
  3.78730233E-03  1.89700992E-02 -4.12373477E-02  6.64553576E-05 -2.67954890E-02
 -1.56033619E-01  1.44818512E-01  7.96764993E-02 -4.82607115E-02  3.92009941E-02
 -1.32838640E-02  4.96757962E-03  8.29955760E-02  2.05914582E-01 -9.11183255E-02
 -2.96992633E-02 -1.64623691E-01 -4.59653617E-02 -1.81505897E-02 -1.03305982E-01
  1.05340721E-01 -4.47329924E-03 -8.28208437E-02  7.91135746E-02 -2.29475553E-02
 -1.97738964E-02  4.68006435E-02  2.64810351E-01  2.54895310E-01  7.74445401E-02
  5.57262981E-03 -2.50105467E-01 -2.28128315E-01 -6.71354032E-02  4.89334029E-02
 -6.94189605E-03 -5.70776181E-02 -8.11471567E-02  1.02946760E-02 -7.13953080E-03
 -7.45978923E-02  3.09466630E-01  3.32546255E-01  3.45831443E-02 -2.38220628E-01
 -5.61476959E-02 -3.20017596E-01 -1.42895996E-02  2.06941795E-01 -3.45728943E-01
  3.72982323E-01  1.15175068E-01 -9.75539960E-02  5.16680440E-02 -1.01783456E-01
 -3.49165932E-03  5.26983237E-02 -2.52499464E-01 -1.19534747E-01 -9.11859095E-02
 -4.08745917E-02  2.24875229E-01  2.37308828E-02  4.03740293E-02  5.07489888E-02
 -7.50279857E-02  8.33169536E-02 -5.46866870E-02 -5.30841480E-02  6.30508984E-02
  4.88509514E-02  1.37301829E-01  3.14766808E-02 -2.30320103E-01  7.60491331E-02
  3.04790695E-02  5.48545180E-03 -3.10499660E-02 -4.75772536E-02 -2.73274461E-01
  1.87864172E-02 -3.09091665E-02 -7.78568432E-02 -7.34741572E-02 -2.78868688E-02
  2.34261717E-02  2.80351510E-01 -2.50330580E-01 -1.77713822E-01  1.60997861E-02
 -1.86696311E-01  5.18199252E-02  9.44490762E-02 -2.76355657E-01  3.76080343E-01
 -8.87689845E-02  2.33685337E-02  3.52185888E-02  1.37903752E-01  7.08361355E-02
 -6.15082118E-02  2.98602532E-01 -1.15639041E-01 -2.12326838E-01 -7.43949639E-02
  4.30647105E-02  2.10251951E-02  6.56912637E-02 -4.21452609E-01  3.81103602E-01
 -2.57007393E-04 -1.15234063E-01  2.27701082E-01 -1.40909272E-01 -8.17007778E-03
  4.06943342E-02 -1.45066624E-02  1.86947384E-01 -3.10132442E-02 -4.39138763E-02
 -3.68822217E-03  7.29441922E-03 -3.26903827E-02 -4.72345709E-02  1.08293099E-01
  5.96074388E-03  4.70164213E-03  4.48852003E-02 -1.59492259E-02 -2.06931046E-02
  6.87311888E-02 -2.77876445E-02  1.09339601E-01  1.31637007E-03 -7.45101419E-04
  2.49071389E-02 -9.00024339E-02 -8.43393901E-03 -3.88054971E-03  1.32160050E-02
 -8.55640117E-03 -9.86805377E-04 -9.64624981E-03 -1.84849441E-02  4.20967952E-03
  2.57481711E-02  2.68621426E-01  2.10748606E-02  3.70504796E-02 -4.54162031E-02
 -2.02857274E-01 -2.24651496E-02 -3.60965655E-02 -1.38509924E-01  8.30813171E-02
  8.50640952E-02 -4.04789583E-02  2.11202553E-02  5.23463322E-02 -2.80410374E-02
  2.07308604E-01 -1.46885895E-01  2.37306267E-01 -1.88151515E-02 -7.45003119E-02
  1.30274978E-01 -7.70195529E-02  7.53779174E-02 -3.92685278E-01  5.58112927E-01
  9.94216436E-03  4.15757129E-02  4.72576305E-02 -6.10093460E-02 -1.73808506E-02
 -6.96094952E-02 -7.28935091E-02  8.03937320E-02 -2.39699738E-02  1.80354070E-01
  1.85492814E-01 -1.39701043E-01  1.09894846E-01 -1.12196096E-01 -3.74580132E-02
 -1.05841844E-01  1.07852295E-01 -1.24681740E-01 -2.77272489E-02  3.55578438E-02
  1.71322757E-01 -2.54961640E-01 -5.39601317E-02  9.14960850E-03 -5.71722689E-02
  1.43399052E-01 -2.98476339E-02 -1.36894477E-01 -1.22733766E-01  2.93351533E-01
  2.78532450E-03 -1.08375243E-01  1.14037654E-01  8.38296078E-02  3.51513296E-02
  4.76392520E-02 -7.08615501E-02 -2.37247206E-01 -9.10146450E-02 -6.17218585E-02
  5.98061540E-04  1.33224440E-01 -6.20320635E-02 -2.57226697E-01  4.72691261E-01
  4.83798342E-02 -6.70283850E-02 -1.21246136E-01  2.75461291E-02  1.03742825E-01
 -3.10960307E-01 -1.52779040E-01 -3.87563450E-01 -5.69906679E-02  7.01169564E-02
  2.52072433E-02  1.37230721E-01  2.76868847E-02  4.67229610E-02  1.36944417E-01
 -1.68966654E-01 -6.28895375E-02  2.58829086E-02 -4.26520436E-03  3.23658668E-03
 -1.13441216E-01  1.04429340E-01  1.71962035E-01 -6.94436019E-03  1.27092653E-01
 -1.09745249E-01 -1.51609707E-01  8.80898604E-03  1.80114621E-01 -2.10647072E-01
  4.48544525E-02 -3.84510763E-02  5.48456184E-02  9.69099939E-03 -5.30059659E-02
 -2.59651315E-01 -3.68862136E-01 -1.93578566E-01  5.41487792E-02  2.08435852E-01
  2.79588961E-01  2.73573175E-01  2.12695120E-02 -7.73346213E-02  6.17771571E-02
  8.09567202E-02 -1.13147768E-01 -9.12332558E-02 -8.75202070E-03  4.53782915E-03
  2.55718290E-01  2.33783260E-01  3.45400709E-02  3.06955342E-02 -1.88774424E-01
 -1.32537304E-01 -2.93516048E-02  1.16602601E-01 -6.99787011E-02 -4.73482145E-02
  7.08247138E-02 -2.53880532E-02 -1.18464954E-01 -7.97535342E-02  1.08725076E-01
 -6.90539536E-02 -1.01947488E-01 -1.54285533E-02  1.29382839E-01  1.52839423E-01
 -3.13828290E-01  6.35490599E-02  5.77917757E-02 -4.13931228E-02  1.58420615E-04
  6.44376539E-02  8.34728437E-02 -4.66750823E-02 -1.35033273E-02 -1.11618326E-01
  2.33480514E-01  6.04839461E-02  9.02680369E-02  5.89657475E-02 -1.58014891E-01
 -1.49824706E-02  2.05647096E-02  1.12245503E-01 -2.10794414E-01 -5.17998586E-02
  3.48486958E-02 -1.23146535E-02 -6.34179983E-02 -6.01577403E-02  2.63788022E-01
 -2.45130019E-01 -4.41024023E-02  1.06933509E-01 -1.28910566E-01  8.97550708E-02
 -2.45247598E-02 -1.15399672E-02  1.75013026E-01 -3.41961790E-01 -3.64009320E-02
 -2.40511790E-02 -4.42481883E-02  1.20416582E-02 -7.16494071E-02  2.62464828E-01
 -2.99144945E-01 -2.83611116E-01  1.10005785E-02 -1.26121314E-01  1.33978964E-01
  1.01245794E-01 -2.58621528E-02 -2.17509108E-02 -6.37402190E-02 -7.01236841E-02
 -2.95244796E-01  4.28220859E-02 -1.04736594E-02  6.67025768E-02  3.97962212E-02
  1.60354065E-01  2.46625952E-01 -1.16316256E-02 -4.58989941E-02 -1.34710299E-01
 -2.30891224E-01  7.69794339E-02  2.11686253E-01 -2.50087519E-01 -9.97197873E-03
  6.60327591E-03  1.26192565E-01 -4.79179081E-02  1.69967843E-01  1.83625158E-01
 -1.00273923E-01 -3.27502384E-01 -2.92815384E-02 -2.40118311E-01  1.51185034E-01
  3.71473371E-01  5.22404019E-02 -1.44816905E-01  9.00269840E-02 -3.60292938E-02
 -7.76229316E-02 -1.73109949E-01  2.22907336E-02 -1.70490939E-01  1.16616019E-01
 -2.71568450E-01  1.13133830E-01  7.47287314E-02 -2.02094782E-01  2.05662593E-01
 -9.57828146E-02 -1.85881533E-01  1.19875438E-02  3.50113106E-02 -4.98190006E-02
  1.03557582E-02 -2.74323202E-02 -2.12346410E-01  4.11103690E-02 -1.95560920E-01
  1.59062941E-01 -2.62962650E-01  4.74480837E-02 -1.94567823E-01  1.97316016E-01
 -1.03741648E-01 -5.09800896E-02 -2.78119608E-02  3.01322151E-02  6.12293854E-03
  6.14344182E-02 -4.99911468E-02  3.21582054E-02  4.91127972E-02 -1.32321708E-01
 -1.07437429E-01  6.80875826E-02 -2.33903315E-02  6.47671686E-02  2.32646550E-03
 -6.23390214E-02 -7.90568140E-02  1.34325436E-01 -4.59678095E-02 -6.06020595E-02
  1.12540444E-01  2.25230660E-02 -7.06138235E-03 -2.67135965E-02 -1.17518638E-01
 -3.21594841E-01  5.64152109E-03 -2.44561402E-02  2.83314965E-02  9.97876491E-02
 -3.43733928E-02 -2.70622819E-01  3.21716761E-01  1.86543543E-01 -2.71113677E-02
 -1.35180887E-01 -8.84344533E-02  3.57582595E-02  8.55914609E-02 -5.77078360E-02
  2.19268636E-01  2.05740402E-02  2.22064632E-03  6.09075481E-02 -9.70595456E-02
  2.79685308E-01  4.42346865E-02 -3.56190089E-01  3.28410322E-01  6.42561629E-02
 -2.55604023E-01 -1.04481250E-02  7.11282696E-02  1.29355816E-01 -3.06914973E-01
  2.64492953E-01 -8.53917914E-02 -7.78383516E-02  2.42650097E-01 -2.55240499E-01
 -1.12038167E-01 -1.05125394E-01  2.10397643E-01  7.67719586E-02 -6.53673473E-02
  6.88235251E-02  4.22365622E-02 -1.31667337E-01  4.66661560E-01  3.27519820E-01
  4.78235849E-02 -8.18099867E-02 -3.60897760E-01 -1.86466787E-01 -1.32660490E-01
  6.04044256E-02 -2.09061082E-01  1.07976852E-01 -1.14171065E-01  8.30412919E-02
  1.74090961E-01  1.09955395E-02 -1.03121180E-01  2.03854062E-01 -3.68810405E-02
  6.86823474E-02  7.29158337E-02 -2.23894131E-01  3.10447631E-02 -5.03658488E-02
  6.87108920E-02 -1.55427847E-01  1.65010819E-02 -5.79974283E-03 -3.63787895E-03
 -6.69815839E-02 -1.76988441E-01  1.42656367E-01 -1.63861751E-01  3.97655824E-02
 -1.96494899E-01  1.16026335E-01 -1.76879099E-01 -1.58275766E-01  4.35169792E-02
  2.41505636E-03 -5.30196601E-02  2.08287234E-02  3.65886049E-02  9.11027555E-02
  1.09180951E-02  5.67321944E-03  2.44797977E-01  1.02661968E-01  3.86863976E-02
 -1.80172970E-02 -4.36786654E-02  1.59590229E-02  3.79694988E-03 -1.68692635E-01
  2.34609370E-01 -4.20897693E-02  1.92273525E-01 -3.86949943E-02 -3.11263527E-02
 -1.99478419E-04 -7.36706012E-02 -2.81643115E-01  1.58478804E-01  8.24996948E-03
 -6.04754082E-04  1.70311308E-01 -4.51866052E-02  6.38425467E-03  9.19963752E-02
 -3.92360993E-02 -1.81544784E-01  6.32739929E-02 -1.61622540E-02  1.15674318E-01
 -6.71288453E-02 -1.03850417E-02  1.41994006E-01 -1.38112929E-01 -1.97808051E-01
  8.86049892E-02  5.33203184E-02  2.63836777E-02  1.20377904E-01  2.18878787E-01
 -4.20026120E-02 -2.74154966E-01 -1.10959053E-01 -7.18525224E-02 -2.92331855E-01
  1.35765213E-02 -9.77722372E-02  3.39167466E-02 -2.99295451E-01  2.24335582E-01
 -3.70323435E-02 -3.53293629E-02  1.92599146E-01 -1.64199405E-01 -5.77556719E-02
 -1.88896481E-02 -9.58794216E-03 -8.65921932E-02  2.64286103E-02  1.19908641E-01
  9.15945260E-02 -3.69324795E-01 -2.77156831E-03 -2.22428947E-02 -2.93189024E-01
  5.82289634E-02  7.23968754E-02  1.13766048E-01  3.55668759E-01  8.63445344E-02
 -2.54875253E-01  1.78146080E-01 -5.97622464E-02 -9.35020002E-02  5.65260525E-03
 -1.15775081E-02  1.73589116E-01 -5.03646689E-01  4.98334073E-02 -8.30928874E-02
 -1.26708186E-01  5.78842478E-01 -7.17194050E-02  1.07041527E-01  1.53953750E-01
 -5.68097224E-02  3.38102748E-02  2.79161024E-02  2.30773869E-02  3.77789746E-02
 -1.94330203E-01 -1.16103651E-01  2.99897327E-02 -9.45348677E-03  2.26153570E-01
  9.00329214E-02  1.30412943E-01  5.42618472E-02 -6.69157495E-03  1.71657462E-01
  3.88633408E-02 -9.31885702E-02  2.05669342E-02 -8.27321468E-02  9.67185012E-02
 -7.34264971E-02 -9.66441626E-02  2.85606960E-01  1.73277835E-01 -1.59844488E-01
  7.46814699E-02 -1.13201295E-01 -6.86220336E-02  3.73379236E-02  1.16558183E-02
 -4.16223564E-02  1.48009947E-01  4.48343717E-02 -1.33285164E-01  2.27939606E-02
  1.18728684E-01 -4.48517852E-02  2.20187176E-01  2.44836326E-01 -8.81007781E-02
  5.73474915E-02  8.38524344E-02 -4.38531947E-02 -6.43165898E-02  1.31484238E-01
  1.63756494E-01 -3.50115724E-01 -9.20439722E-02  3.17212859E-01 -1.49939372E-02
  4.09220186E-02 -5.51040557E-02 -2.01697088E-01 -5.58026349E-02 -9.41112403E-02
  8.45184981E-03  1.29124051E-01 -6.39994287E-03  1.14320404E-01  2.84735296E-02
 -8.70782428E-02  1.88712037E-01 -1.82871801E-01 -6.28191759E-02 -2.27527145E-02
  1.47397785E-01 -1.61135965E-02 -4.64019760E-02  8.85538974E-02 -5.60137377E-02
  8.20843190E-02  7.33295422E-02 -9.55744139E-02 -6.55738190E-02  1.02925831E-01
  5.54524776E-04  1.40291732E-01 -8.17385144E-02  5.93948543E-02 -1.77326993E-02
  9.41610621E-02  3.59860348E-01 -1.02475484E-02 -9.43705043E-02 -9.13125047E-02
 -3.51473715E-01  8.14582387E-02  1.16758921E-01  5.05266008E-02 -1.65761880E-01
  7.28221462E-02 -3.11396494E-02 -4.52506163E-02  2.16684380E-02 -1.82676303E-02
  9.81290894E-02  3.78391612E-01  3.36358973E-01 -5.50821559E-02  3.32683545E-02
 -3.14636512E-01 -2.15140322E-01  2.19941037E-02 -4.55194322E-03  1.80375246E-01
 -9.91021932E-02  7.03019450E-02  1.66015967E-02  4.89969225E-02  3.13830252E-01
 -2.47114044E-01  4.27196251E-01 -2.11824430E-01  4.55660746E-01 -2.10201643E-01
  1.79474510E-01 -7.41529897E-02  9.21103966E-02 -1.11365636E-01  4.99557529E-02
  2.67699017E-02 -3.65796805E-02 -1.39533896E-02 -9.64494569E-03  1.18232712E-02
  6.58510457E-02 -1.35928316E-02  3.01122131E-02  1.51772296E-02  3.40681700E-03
  3.96406436E-02  4.85932489E-04 -5.43169220E-02 -3.88314631E-02  9.80662006E-02
  4.80343383E-02 -6.46909992E-02 -2.51161142E-02  1.36186371E-02 -3.04499300E-02
  2.78518624E-01  2.29713759E-01 -1.31848406E-02  4.77991797E-03  7.04649573E-02
 -3.56726750E-02  5.69307958E-02  3.00091358E-01 -4.16536357E-01  8.06716060E-02
 -3.00063186E-01  6.89848982E-02  4.29690159E-03  2.89416228E-02 -8.52445926E-02
  6.39614601E-01  1.21492476E-02 -2.31277612E-02  7.24904180E-02 -6.44539446E-02
 -9.27468703E-02  9.28540788E-02  1.50066441E-01 -1.78190897E-01 -8.00794940E-02
 -2.61482933E-02 -1.05985786E-02  1.92046170E-01  1.22885856E-01 -4.87586912E-01
  2.12991907E-04  3.15753089E-01 -2.05598387E-01  1.65282019E-01 -1.31981795E-01
 -3.55479896E-01  2.51327181E-01  2.28431612E-01 -8.97793990E-03 -1.57476830E-02
 -2.52141617E-01  1.30250822E-01  6.56830495E-02  3.39927581E-02 -1.07078696E-01
  1.01096122E-01  9.63917570E-02  1.76922966E-02 -5.41993422E-03 -1.15429600E-01
 -6.52213792E-02 -5.50531035E-02  2.52745180E-01 -2.26806629E-01  3.45056523E-02
 -4.41032954E-02  4.93774566E-02  1.12169536E-01 -8.18428583E-02  2.79429953E-01
  2.03857874E-01  2.08085566E-01  3.67520424E-02  3.25477959E-02  4.60129116E-02
 -1.39309968E-01  1.53525446E-02 -8.04134578E-02  9.66353579E-02  4.09737800E-02
  2.34918117E-01 -5.81380679E-02 -4.66447509E-02 -1.04797563E-01  3.41992090E-02
 -1.09784678E-01 -5.01594496E-03  3.14074860E-02  5.75788318E-02  2.81831779E-02
 -1.75304507E-02  4.23531299E-02  6.02297368E-02 -3.67918646E-01  1.03714069E-01
 -2.54525226E-01  1.00416187E-01  1.29151852E-03  1.36772406E-02  1.53458494E-02
 -7.68681779E-02 -2.11201976E-02 -1.37543056E-02 -2.80921260E-02  2.89018925E-02
  2.73404983E-02  1.52829513E-02 -4.27719351E-02  5.11851836E-02 -5.05024454E-02
 -2.65622965E-02  3.09528645E-04  1.00964678E-02 -1.04950427E-02  2.01836452E-01
  3.85575893E-02  5.91918183E-02 -4.06650734E-02 -4.78020543E-02 -3.26317525E-02
  5.27899515E-03  1.39645412E-01 -1.27724121E-01 -1.74374850E-02 -2.19667490E-01
  8.88198895E-02 -4.65002507E-02  7.64848822E-03 -7.80884518E-02  4.71095738E-01
 -1.29602704E-02  4.17007420E-02 -1.35222136E-01 -1.80277555E-01  6.48193036E-02
 -4.85856538E-02 -1.52925744E-01 -8.66458279E-03  6.68495757E-02 -4.07429973E-01
  1.78292307E-01  1.18119132E-01 -1.74393239E-01  7.18965957E-01  2.27576504E-01
 -4.61056176E-01  2.12063895E-01 -2.53173847E-01 -4.19169848E-01  5.19862793E-01
 -2.16895703E-01  2.03199484E-01 -2.70648148E-01 -2.27093142E-01 -2.40413146E-01
  1.41119920E-01  7.51228532E-02 -3.90403019E-02  1.79282074E-01 -1.98639895E-01
 -1.60903737E-01  1.05980409E-01  1.26993669E-02  1.24192454E-01  1.02171228E-01
 -1.28094434E-01  5.33190945E-02  5.15902394E-02 -6.95921048E-02  5.29113828E-02
  2.63322474E-02 -7.06659786E-03 -2.97329130E-02  1.00170352E-01  9.71619407E-02
  1.30707985E-01 -8.20871425E-03  1.32192533E-02 -1.44032995E-02 -8.15332444E-02
  1.95238200E-02 -6.19266846E-02  9.66639695E-02 -1.53832828E-02  1.14529938E-01
 -3.46894273E-02 -2.14799046E-02  8.52232876E-02 -6.47440161E-03 -2.55167131E-02
 -1.65720434E-02 -1.68980590E-03 -9.91055565E-03  1.01557571E-01 -3.43004051E-02
 -4.25949767E-02 -4.51678079E-02 -1.02854526E-01  1.20129770E-02 -7.01114696E-02
  1.34161169E-02 -2.63916064E-02  2.53261687E-02  1.30928441E-01 -6.88612761E-02
 -1.06635494E-01  3.46299493E-02 -7.31981945E-03  1.75891387E-01  8.09189414E-02
 -8.19384905E-02  1.75130239E-01 -9.49430825E-02  1.40588217E-01 -4.66395765E-02
  1.52147945E-02  1.31726373E-02  5.02066219E-02 -1.70715834E-01 -1.48803019E-01
 -8.44498612E-03 -5.97332230E-02  1.55322231E-01  1.60118167E-01 -1.48073502E-02
  3.12170537E-01 -1.80981127E-01 -2.99246482E-02  6.20800158E-02  6.46153705E-02
 -1.59389915E-02  3.62233799E-02 -8.35198418E-02 -2.41855139E-02 -3.99379818E-01
  9.26617823E-02 -1.09441607E-01 -9.58622239E-02  1.07487641E-01 -2.71828735E-02
  6.33342005E-02 -1.45029300E-01  5.24520978E-03 -1.65543647E-02 -6.91528624E-03
  3.18304496E-01  1.00351438E-02  5.26481904E-02 -2.63944230E-01  9.43498387E-03
 -1.12660115E-01 -2.86877070E-03  3.13772851E-01  7.78321354E-02  1.46006622E-01
  1.15536658E-01  1.06778710E-01 -8.70347003E-02  2.57947981E-02 -3.80950877E-02
  6.99253581E-02 -1.93099121E-01  7.55325193E-01  1.59040416E-01 -1.13397362E-01
  1.78559980E-01 -1.27155935E-01 -4.15415152E-01  5.40932470E-02 -2.47666782E-01
  1.09814280E-01 -1.21983859E-01 -3.13779876E-01  1.81666682E-01  8.84771910E-03
 -2.87994683E-02  3.07513292E-02  7.53641573E-02 -1.70835824E-01  1.74015818E-01
 -6.40012052E-02 -1.14180828E-01  1.85153606E-01 -1.44554846E-01  6.95720435E-02
  3.43144621E-01 -1.64571724E-01 -2.79900988E-02 -1.09989422E-02  4.57053260E-02
  1.37021139E-02 -3.67296254E-01  2.71510545E-02 -5.21872924E-02  8.07345420E-02
  7.61882832E-03  9.15252979E-02  5.67908387E-02 -2.54634098E-02 -9.48389503E-02
 -9.59062014E-02  2.62077978E-01 -1.42993478E-01  2.61308357E-01 -1.35747559E-01
  3.46951313E-02  9.57851819E-02  1.12221126E-01 -3.16148973E-01 -2.28279369E-01
 -1.38181189E-01 -1.19419548E-01 -9.83605256E-02 -5.04279196E-02  7.04115088E-02
  3.88904776E-02  1.01995344E-01 -3.93563843E-01 -9.77399796E-02  2.83629231E-01
  2.48701325E-02 -2.76386077E-02  1.50767103E-01 -2.66245656E-01 -5.24689682E-02
 -8.29147110E-02 -2.02446181E-01 -1.30205659E-01 -4.63921824E-02  1.97894604E-01
  6.77721583E-02 -2.66209513E-01  3.66383696E-01  1.14038702E-03 -2.04904517E-01
  1.15215308E-02  1.39547783E-01  2.26733018E-01 -3.30115465E-02 -1.37091883E-01
 -1.14237159E-01 -3.24159110E-02 -1.18997304E-01  1.25447616E-01  2.55485924E-01
  1.15579760E-01 -1.34008875E-01 -1.38618706E-01  6.19466157E-03  1.34378991E-01
  6.74970163E-02 -2.75778747E-01  1.60740864E-02 -5.77309937E-02 -2.92177454E-02
  1.56784335E-02 -8.50040441E-02  3.13961830E-02  1.60971246E-01  1.92443223E-01
  8.84376136E-02 -1.19266811E-01 -1.17704330E-01  2.01762004E-02  1.69650174E-01
  2.42440474E-02  7.01218725E-03  1.17823245E-01 -1.06110772E-01  5.67122673E-02
 -5.22984940E-02 -1.38631940E-01  1.02632373E-01 -6.25573942E-02  2.17834505E-01
 -2.09379597E-01  1.13219409E-01  1.34704629E-02  4.52362976E-04  2.08641961E-01
  5.11518416E-02 -2.58573700E-01 -1.24080799E-01 -2.53386291E-01  2.98893725E-02
 -1.98341604E-02 -3.31532746E-02  1.77282247E-01 -7.66633751E-02  8.47114346E-02
 -1.58620860E-01  1.03126465E-02 -1.10998674E-01 -4.59837076E-03  4.19622258E-03
  7.11813879E-01 -2.11971150E-01  4.03849230E-01 -2.08493525E-01  1.40269870E-01
 -1.64012077E-01  2.57863344E-01 -9.24151542E-02  3.35839506E-01 -1.50665147E-01
  1.94218811E-01 -5.62402505E-02  1.62495455E-01 -6.97327014E-02  4.65771520E-03
  1.05581271E-01  1.14050998E-01 -2.07257743E-01 -2.07875811E-01 -3.00706845E-02
 -1.60111471E-01  1.14031038E-01  8.87009494E-02  1.70667124E-01  3.55919281E-02
 -3.83124800E-02 -1.03165136E-01  1.56301712E-02  5.91840845E-02  2.31174832E-03
  5.64003035E-02  2.09222025E-01  1.13376667E-01  1.10825746E-01 -7.47125900E-03
 -4.13747612E-03 -1.84426307E-01 -2.01646907E-01  2.12898549E-01 -1.38559427E-01
  1.42136721E-02  4.05790744E-02  1.97868443E-01 -1.58492583E-01  1.35582813E-02
 -5.70153684E-02  5.90481322E-02  1.05693976E-01  3.98001626E-01 -1.89496449E-03
  4.93737059E-02 -1.95860221E-01 -2.17935218E-01 -2.17555117E-01 -4.57355103E-01
  6.21169207E-01  8.98064135E-02 -1.55083159E-01 -3.64258427E-01  2.09875021E-02
 -1.07563005E-01 -8.16316786E-02 -9.27452859E-02  4.16034369E-02  5.17705760E-04
  1.96244291E-01  7.46307425E-03 -2.47592863E-01 -3.82851150E-02 -3.83705989E-01
  4.58843095E-01  1.87189501E-01  7.10239974E-02 -2.81622636E-01 -4.21382340E-02
  1.95019466E-01  1.05208638E-01 -2.46051310E-01 -2.30929543E-01 -3.92039700E-02
 -1.96221206E-01  3.42345980E-01  4.80324308E-01  9.17685921E-02 -2.12341156E-01
  1.99794773E-02 -1.41657097E-02 -2.13348733E-01 -7.70161592E-02 -1.68215359E-02
  1.58590200E-02 -9.84660195E-03 -2.82384161E-02 -7.88480259E-02  7.35429342E-03
  6.47357747E-02 -4.88140987E-03  4.71791306E-03 -2.09700000E-02  5.75659757E-02
 -8.72230203E-02  4.56388814E-03 -5.11803112E-02  1.79383420E-01  9.62523807E-02
 -7.92833843E-03  1.22219351E-01 -2.02632282E-02 -1.49999705E-01 -1.09038278E-02
 -1.40523537E-01  3.55608982E-02  1.29610210E-01 -7.45144453E-02  9.72318364E-02
  2.96307283E-02 -2.78420978E-01  5.83461835E-02  4.51530184E-03 -5.62632090E-02
 -9.32384981E-02  1.30910197E-01  1.82914195E-01  3.00749633E-02  3.38732309E-02
 -2.65735345E-01 -2.60252750E-02 -1.14237366E-01 -2.18775968E-01  2.58151498E-01
 -7.43888455E-02  1.50617769E-02 -6.89716562E-02 -1.97530736E-02 -2.11102321E-01
 -8.37113971E-02  2.82888108E-01 -1.28739703E-01  1.12267162E-01 -5.82880894E-02
 -1.94653196E-01  1.15652501E-01 -4.50855659E-01  9.09885006E-02  9.01482109E-03
 -3.33232693E-02 -1.10513140E-01  5.48572342E-02 -5.84958046E-02 -8.64154197E-03
 -1.94961573E-01 -1.26869808E-01  3.37713626E-04  1.23294231E-01 -6.33847042E-02
 -1.86971969E-01  1.17333532E-01  2.93380372E-02  1.59705485E-02 -1.67197866E-01
 -4.07352369E-01  2.66267319E-01 -1.88672752E-01  1.02905738E-01 -5.53216970E-01
 -2.33637864E-01 -3.90020631E-01  1.65444788E-01  2.86125614E-02  3.79752371E-01
  2.94169073E-01 -7.77009835E-02  9.79639648E-02  2.58267633E-03  5.04659092E-02
 -4.08953590E-02  8.45436529E-03  7.06773165E-02 -1.38415353E-01  5.72844025E-01
  5.62189019E-03 -1.94638324E-01  1.28702994E-01 -3.55735241E-02 -1.97174640E-01
  9.15598601E-02 -1.35927104E-01 -5.84561559E-02 -1.14531832E-01 -1.93374791E-01
  1.88548011E-01 -6.13995444E-02  2.57702182E-02 -4.63974615E-02 -1.00272524E-02
 -7.25879414E-02 -1.25972932E-01  1.73835876E-02  7.74702584E-02  1.51282840E-01
  1.21612184E-01  2.53549043E-02 -2.83928091E-01  1.07097031E-01  4.98355689E-03
  6.37955976E-02 -2.52205825E-02 -7.39550304E-02  2.85576834E-01 -7.75727906E-03
 -3.06094947E-01  3.73188199E-02  5.02894082E-02  4.84759507E-03 -5.70006498E-02
  6.18042606E-02  3.49003757E-02  3.16737651E-02 -3.72115198E-01  1.67915523E-01
 -2.61320590E-01  2.02637663E-01  1.10268277E-02  4.62470516E-03  6.13514729E-02
  1.81777544E-03 -4.57590597E-02 -4.17031032E-02  3.00906706E-01 -2.80326910E-01
 -3.72553717E-01 -2.62951232E-01  4.42027190E-01 -1.47533975E-01 -5.66140527E-02
 -2.26997682E-01  4.44226310E-01 -1.61510030E-02 -2.04201731E-01 -4.97559007E-02
 -3.65700645E-01 -3.79925039E-01  8.10086067E-02  1.47821293E-01  1.74339035E-01
  2.47456051E-02 -1.94071028E-01 -2.75221696E-01  1.41721831E-01  8.61714443E-02
  1.47003532E-01 -2.96994719E-01 -1.31792099E-02 -1.22650576E-01 -3.04380188E-03
 -8.80108675E-02  8.31998142E-02  1.22948554E-01 -2.71489806E-02  1.00585996E-01
 -9.97410342E-02 -2.73014925E-02 -1.84747527E-01  8.61067142E-03 -7.88555577E-02
  1.21447594E-01 -1.62713606E-02  7.71634286E-03 -2.57963055E-02  2.80289167E-02
  4.03743079E-02 -8.76187621E-03  3.47638014E-02 -9.04205242E-02 -7.67293879E-02
 -2.24996112E-02  5.38427788E-02 -8.98025273E-02  7.70615237E-02 -5.73723594E-02
  4.97719903E-02 -2.37668988E-02 -5.96107018E-02  1.18642705E-01 -1.26959937E-01
  5.66275304E-02 -6.20461826E-02  6.72184866E-02  5.76038422E-02 -3.95366091E-02
  4.52886630E-02 -1.40701894E-01  9.79266051E-02 -1.89055134E-01 -9.51602796E-03
  3.33557519E-02 -1.91990613E-01 -1.10703064E-02  3.50400709E-02  6.28234125E-02
 -7.46861782E-03 -2.00321553E-03  3.83985016E-02 -5.92121789E-02 -5.30917356E-02
  8.90794428E-03 -6.87640205E-02  4.99170555E-03  5.80458144E-02 -5.10258309E-02
 -3.34487198E-02  2.37215677E-02  3.16826006E-02 -1.12352238E-01  6.00800772E-01
 -1.88971372E-01  5.78674019E-01 -1.55724121E-01 -5.09196261E-01  1.48559390E-01
 -4.87860685E-01  3.07726197E-01 -1.36988412E-01  8.79447313E-02 -1.45454101E-01
  7.42326975E-02 -1.35618535E-02 -1.27781831E-01 -1.03285551E-01  2.04325754E-01
  1.90995459E-01  3.60180505E-02  1.98774065E-01 -3.23605940E-01 -5.66688636E-02
 -3.12686061E-01 -7.90818231E-02  1.87018413E-01 -2.36935929E-02 -7.92499840E-02
 -5.72683336E-03 -4.26981127E-03 -5.41305258E-02  6.71437352E-02 -2.71702058E-01
 -7.08559288E-02 -2.00814776E-02 -4.96881407E-02  2.56903613E-01  3.94433728E-01
  1.59061353E-01  5.87434875E-02 -3.04748672E-01 -4.40996494E-02  1.20385831E-03
  2.16224639E-01  7.67774220E-03 -2.67491119E-02  1.36219396E-01  5.96140505E-02
  1.58927372E-01  1.21653764E-02 -4.05409248E-02  3.61076686E-02  1.24036421E-01
 -8.74110741E-02 -3.27801558E-01  4.00029779E-01  9.24232366E-02  1.37963892E-01
 -2.16217385E-01  3.58804808E-02 -1.53359270E-01  4.36429973E-02  1.02569499E-01
  1.96622007E-01  1.33870593E-02 -5.81419082E-02 -2.95677326E-01 -5.04625520E-01
  7.68448577E-02 -3.14575427E-01  3.78871523E-01  6.60714468E-02  1.07249956E-01
 -1.84642651E-01 -9.12923822E-03  3.23326487E-02 -5.37246964E-02  1.65836420E-02
  7.08922960E-02  1.17195655E-02  5.86233210E-02 -2.07116491E-02 -1.21988825E-01
  2.24632943E-03 -1.31877155E-02 -1.53819180E-02 -2.77163419E-02 -5.31265477E-03
 -2.88970727E-02  3.94148245E-02 -5.43428720E-02  1.38317132E-02  2.11953034E-02
  6.74431190E-02 -4.46348801E-02 -1.20897277E-01  9.90287470E-02  1.66178299E-01
  1.38672429E-01 -1.68047480E-01  1.52409984E-01  9.58222201E-02  1.33670487E-01
 -3.53050291E-01  1.20306444E-01 -1.17189603E-02 -2.75200362E-01  5.35677105E-02
  2.80687800E-01 -3.35748109E-02  6.01850321E-01 -1.94302489E-01 -5.92254147E-02
  3.14893011E-02 -1.66409531E-01 -1.16198057E-01  7.21407717E-01 -2.00143737E-01
 -4.14558007E-03  4.93998744E-03  3.12687539E-02 -2.88720231E-02  2.29290447E-02
  2.34921953E-02  4.36921236E-02 -3.89882973E-01  6.46101360E-02 -2.69934105E-01
 -1.14823355E-01  3.83926983E-01 -2.25991771E-01 -1.25110431E-01  8.56506995E-02
 -3.85212328E-02 -2.05396071E-01  2.73657147E-01  1.49426790E-01 -1.56159077E-01
  1.11535792E-01 -1.38529856E-02 -1.47738051E-01  5.45413521E-02  2.30531271E-01
 -4.01359368E-01 -1.95676244E-01  3.40890045E-02  9.10074320E-02 -7.80413669E-02
  2.13746974E-02 -2.00367414E-01 -1.22283147E-01 -3.85719966E-02 -6.34820112E-02
  6.36435396E-02  2.88663763E-02  1.09627243E-01 -1.30729428E-02 -1.72955910E-01
 -2.75507349E-02 -3.54851822E-02  4.17542151E-01 -2.67906140E-01  2.01829964E-01
 -1.73505014E-01  7.64243114E-01 -2.42710553E-01  2.10426815E-01 -1.44125698E-01
 -2.55204230E-04  4.45121980E-01  3.23813949E-02  7.00876224E-02 -4.81266177E-01
  1.06908375E-01 -2.59252641E-01  1.22377730E-01 -1.08340845E-01 -1.40457334E-01
  3.28221873E-02 -1.60702518E-01  1.13824702E-01  9.36255601E-02 -3.03715993E-02
 -1.78256077E-02 -8.89934240E-02 -1.16505887E-01  4.07930785E-02  4.94927704E-02
  2.25583757E-02  2.37769358E-03  3.45639880E-02 -8.38458188E-03  1.39526822E-02
 -4.30244870E-02  7.27127515E-02 -1.72463000E-01 -4.46565871E-02 -3.13124950E-02
 -6.96360603E-03  4.01210633E-01  1.00271398E-01  1.01676602E-01  2.91070974E-02
 -7.52912855E-02 -9.88920819E-02  1.78746225E-01  1.63214344E-03 -5.86298856E-02
  4.98849153E-01 -1.42761251E-01 -3.82891559E-01  1.00951244E-01  2.51244528E-01
 -4.25979391E-02 -9.67235403E-02  1.58547356E-01  1.04302672E-01 -5.49276267E-02
 -2.07793934E-01  1.14762064E-01 -7.88122415E-02  1.45049864E-01  2.16817867E-02
  1.27064176E-01  1.21944016E-01 -2.42316762E-01 -1.50351973E-01 -7.36831789E-02
  1.83358054E-01  1.78444067E-01  5.69633981E-01 -3.94103405E-01  1.96905608E-01
  4.16896373E-01  1.93394015E-01 -9.22332862E-02 -1.55569202E-01  2.57291944E-02
  1.65519088E-01 -3.87440646E-01 -9.78782086E-02  1.37671317E-01 -4.66568445E-02
  2.64422428E-01 -2.61720966E-01 -9.75218054E-02  1.06030876E-01  3.66577543E-01
 -1.83865701E-01  2.19238608E-01  5.05066438E-02 -7.15705984E-02  1.46415221E-03
 -3.44019185E-02  7.11551016E-02  2.83697939E-03  5.55437693E-02  2.53629996E-02
 -5.10686379E-02  6.55154873E-02 -1.01695084E-01  1.57285915E-01 -1.76006505E-01
 -2.21876096E-02 -3.43365212E-02  1.72861573E-02  4.53445536E-02 -2.12048219E-02
  1.28629151E-01 -1.23084776E-02  7.46126125E-02 -6.71154522E-02  3.44237884E-03
 -3.89368387E-02 -6.68248403E-02  6.91251919E-02  2.22539954E-02 -6.77038588E-02
 -3.38997494E-03 -5.74628939E-02  4.23566533E-02  2.15614239E-03  2.73762030E-03
 -3.46023693E-02 -1.73257976E-02 -1.43764435E-02 -1.70116775E-02  1.85117120E-02
 -3.69369117E-03  6.58520548E-02  1.98866930E-02  6.14767363E-02 -3.08281930E-02
 -1.91219263E-02 -1.78091181E-02  4.78970085E-03 -2.89582785E-02  3.41079947E-02
 -2.50438332E-01  1.45119476E-01 -2.14366723E-01  5.82285603E-02  9.97683726E-02
 -4.66174354E-01 -4.77636898E-02 -2.26351821E-01 -2.08119279E-01  1.49304328E-02
  1.93448950E-01 -3.94309078E-01 -6.89145465E-02  2.16303959E-01 -1.68517654E-01
  4.13553289E-02 -5.63993853E-01  1.03941292E-01  7.27939429E-01 -2.63480753E-01
  2.35894515E-01 -8.66472982E-02 -9.38906821E-02  2.39600516E-02  1.59936555E-02
  7.28813840E-02 -4.88251298E-01  1.50337205E-01  1.93818807E-03 -4.89771517E-02
 -6.62947127E-02  1.24472565E-01  6.94946260E-02  9.84149624E-03 -1.02479076E-01
 -7.64358930E-02 -8.71432731E-02  1.07030327E-01 -1.15357291E-01 -5.12853270E-02
 -1.40629540E-02  9.86406768E-02 -2.90320685E-02  1.10486690E-02 -1.79722131E-01
 -3.34158571E-01  2.07886348E-01 -1.20521860E-01 -1.07394026E-02 -6.85374537E-02
 -1.61704385E-02  1.24147782E-02 -5.38400573E-01  1.73734335E-01  1.55054880E-01
  1.72866380E-01 -2.11364501E-01  9.28115163E-02  3.07237953E-02  2.18668985E-01
  3.80453294E-03  2.48562265E-01 -5.02385084E-02 -1.37518785E-01 -2.17202900E-01
  3.22437974E-02 -1.26421338E-01  9.92203986E-01 -7.17310948E-01  8.80983781E-02
 -1.28873291E-01  1.80823491E-01  2.15642083E-01 -1.14067284E-01  6.38457126E-01
 -2.01732738E-01  3.32621844E-01 -2.03980438E-01  2.02204877E-02  2.22573586E-02
 -2.79492645E-01  7.14960689E-02 -2.80627389E-02 -3.42471547E-01  2.06522698E-02
 -2.59898615E-01  1.99193910E-01 -3.47633817E-02  1.03644311E-03  4.98966081E-02
 -3.61528281E-02 -4.69201024E-02 -4.87093130E-02 -2.19431597E-02 -4.23451412E-02
  1.99102812E-01  4.89229963E-02  3.02575592E-01 -2.84124270E-01  2.94877353E-02
 -9.40395521E-02  1.74893944E-02  8.03176619E-02  6.43896485E-03 -5.92046815E-02
 -7.47524802E-02 -5.94196849E-02 -1.70922706E-03 -7.02657933E-03  6.39826478E-02
  1.07894708E-01  2.85807430E-02 -1.61580656E-02  3.68642646E-02 -3.56793320E-02
  2.21081612E-02  2.73553509E-02 -5.62560273E-02  8.10147080E-02 -3.70428419E-03
  5.92773348E-02 -2.17561456E-02 -2.37725296E-01  8.54690137E-02 -1.15713508E-01
 -1.62666815E-02 -9.87836354E-02  7.17778731E-02  4.81162288E-03 -1.49691357E-02
  9.68668336E-02 -1.41315587E-02  1.69479753E-02  6.63829457E-02  5.43308018E-02
 -4.65379217E-02 -9.28618773E-02 -4.88612351E-02 -1.77826037E-01 -2.02089197E-01
  4.17386311E-01 -9.13774177E-02 -1.23136957E-01  3.39433828E-01 -1.11350156E-01
  2.30877968E-02 -1.13362335E-01 -3.59336156E-03 -8.77179858E-02  1.64960717E-02
  2.76682633E-01  3.18695098E-02  1.78269364E-02  1.96534601E-01 -1.21042835E-01
 -2.52101237E-01 -2.09144176E-01 -1.57905048E-01  2.38787044E-01 -2.11866095E-01
  6.12167021E-02 -1.03758215E-01 -1.04745228E-02 -3.33646497E-02  1.05892079E-01
 -1.13000411E-01  1.43792307E-01  7.78208956E-02 -6.16098014E-02  1.41515029E-01
 -3.23772048E-01  1.68585278E-02  5.30557320E-02 -1.36000528E-01 -1.19204848E-01
 -9.34441111E-04 -2.15315184E-02  8.31510270E-02 -2.80122226E-01  1.28540741E-01
 -2.24367963E-02 -2.49841644E-02 -1.90425114E-02 -2.33254168E-01 -3.08977765E-02
  1.71335142E-01  2.67964940E-01  1.14226000E-01  9.76677659E-02 -1.33854914E-02
 -3.86215059E-03  1.23014015E-01  4.99014767E-03 -1.24773691E-01 -1.32073858E-02
 -3.15867856E-02 -1.18214713E-01  7.83193823E-02 -3.95309108E-02  1.85325444E-01
  1.62776375E-01 -7.22186657E-02  1.39316029E-01 -3.83709606E-02 -1.11956492E-01
  3.48658906E-02 -1.87490602E-01  3.43876446E-02 -4.32109708E-03  1.24445901E-01
  1.40446543E-01 -4.65300229E-03 -5.22670729E-02 -1.75878345E-01  3.05783152E-01
 -9.14919796E-02  2.94904455E-01  2.47617145E-01 -3.60886141E-01  2.80479185E-01
  4.45864932E-02 -1.74628948E-02  4.66935004E-01 -2.63267600E-01 -5.08964543E-01
  2.17546377E-01  6.86007304E-02 -3.04361012E-02 -4.59455610E-01  2.48634138E-01
 -5.05943123E-01  2.46617861E-01  6.67714469E-01 -3.28782250E-01  5.90016266E-01
 -4.09203995E-01 -1.50719093E-02 -7.68897311E-02 -7.68719400E-02  7.93687582E-02
  7.88048585E-02  6.98052948E-02  5.28447600E-01  3.41442452E-02 -9.15421185E-02
 -2.05303807E-01  1.39963760E-01 -6.63410917E-02  1.59825910E-01 -1.72159892E-01
  3.02269895E-02 -1.94914319E-02 -2.42209612E-01  3.79415832E-01  2.54267970E-01
 -7.98849036E-02  7.15176672E-02 -4.49639841E-01 -8.97496223E-02  2.19404693E-02
 -1.83510506E-01 -2.08438880E-01  4.65220055E-02 -1.07877463E-01 -8.91619664E-02
 -4.22735847E-02  1.18376487E-02  1.14778002E-01  3.93383392E-02  2.03413557E-01
 -1.73744687E-01 -6.52664269E-02 -1.25927938E-01 -1.14568047E-01  4.26432902E-01
  6.32835787E-02 -2.08148655E-02  1.18846708E-01  1.26919584E-02  1.11280446E-01
 -5.16494159E-02 -5.98140760E-03 -2.36030016E-02 -2.56475310E-02  3.01127404E-02
  9.45756060E-02 -6.95012234E-03  3.94117044E-02 -7.43507424E-02 -2.79236057E-01
 -2.54540603E-02 -7.88611099E-02  4.87153242E-02 -1.41222199E-02  3.70302495E-02
 -9.07204144E-02  1.94752401E-02  8.14762367E-02 -5.22001501E-02  1.51633358E-02
  1.48585285E-01 -7.19104023E-02  1.65882984E-01 -1.46135267E-01 -2.51338799E-01
  8.09615816E-02 -5.69926271E-02  1.22507028E-01  4.67476380E-02  3.29007370E-05
  1.98318812E-01  1.14664605E-04 -1.29533799E-01  3.90805702E-04 -3.94572764E-02
  6.24376589E-03  3.62130098E-02  1.74383674E-01  3.73100052E-01 -4.75865058E-01
  2.06332352E-01  2.74649024E-01 -5.14869783E-01  2.37665290E-01 -1.39358190E-01
  2.58921291E-01 -4.87035647E-01  3.12294376E-01 -1.38356084E-02  6.32096499E-02
  5.03526825E-01 -2.61026289E-01 -1.44663338E-01  9.45168143E-02  4.85038787E-01
 -3.27888554E-01  8.60663491E-01 -3.00179047E-01 -1.70086014E-01  6.85502138E-02
  2.69914328E-02  1.14257555E-01  1.42132275E-01 -2.28529279E-02 -1.08812399E-01
 -1.12429391E-01 -3.65661650E-02  1.86165655E-01  8.08393722E-02  1.16521854E-01
  9.17546458E-02 -5.97479613E-03  8.43585414E-02 -3.18301917E-02 -3.06025868E-02
  1.58624668E-02 -2.51644801E-02  2.74177077E-01  3.94830827E-01  5.73524502E-02
 -1.76186486E-02 -1.63253084E-01 -5.44383846E-01  3.34777817E-02  6.86560944E-02
  6.20323196E-03 -5.39128505E-02 -6.03327922E-02  3.21432162E-02  4.02435669E-02
 -3.12363535E-02  1.86442203E-02  7.78741744E-02  4.45905380E-01 -1.06500169E-01
  1.03305393E-01  2.53942455E-01 -3.88529529E-01 -1.45291898E-01 -3.74863884E-02
  1.41565357E-01 -1.64811123E-01  1.78104173E-01 -1.72720581E-01 -7.93503800E-03
 -6.43561581E-02  1.43986850E-01  2.21944758E-02  8.94271616E-03 -9.75629945E-02
  8.81539805E-02 -6.09441898E-02  1.74690061E-01  2.03443109E-01 -2.78413362E-01
  6.45515853E-02 -2.42160005E-01 -5.52987413E-02 -4.49328264E-03 -5.94472816E-02
 -1.73766967E-01  5.41421140E-01  6.91622281E-02  1.39728698E-01 -1.30954262E-01
 -4.87871679E-03  5.61200465E-02 -4.92863547E-02  2.31017130E-01 -4.69589140E-01
 -5.36661106E-01 -3.51931180E-01 -2.01074340E-01  6.46987516E-02  1.57095332E-02
  2.30919179E-02 -3.68442074E-01  3.10378345E-02 -1.54200957E-01  2.25335050E-02
  1.42918219E-01 -9.80821549E-02  5.47567406E-01  1.77194313E-01  7.84346456E-03
  8.71434262E-02 -2.18569308E-02  2.27692598E-01  8.35664204E-02 -2.02483481E-01
 -3.86503338E-01  4.64133806E-01  2.62579642E-01 -3.20651505E-01  2.05964890E-01
 -2.81031796E-01  2.85884624E-01 -2.16716404E-01 -2.13831456E-01  8.11246076E-01
 -2.25261593E-01  1.94613508E-01  5.00284181E-01 -2.45535566E-01  1.01967392E-02
  2.96521408E-02  1.47255162E-02 -1.30345578E-01  1.29387901E-02 -1.59507709E-02
  2.01340756E-01  2.68340368E-01  6.66011727E-02 -4.46669562E-02  1.22009443E-01
 -1.28003809E-02  9.97971783E-02 -5.83592428E-02 -2.34474787E-02 -1.25173986E-02
  2.15730387E-02 -5.60814988E-02  3.77684316E-03  3.11763698E-02  3.49204303E-02
 -1.62501671E-02  5.96038246E-02 -3.63813766E-01 -1.37615381E-01 -3.92067024E-02
  1.49847146E-01  2.18998931E-02  3.91037410E-03 -5.25885693E-02  8.15953126E-03
  1.41001771E-02 -1.62111533E-01 -2.84743348E-02  1.28655889E-01 -8.60025896E-02
  3.11327076E-02 -2.26994446E-01 -2.57378932E-01  5.02254773E-02 -2.09483076E-02
 -9.14379548E-03 -2.19353647E-01  3.27612727E-02  3.59470173E-02  1.59250139E-03
 -1.62244598E-02  1.33214920E-02 -6.37102123E-02 -2.42571971E-02 -2.81160656E-02
 -6.89108394E-02  9.61180765E-02  1.47377563E-01  3.97713816E-02 -1.23394547E-03
 -4.54187443E-02 -5.37928186E-02  2.98027967E-02  5.76249772E-02  7.07435963E-02
 -9.93460299E-02 -5.95695450E-02 -1.08186770E-01 -4.56430716E-02 -7.96325487E-02
  6.45018551E-02 -9.50927762E-02  3.00153433E-01  2.85259129E-01  7.78266629E-02
  2.13510526E-01  2.67546802E-01 -1.84939155E-01  1.45653314E-01  4.80106933E-03
  9.24611882E-03  4.75369378E-02  2.35300489E-02  1.82956446E-02 -1.63642906E-02
 -1.66438287E-01  6.83419327E-02  4.73145576E-01 -3.41601201E-02 -9.69229207E-02
  1.63642967E-01  7.08329036E-02  1.79613884E-01 -2.90093948E-01 -2.86166007E-01
  1.73955841E-01 -8.28836155E-02  1.82390787E-01  4.25535874E-01 -4.58305150E-01
 -6.18519814E-01  5.90586130E-01  7.82468852E-01 -7.26038374E-01 -6.53064120E-01
  5.12818822E-01  7.33865971E-01 -5.90864210E-01  1.95197547E-03  2.93526685E-04
 -8.68450846E-03  2.53893864E-02 -3.60847751E-02  4.94945933E-02  1.29374545E-01
  9.89070167E-02 -1.32995220E-01  4.75240818E-02  4.56441828E-02 -8.70594410E-02
  6.91798321E-02 -3.90328206E-02  4.93210663E-02 -2.19476225E-02 -2.81970755E-01
  7.00017187E-02  3.11885063E-01 -3.35357804E-02  1.39143331E-01  3.85915626E-02
 -4.67885356E-01  2.02361090E-01 -6.45345117E-02 -8.76911738E-02 -1.90154385E-01
 -8.61768104E-02  4.99991724E-02  2.25255568E-02  1.49446136E-02 -2.20910790E-01
 -6.78204773E-02 -3.67627328E-01  2.71545064E-01  8.17060986E-02 -2.98506745E-01
  5.32698223E-02 -4.29767447E-01 -1.24293557E-01 -6.95122693E-02  1.67959972E-02
 -2.13816185E-01  3.96522133E-02  6.77957198E-02  2.08271519E-02 -3.50147416E-02
 -1.42084255E-01 -9.58993458E-02 -6.64478830E-02 -2.67020541E-02  3.69401619E-01
  1.42227267E-01  2.46744258E-01  7.15558340E-02  6.71356758E-02  1.37392693E-02
  8.39771949E-02 -6.02701647E-02  7.81891389E-02  2.02621978E-01 -7.15401946E-01
  5.63834130E-02 -1.83385567E-01  8.19744323E-02  5.87325885E-02 -4.98289380E-01
  3.76300518E-01 -1.97548689E-01  5.66892015E-01  7.44223292E-01  4.20243181E-01
  4.73259646E-02  3.22801891E-02 -2.82952673E-01  1.79636254E-02 -3.88266409E-01
 -7.54916880E-03 -1.47855331E-01 -2.02794753E-02  1.82829296E-01 -6.25353797E-03
  4.95781209E-01  8.32761321E-02 -2.06540560E-02  1.51828087E-01 -3.81772029E-02
  1.84370579E-01  1.41657596E-02 -1.00506152E-01 -3.64761006E-01  4.19933169E-01
  3.56450254E-01 -4.04372593E-01  1.74766724E-02  3.46150851E-02  4.21463677E-01
 -4.32524018E-01 -5.77827078E-01 -3.94706605E-01 -9.65972092E-02  5.28590882E-02
  1.30443067E-01  6.47648381E-02  3.04749434E-03  4.90726612E-03  7.19685465E-02
 -2.88703576E-02  2.52724089E-02 -5.99758473E-02 -4.02206672E-02  1.20511882E-01
  8.59975791E-02 -1.58980109E-02  1.96734830E-02  1.34626557E-02  1.01801886E-02
 -3.57907496E-02 -4.11984175E-02 -2.97549355E-04  1.29892584E-01  2.00656247E-01
 -4.17766865E-02  4.58965895E-02 -1.53200810E-01 -5.83960753E-01  1.64276184E-01
 -2.28826387E-01  5.88189619E-02  3.85788918E-03  4.82439837E-02  8.43759210E-02
 -4.70262493E-02  1.11104547E-02  1.11869928E-01  7.57261917E-01  3.29070061E-01
  2.61265509E-01 -1.03191571E-01 -7.43160670E-01 -3.26527586E-01  6.23647416E-02
  9.69432539E-02  2.84111544E-01  5.09257592E-01  2.99596066E-01  3.66901412E-01
 -1.80798708E-01 -4.54493720E-02  8.55322716E-02 -9.93097770E-02 -1.23664909E-01
 -8.63130631E-02  5.97914666E-02 -2.34275708E-01  4.61414595E-01  9.66999744E-02
 -7.70639017E-02  2.24956109E-01  1.90689302E-01  2.77014538E-01  2.38572112E-01
 -1.41032473E-01  1.09828282E-01  4.91054483E-02  2.30565275E-02  2.74141135E-02
 -8.24584930E-02  7.90330914E-02 -1.65581852E-01  1.97540853E-01  8.04702558E-01
 -4.75991545E-01 -1.06194082E-01  1.26679207E-01  3.19373829E-01 -6.65145027E-01
  2.91856443E-01 -5.10344985E-02 -5.62257763E-02  2.20748185E-01 -1.29237466E-01
 -8.13596812E-03 -9.31931680E-03 -8.20617889E-02  3.02391375E-01 -1.66300612E-01
  1.63328245E-01 -1.01469443E-01 -2.36329261E-01 -4.29445103E-02 -2.95872564E-02
  3.98696370E-02 -2.47764427E-02 -8.54821067E-02  9.18202921E-02 -1.47800022E-01
  2.06591754E-01  2.50606014E-01 -4.42507687E-01 -2.31365583E-01  2.18235845E-01
 -7.54683488E-01  9.67592547E-02 -3.37450133E-01  3.53298516E-01 -3.72499224E-02
  1.59976724E-02  1.77607324E-02  5.66544528E-02  1.64855412E-01 -4.11381007E-03
 -1.81337823E-02 -1.55221361E-01 -2.13146498E-01  9.47778832E-02  2.23688915E-01
  7.52475857E-02 -6.09301787E-03  4.36311679E-02 -3.35578925E-02 -3.90794023E-03
 -1.06280850E-01  4.65006298E-02  2.47734849E-01  3.84183113E-01  1.85068641E-03
  1.63734237E-01 -2.86658717E-01 -8.56562104E-01  1.43463245E-01 -2.72067075E-01
 -1.76547454E-02  2.16072050E-01  1.64382204E-01  1.16097621E-02 -9.18292369E-02
  7.76192770E-03  3.48913092E-02  1.30911989E-02 -6.48484340E-01 -5.75185350E-01
  1.41731045E-01 -2.17704389E-01  8.86264847E-01  3.90926916E-01  2.23895456E-01
  5.16367722E-02 -1.21605990E-01  2.09741038E-01 -3.63185845E-01  1.70439588E-01
  7.69521621E-02 -1.30636527E-02  5.49330139E-02  1.61545236E-01  2.55915473E-02
  5.77053537E-02 -2.77815003E-02 -5.60016051E-01 -3.75355958E-01 -6.82674587E-02
  1.25881002E-01 -3.00899989E-01  9.70812591E-03 -1.05449030E-01  8.54632411E-02
  1.11286805E-01  7.37487694E-03 -2.80405605E-01  1.33366405E-01  1.04379390E-01
  8.35726817E-03  1.01015775E-01 -7.60356597E-01 -4.98366179E-01  1.22335557E-03
  2.65961940E-01  1.52274272E-01 -2.22553208E-01  3.51187792E-01 -6.01389922E-02
 -1.58959119E-01 -1.17462386E-01  4.75124877E-01 -1.64015114E-01 -1.42443693E-01
  6.77677975E-02 -9.93572922E-02  4.87066157E-01  2.93991965E-01 -1.72469755E-01
 -1.89220162E-01 -3.44473336E-01 -3.63893511E-01  4.41743269E-02  8.06882036E-03
  2.85718930E-02 -1.97423506E-02  1.42022515E-01 -9.50247208E-02  6.87226091E-02
  1.72591811E-01 -4.58085386E-01  5.45146229E-02 -2.02258751E-01 -2.92843161E-01
  4.76815554E-01 -4.72600342E-02  5.39839259E-01 -2.97817892E-02  1.72750245E-01
  4.02273037E-02  1.54216203E-01  5.55934740E-02 -2.04704612E-01 -1.33774918E-01
 -1.83304719E-01 -1.63890206E-01  5.00453432E-01  2.88971829E-01  1.59135736E-01
  5.53227302E-02  5.29325873E-02  5.02409426E-02  3.91847001E-02 -4.87751200E-02
  3.00618506E-02  5.58407747E-02  6.74898667E-02  2.82775443E-01  3.88390367E-02
 -4.19041515E-02  1.00316764E-02 -2.77332097E-01 -1.75720384E-01  5.41547322E-02
 -3.58403483E-02  1.27858229E-01 -1.06071768E-01 -6.32133739E-02 -2.51420481E-02
 -1.49517571E-02 -1.32185902E-01 -6.36344680E-02 -1.35209625E-01 -2.33788581E-01
  9.14885386E-02 -5.39754078E-02  3.01157182E-01  1.20450430E+00 -9.25534084E-02
 -1.32275825E-01  7.40569719E-02 -2.27753170E-02  8.07544066E-02 -1.41824442E-02
 -4.86638646E-02  3.00974601E-02 -5.21123029E-02  7.89587752E-02  1.91952962E-01
  1.36239779E-01  1.36069578E-01 -2.76975145E-01 -6.55577495E-01 -1.92905489E-01
 -2.32863462E-01 -2.50617311E-02  1.21741177E-02  4.77769964E-02 -1.42536798E-01
  2.49099025E-02 -1.13880314E-01  3.75400427E-02  3.63671158E-02  1.39492072E-01
  2.22111119E-02 -2.42191863E-01 -1.41391457E-01 -5.04436145E-01  1.22160753E-01
  2.04062760E-01 -3.09542346E-02  3.04498135E-02  8.30449236E-02 -1.95164565E-02
  2.14503510E-01 -1.17573523E+00 -1.62260187E-02  1.02793330E-01  8.86844299E-02
  1.23012319E-01  1.80807030E-01 -2.96668062E-01 -1.37892422E-01  5.17464842E-01
  6.62766687E-01  6.51527065E-01  3.00180883E-02 -2.03407867E-02  1.69864461E-02
  1.48277889E-01 -4.17443706E-01  1.55595787E-01 -2.70828481E-01 -1.39503380E-01
  1.83554402E-01 -3.08903779E-01  5.77966185E-01 -3.12116115E-01  2.07782173E-01
 -3.73035772E-01  2.92145477E-01 -5.51536953E-02 -6.86388755E-01  3.89544068E-02
  1.44906092E-01 -1.62049972E-02 -1.69111250E-01 -1.60822276E-01 -1.43338803E-01
  4.38857939E-02  3.87295061E-01  2.53669183E-01  1.17342406E-01  7.94626984E-02
  6.41377987E-02  5.84193100E-02  1.63527150E-02  6.43039511E-04 -3.17622188E-02
  1.56978110E-01 -2.78140492E-01  3.31766111E-02  1.02960871E-02  6.93027939E-02
  4.67286825E-01 -4.57149241E-01 -1.32717585E-02  9.18938069E-03  7.89250102E-02
 -1.45897737E-01  1.23524511E-01 -3.77707016E-02 -5.92959669E-02 -5.43615677E-02
 -2.64428443E-01  1.62296077E-01  1.49934648E-01 -2.17624106E-01  4.06834205E-01
 -3.34364023E-01 -6.74722624E-02  8.25509103E-01 -1.17747493E-01 -1.57498686E-01
 -1.11440903E-01  5.41038989E-02  2.76098046E-02 -4.08081508E-02 -6.98719527E-02
  1.45001213E-02 -9.29304075E-02  3.82122064E-02  1.17815312E-01  2.53561727E-01
  2.88111790E-01 -6.28338450E-03 -4.65569582E-01 -3.29849517E-01 -1.42062893E-01
 -1.62859707E-01  4.10573484E-03  3.54251112E-02 -1.92438366E-01  2.30809630E-02
 -2.13150285E-02 -6.20918877E-03 -4.56599503E-02  1.14379204E-01  4.87239524E-03
 -8.73399333E-03  1.59034075E-01 -4.14930044E-01  6.08571824E-02  1.24420212E-01
  5.83440241E-02 -6.83497785E-02  7.81494019E-02  1.84618133E-02 -2.66853552E-01
  1.33280420E+00  7.13673361E-02 -1.07922728E-01  1.01967389E-01  2.12258844E-02
 -5.38529439E-01  4.00472959E-01 -2.84459866E-01 -7.82292317E-01 -7.68371332E-01
 -8.37495945E-01 -5.09803321E-02  3.32240109E-02 -3.40853499E-02  1.65379101E-02
 -2.06980451E-01  2.73567146E-01 -5.16980334E-01 -1.23129540E-01  3.62647704E-01
 -9.78739420E-02  3.35831318E-01 -1.79321316E-01 -6.13345403E-02  1.91492983E-01
  4.85370340E-01  5.00869322E-01 -3.02212258E-01  2.43557406E-02  3.00246964E-02
 -4.10206520E-02 -2.27060331E-02 -1.68104826E-01 -4.02273591E-03  4.26363534E-02
  4.82319781E-02  4.09407329E-01  2.59837612E-02  4.15088598E-02  7.18650897E-02
  2.67100914E-02  1.05195924E-02 -2.24654298E-03 -2.81648618E-02 -2.80868891E-01
 -1.14483934E-01  2.03180124E-01 -9.48094609E-04  1.24361953E-01  3.00675385E-01
 -3.89269268E-01 -3.94999130E-02 -1.06306013E-01 -3.51922342E-02 -9.36904070E-02
 -1.37759001E-01  4.87976161E-02 -6.46495768E-02  9.76693578E-02  5.50749474E-01
  3.84832529E-01 -8.35492689E-01  3.76334145E-01 -3.13752660E-01 -3.89856070E-01
  1.42521170E+00 -2.08862237E-01  7.76694550E-02  5.16931128E-01  2.29900438E-01
  1.39572686E-02  2.54287698E-02 -2.77504505E-01  6.45743997E-02  1.68109768E-01
  2.38978110E-03 -3.16767254E-02  9.81494870E-02 -4.12143844E-01  3.40330301E-01
 -8.70381780E-01  1.96172092E-01  3.72366058E-01 -3.35834527E-01  3.44951104E-01
  3.14843767E-01 -1.83728240E-01  4.98185925E-01 -1.07275441E-01  1.85264017E-01
 -1.18817769E-01  1.60550239E-01 -3.13653257E-02  2.00460441E-01  7.45522046E-01
 -5.40911578E-01  1.65286077E-01 -5.70271746E-01 -3.19723289E-01 -3.10734093E-01
  4.01414093E-02 -5.21414062E-02  1.03121612E-01 -3.51801094E-02 -6.81407823E-02
 -8.67219447E-02 -1.10622809E-01  6.19194909E-03  1.16721650E-01  2.04857607E-01
  4.66691263E-01  4.23521291E-03 -9.74213493E-02  9.23812648E-03 -1.44287629E-01
  9.71530052E-02  2.43210295E-02 -4.02698497E-02 -2.27867708E-02  3.38503604E-02
  2.19422855E-01 -7.01077526E-01 -1.04894414E-01  3.88781167E-01  2.85548108E-02
 -1.06575587E-01  5.69090816E-01 -1.96948950E-01 -1.63538744E-01  4.04916053E-01
  1.31786744E-02  1.28291101E-01  1.66655131E-02  3.03703949E-02  2.65375879E-02
 -1.38177620E-02 -1.20613329E-01 -1.95438460E-02 -6.68202379E-02  2.55824429E-02
  3.46125324E-01  2.58428136E-02  2.22423746E-02  5.28107081E-02  6.15115924E-04
  5.52636996E-03 -1.89369138E-02 -1.37724133E-02 -1.98001975E-02  2.47741042E-03
  1.02543477E-01 -1.08851585E-02 -2.87743864E-02 -8.79674223E-02 -2.03613610E-01
 -4.44743495E-02 -8.73732551E-03 -1.25700266E-02 -6.45264883E-02 -1.22627489E-02
  2.14058562E-02 -1.10140872E-02 -7.15768202E-02 -6.27220922E-01 -3.70430195E-01
  7.06460146E-01 -5.14070507E-01 -3.60035562E-01 -8.87478173E-02  9.39771651E-01
 -1.17702142E-01  2.14664981E-02 -7.00176199E-01 -1.15237481E-01  2.38080263E-01
 -1.31356773E-01  4.87470516E-01  2.88660682E-01 -2.08035531E-01 -9.02456030E-02
  3.03176451E-01 -1.27533063E-01 -6.56328524E-01 -3.38000434E-01  8.20902253E-01
 -6.59974433E-01  7.96104032E-01  1.48966883E+00  1.02650194E+00 -3.11479373E-01
  1.80362849E-01 -5.18725351E-01 -2.50459169E-02 -4.56317489E-02 -1.54490157E-02
  6.98619139E-02  2.82219134E-03  4.14514516E-02  7.32746769E-02 -2.85011972E-01
  1.37775218E-02 -1.63077030E-02 -5.79941705E-02 -1.55889195E-01  1.35416736E-01
 -2.92067579E-02  2.16851718E-03 -2.94017709E-02 -1.56603159E-02 -5.80116999E-02
 -5.65709595E-02 -6.78819739E-02  8.77072443E-02  1.39599337E-01  1.45475607E-01
  2.87260959E-01 -7.57764560E-02 -8.00343959E-02 -6.41245757E-02  3.21339230E-02
  3.02687867E-02 -3.15068949E-02 -9.64574308E-03  8.43493551E-02  1.14525829E-01
 -4.55258213E-01 -2.45679307E-02  9.92666500E-02 -2.18040623E-02  6.94287421E-02
  1.45846864E-01 -8.65225261E-02 -1.54426284E-01  2.87239193E-02 -2.52141430E-02
  2.48034012E-01  2.48338866E-02 -2.90586216E-02  1.46714286E-01  4.41547742E-02
 -2.01333714E-01 -1.35435514E-02 -5.13585683E-01 -4.25497046E-02  7.07377559E-01
  6.88398658E-02 -5.79043252E-03  8.34978967E-02  1.27054928E-02  2.43297888E-02
 -5.60447416E-02 -2.26413357E-03  2.83416942E-01  1.04892297E-02  3.70156458E-02
 -2.05575063E-01 -1.56423984E-01 -9.23633118E-02 -1.16186171E-01  3.88420897E-01
 -4.78837684E-02  7.88521706E-02 -1.39390850E-02  2.05139171E-02  6.43378987E-02
  8.38753666E-02  2.30709708E-02  1.01172702E-01 -7.37513566E-04 -1.88915731E-01
 -4.11415898E-02 -1.60310355E-01 -2.98388769E-02 -1.49066553E-01  5.13761143E-01
 -2.83056654E-02  1.10400467E-01  9.13359711E-02 -1.37334082E-01  8.68702208E-02
 -5.72540882E-02 -4.95662533E-02  7.80219375E-03  4.27226433E-02 -2.80379321E-02
  5.15362700E-02  9.55934380E-02 -9.74687334E-03 -2.61598597E-01 -2.06666421E-02
 -1.16675029E-01 -3.07974032E-01 -1.61917726E-01  4.58602813E-02 -2.39417255E-02
  5.70546996E-02  4.40566488E-02 -2.04728498E-02 -2.75261843E-03  3.16010852E-02
  1.95995175E-02 -1.81963882E-01 -1.19332527E-01 -2.26772804E-01 -6.08218278E-02
  1.80849754E-01  1.88910621E-01  1.18563753E-01  5.43626982E-02  4.74012749E-04
  1.93190193E-02 -6.10268653E-03  7.59206163E-02  8.87545516E-02 -3.59235991E-02
 -4.42186759E-01 -2.86503489E-02 -3.74447015E-01  8.22748043E-02  1.65531438E+00
 -5.80213396E-02 -8.99690784E-02  5.42233937E-02 -1.23095262E-02  8.34952295E-02
 -1.21448008E-01 -8.13202361E-02  5.01067930E-01  1.14660135E-01 -7.71298974E-01
  8.79515110E-02 -3.74186111E-01 -2.90596901E-01  1.10348410E+00 -4.93238544E-03
  1.56471579E-01  3.54072251E-02 -1.62226117E+00  3.76862331E-02  1.31258438E+00
  5.79613987E-02 -3.88504536E-01 -8.24322267E-02 -3.59945952E-01  1.23857122E-01
  2.28199861E-01  2.50909888E-01  1.47815067E+00 -3.08313916E-01  2.18940868E-01
  1.77931028E-01  1.02765453E-01  7.93642132E-02  2.39748261E-02 -6.65838645E-02
  3.77451406E-02 -3.35393185E-01  1.08088328E-01 -8.89422984E-03  1.01527310E-01
  1.25856581E-01  2.67322090E-01  6.68784930E-01 -2.91882029E-01  5.05224792E-02
  3.54511710E-02  2.40440276E-01 -1.75160312E-01  1.60290524E-02  8.07533897E-02
 -8.49324163E-02  1.66891961E-01  7.83467927E-02  1.01376592E-01 -9.26296275E-02
  8.58579830E-01  7.46691797E-01  5.58804584E-01  8.95345866E-02 -3.78958293E-02
 -2.38103860E-01 -3.09002553E-01  2.10013143E-01 -6.14179458E-02 -8.12769508E-03
 -3.78728395E-02 -2.66817625E-02  3.86262222E-02  4.50180400E-02 -4.17575007E-03
  3.69440848E-01 -2.94982389E-01  9.12674121E-03 -1.31732754E-01 -1.27505558E-01
 -8.95789862E-02 -1.22194128E-01 -7.06177784E-02  4.27250746E-02 -7.92239002E-02
 -1.29550486E-01 -6.40976276E-02  5.20187885E-02 -1.67738940E-01  1.06816177E-01
  8.26280841E-01  8.75013151E-02  1.00819174E+00 -5.68059291E-01 -4.94986303E-01
 -4.74452485E-01 -4.54810157E-01 -1.75124407E-01  9.50472736E-02 -1.70925717E-02
  4.51236233E-02 -1.53788296E-01  5.45323513E-02 -2.68597549E-01 -1.81133905E-01
 -2.58980813E-01  9.82860050E-02  1.41103096E+00  8.57573662E-01  1.95145313E-01
  2.30498791E-01  9.70995140E-02  1.80191877E-01  8.14074528E-02 -6.60857576E-02
  6.59259824E-02 -1.34736843E+00 -1.50153565E-04  6.20000650E-01  7.43494672E-02
 -3.44339181E-01 -1.69391565E-02 -4.21937234E-01 -1.66760352E-01 -9.61352920E-01
 -1.20733209E-01  7.18264884E-02  1.13733333E-01  1.33060254E+00 -5.43580740E-02
  1.25118131E-01 -2.51568523E-01  2.62823833E-01 -2.74253891E-01  6.65718524E-02
  1.25374124E+00 -1.06072423E+00  1.28071417E+00 -2.32086427E-01 -9.63802175E-02
 -1.00034041E-01 -5.93870503E-02 -9.51101757E-02 -3.22085957E-02 -3.86706583E-02
  7.05632455E-01  2.19409851E-01 -1.00469411E-01 -1.90787861E-02 -2.04507404E-01
 -7.39332281E-01  2.92238055E-02 -2.48537289E-02 -1.59382741E-01 -1.45687033E-01
 -2.07014780E-01  2.01467250E-03 -2.15960896E-02 -5.89624138E-02 -9.87651494E-02
  8.90448842E-01 -1.22800634E-01  1.90637380E-01  1.86217864E-02  5.97177349E-01
  1.34381832E+00  4.24733253E-02 -4.94829339E-01 -1.58641760E-01 -3.51085018E-01
 -4.43323568E-01  1.26181980E-01 -2.36928155E-03 -6.89348824E-03 -4.47455352E-02
 -3.00322443E-02  8.80678004E-02  1.28713743E-04 -6.43907780E-02  3.29366515E-01
 -5.25081343E-01  9.21509806E-02  2.00517272E-01 -1.04527477E-01 -1.21712942E-01
 -2.14656875E-01 -1.04904237E-01  5.06349756E-02  1.19081966E-02 -9.20372335E-02
 -7.74034418E-02  7.21992857E-02 -2.09410739E-01  9.48351412E-02  6.23094010E-01
 -1.51314124E-01  1.17870900E+00 -4.61266852E-01 -2.67210386E-01 -4.16425832E-01
 -3.09100800E-01 -1.62373347E-01  8.39081168E-02 -5.15087454E-02  2.39741614E-02
 -4.76303929E-02 -5.13893241E-02  1.12889541E-01  1.91385341E-02 -1.83330886E-01
  2.64953747E-01 -5.82430456E-01 -8.99374735E-02  1.53638170E-01 -7.08144380E-03
  1.12713459E-01 -3.05855906E-02 -5.28419700E-04  1.89955119E-02 -1.03415789E-01
  4.79066307E-01  2.61994180E-02 -1.36009868E+00 -3.26429741E-02  1.42943761E+00
 -1.23030751E-01  4.74196064E-01 -1.63494351E-01 -1.05790017E+00 -7.96438443E-02
  7.77207294E-02 -6.96700732E-02 -3.32004122E-01 -3.16107125E-01  2.95870584E+00
 -3.53425330E-02 -1.12977865E-01  1.23735070E-01 -3.98404261E-01  3.49968398E-01
  1.06698202E-01 -8.42527783E-01 -1.20942646E+00 -1.18024184E+00 -1.23699571E+00
 -1.69791064E-02 -4.08577577E-02  7.07429226E-02 -1.85463032E-01  1.44724028E+00
 -3.41954306E-02  1.87904190E-01  1.25984466E-01 -1.39018051E-01  2.27905610E-01
 -5.94836308E-01 -4.97514741E-01 -6.82221617E-01 -6.64811701E-01 -6.44664768E-01
 -5.55060029E-02 -7.53570050E-04  5.04278266E-02 -6.84160507E-02  5.72848547E-01
 -4.39695068E-02 -7.00529387E-02 -1.29540283E-02 -9.20080117E-02 -4.11478845E-02
  2.53084663E-01  2.44415979E-01 -2.10269143E-01 -2.91070110E-01 -2.48999651E-01
 -5.63025869E-02  1.17633335E-02  6.18580847E-03  1.79174646E-02  5.17823052E-02
 -1.68426814E-02  4.56294921E-02  3.45375425E-03 -1.35879170E-01  2.76181719E-02
 -1.20274290E-01 -7.63568387E-02  8.07660551E-02  1.26523619E-02  9.57663979E-02
  9.90633978E-03 -7.05386211E-03  1.74846871E-02 -6.05901650E-03 -1.56720203E-02
 -1.58954225E-02  1.43249766E-02  2.27008420E-02  5.12415563E-02 -9.89612713E-03
 -1.38703963E-01 -6.47709888E-02 -6.26750036E-03  1.93695107E-02 -3.94525271E-02
  4.35581182E-02  7.80010029E-04 -1.50559558E-03 -8.74786604E-03 -5.16703314E-02
  4.37083724E-02 -1.71834821E-02 -1.04618598E-01  3.00716724E-02 -1.25532399E-01
  2.61619087E-01  5.31914988E-01 -3.58505236E-02  6.03131178E-02 -1.85635070E-02
  8.26112286E-02  5.34369110E-02 -3.44886482E-02  1.20605501E-01 -1.51254413E-01
  1.03149656E-01  8.94064720E-01  1.18078602E-01  2.15395682E-01  9.76538205E-02
 -3.08234245E-01  3.69137952E-03  3.70490610E-02 -5.53716039E-02 -3.01570258E-01
  7.79794228E-02  2.92653993E-01 -6.95000519E-03  2.39820704E-01 -5.09378349E-01
 -1.21778839E-01 -1.12967260E-01 -3.42888279E-01  2.29886940E+00  6.67891744E-01
  6.26477500E-01 -9.57779784E-02 -1.07687510E-02 -6.98798147E-02  6.93749973E-02
 -8.08420659E-02 -7.86792207E-02  1.09896749E-01 -3.89949004E-01  9.53374567E-02
  2.98911691E-02 -2.42221971E-02 -6.26586130E-01 -3.20959771E-01  2.84533925E-01
  1.47098816E-02  3.25681097E-01  3.21226776E-01  3.60127881E-01 -6.71580620E-02
 -5.15496946E-02  2.45313112E-02  1.99318839E-01 -6.79348903E-01 -1.39187716E-01
  7.72611605E-02  7.13436180E-02 -1.01986236E+00 -6.36255060E-02 -9.83098246E-01
 -2.65635792E-01  4.87821284E-01  6.57724011E-01  6.67165332E-01 -1.02886877E-01
  1.10609628E-02 -1.29836756E-02  1.20712208E-02 -3.05640454E-02  2.44958089E-02
 -1.21242634E-01 -1.23517575E-02 -2.59613019E-01  3.77331609E-02  1.60803212E-01
  2.70736183E-01  4.39350700E-02  4.64067903E-02 -2.61204566E-02  8.27228475E-03
 -1.96617150E-02  5.72111968E-02  1.14956387E-01  1.35022057E-01 -6.20787844E-03
  1.07842229E-01 -1.06222679E-01 -9.31528608E-01 -1.21242444E-01 -5.13387098E-01
  4.86928898E-01  4.26797070E-01  3.33372229E-01  4.37557021E-01  2.24366363E-02
 -4.46403077E-02  2.08121404E-02  3.36968879E-02 -2.78485475E-02  1.76616755E-02
 -1.63713966E-01 -8.61335188E-02 -3.94827450E-01 -1.03751136E-02  7.38864897E-01
  4.11036938E-01  1.04787335E-01  1.17369236E-01  9.07182004E-02  5.42043191E-02
  3.13140379E-02 -3.35094625E-02  5.12806260E-02 -1.55264824E+00 -3.57665693E-02
 -1.35929878E-01 -6.97967607E-03  1.92539793E+00 -1.61836472E-02  1.30604530E-01
 -8.10121434E-03  9.96264548E-01 -1.05378855E-01  1.96287068E-01  1.02235985E-01
  6.41232161E-01  1.53031252E-01 -1.41319911E+00 -6.05956353E-02 -1.65052030E-01
 -5.24629539E-02  1.35824692E-01  2.49197364E-01  6.52943204E-01  5.16469612E-02
  6.02625685E-01  6.55402619E-01  6.38986023E-01  6.56871118E-03 -3.20396746E-02
  6.24729495E-02 -2.55190765E-01  1.78971753E+00  8.98875770E-02 -1.84893390E-03
 -1.09753633E-01  1.41487929E-01  8.43196067E-02  2.49159509E-01  4.91819463E-01
 -8.41793511E-01 -1.04903996E+00 -9.67318744E-01 -7.44095321E-02  5.42240683E-02
 -3.57453941E-02 -2.89828481E-01  2.24450693E+00 -1.31103443E-01 -4.36351665E-02
  2.78652754E-02 -3.86949654E-01 -5.43390397E-01 -3.44850209E-01 -2.13167127E-01
 -1.18532667E+00 -1.21487660E+00 -1.00594014E+00 -1.41348516E-01  4.03940085E-02
  1.15442775E-01  2.48046144E-02  9.58729203E-02 -7.57338194E-02  8.52869991E-02
 -7.83176818E-02 -1.33662242E-01  1.78592356E-01  1.45347456E-01  6.08014258E-02
  9.75527491E-02  1.34098725E-01  1.02550275E-01  1.21608897E-02 -8.79128101E-03
  1.02892182E-02  7.43429515E-02  4.64040867E-02 -9.56191501E-02  3.32487738E-02
 -6.62695775E-02 -5.10430696E-01 -9.16163111E-02 -6.67835049E-01  4.47034237E-01
  3.47259994E-01  3.56095750E-01  2.64319600E-01  1.92243043E-01 -9.56583284E-02
 -3.32125368E-02  2.68690709E-03 -8.11118624E-02  4.87746908E-02 -8.83679082E-03
  2.84792699E-02  6.26826023E-02  3.58423595E-02  3.74655001E-01 -2.16988057E-01
  4.01204417E-02  1.44746095E-01 -2.31571262E-02  1.15293480E-01 -4.75091603E-02
 -1.34218464E-02  6.61607647E-03 -7.83948135E-01 -4.40571413E-02  2.04028622E-02
 -5.78746682E-02  8.35571192E-02  1.83906900E-01 -2.74011782E-03  4.28216054E-02
  6.97341086E-01  1.75293147E-02  1.92925073E-01 -7.28474560E-03  8.30191453E-02
  5.19984546E-02 -7.86342215E-01  1.63961016E-02 -1.10031156E-01 -2.08893767E-02
  3.17989829E-01  9.04161638E-02  4.51393681E-01 -8.18577012E-02  2.86385484E-01
  2.93513551E-01  2.86316301E-01 -3.11261735E-02 -5.78379065E-02  7.53637325E-02
 -3.20424623E-01  2.42107509E+00  5.10772329E-03  5.16023252E-02 -1.44420628E-01
  3.88544797E-01 -4.57417805E-01 -1.23089078E-01  5.01163741E-01 -1.41206820E+00
 -1.26270263E+00 -1.22974917E+00  5.47524629E-02 -7.00820760E-02 -2.38196707E-03
  3.05354198E-01 -2.30945329E+00 -5.47351196E-04 -2.54197632E-02  4.49197618E-02
  1.12605771E-01  1.35931405E-01  1.53925092E-01 -3.08376185E-01  1.40928455E+00
  1.26925979E+00  1.10096997E+00  4.17119062E-03  8.27268361E-02 -1.35909402E-01
  1.41980521E-03 -2.92872672E-02  2.77545494E-02 -1.10529056E-01  4.06117487E-02
 -7.28333375E-02  1.43736949E-02 -1.38199722E-01  1.72302767E-01 -1.11821452E-02
 -7.56014244E-02 -1.17366662E-02  9.22889920E-03 -1.66329614E-02  8.77899724E-02
 -6.41524446E-02 -4.02815740E-02  8.36457751E-02  2.04375054E-02 -1.59890638E-02
  4.78737181E-01  5.85889439E-02  3.01783723E-01 -5.51976978E-02 -3.06020429E-01
 -3.15342807E-01 -2.15384263E-01 -1.28933192E-01  3.73631279E-02  1.68868534E-02
 -3.23035080E-02 -1.26567249E-01  1.38605391E-02  7.82292053E-02  2.00668733E-03
  3.22880308E-01  1.21701651E-01 -2.03222230E-01 -9.43980517E-02 -3.30108683E-02
  1.82112775E-03 -9.36706431E-02  8.47092950E-02 -3.78332838E-02 -1.30744375E-02
 -2.73364604E-02 -4.06774234E-01 -2.18282316E-02  4.10641777E-02 -3.09433138E-03
 -2.06786864E-01  1.57496328E-01  1.66937439E-01 -1.78131871E-02 -2.26956460E-01
 -1.61833877E-02 -1.37100510E-01 -4.94136573E-02 -2.18630983E-01 -1.71735005E-01
  8.44127388E-01  1.16794046E-01  1.32967564E-01 -1.45970525E-01  4.52579277E-01
 -1.24147532E+00 -1.54653358E-01  1.16606224E+00 -6.44467137E-01 -6.34525961E-01
 -5.70594627E-01  3.55057057E-02  1.36449583E-01 -5.58299172E-02 -5.34714222E-02
  4.10504712E-01 -9.87580525E-02 -1.69415697E-01 -1.20255186E-01 -2.12512403E-01
  1.05240910E+00  2.09220938E+00  9.57970492E-01 -3.14665445E-01 -2.71317821E-01
 -1.07619647E-01 -2.84470741E-01 -1.51462083E-02  1.09331321E-01  1.69872249E-02
 -3.78994681E-01  7.76853302E-02  1.60522768E-01 -7.90213204E-02 -2.56601694E-01
 -1.60430371E-01 -5.45562445E-01 -1.68081787E-01  1.19649113E-01  1.10417902E-01
  1.13645425E-01  9.98208957E-02  2.43244895E-02  1.50067725E-02 -3.24909527E-02
 -8.42448955E-02 -9.58582069E-03 -5.65105946E-02  1.17182677E-02  3.12741080E-01
  5.83528266E-02  3.19257262E-01 -4.91546886E-02 -1.60109401E-01 -1.27506315E-03
 -1.41079600E-01 -2.09996526E-02  2.83358268E-02 -8.11712462E-02  5.98991493E-02
  1.37467305E-01 -6.07415333E-02 -2.72750163E-02 -3.21664737E-02 -5.03404082E-01
  2.46000742E-01  9.73985457E-02  1.30986593E-01  1.31977334E-01  1.68646297E-01
  2.77800812E-01 -4.15630459E-02 -2.46736018E-02  4.90560323E-02  1.87218684E-01
  1.19474341E-02  9.41016112E-02 -1.16118963E-01  2.08639948E-01 -1.38453237E+00
  2.89211737E-01  1.32944138E+00 -1.16720511E+00  7.06539885E-01  6.91852511E-01
  4.07322134E-01  1.44050221E-01 -8.61572898E-02 -6.20415329E-03  8.61448675E-02
  4.02115299E-01  1.19897841E-01 -1.31381462E+00  3.47394636E-02 -7.16683790E-01
 -1.56443243E-02  3.24571292E-01  9.84081257E-02 -9.00574573E-02  1.68580648E-01
  1.51559658E+00 -9.05631928E-02  7.53156314E-01 -2.48330602E-01  8.49440449E-01
 -4.13546650E-02 -9.63005595E-02 -3.43608956E-02  1.50701465E+00 -1.05635759E-01
  1.74923060E+00  7.42603144E-01 -7.75881242E-01 -9.78286680E-01 -8.41377894E-01
  1.14763863E-01  5.25457529E-03 -1.32921017E-01  2.55153803E-03 -8.60077730E-01
  1.26927798E-01 -4.66919208E-03 -2.65727081E-01  1.05730982E+00 -1.45655372E+00
  4.36515889E-01  1.96705473E+00  2.20333252E-01  2.88621430E-01  1.32443230E-01
  3.17319400E-02 -1.26657236E-01  1.75381249E-01 -5.05075160E-02  2.86853628E-01
 -2.16064438E-02 -9.77617608E-02  1.08281505E-01  3.61040234E-01 -3.09338065E-01
 -1.20333502E-01 -8.90827167E-01 -2.43701262E-01 -2.11943236E-01 -1.52039218E-01
 -1.58533159E-02  6.18790531E-02  1.21108266E-02  1.94889882E-02  5.50560504E-02
 -3.25014541E-02  1.30696013E-02 -7.60503908E-02 -9.91166987E-02  1.02864819E-01
  4.45512508E-02  3.08074660E-01  6.46550074E-02  8.75769241E-02  5.45053752E-02
  2.34315804E-02 -2.00167608E-02  7.43893110E-02 -4.80570957E-02 -1.14910613E-01
  2.97990468E-02  3.60319950E-03 -7.77148827E-02  5.20347835E-01 -1.68752133E-01
 -1.28241784E-01  3.67997604E-01 -1.25869840E-01 -1.48034446E-01 -1.72833725E-01
  5.25571856E-02 -5.10506507E-02 -7.30244092E-02 -1.58478484E-01 -5.81291887E-02
 -8.49950011E-02  6.64571675E-02  3.30483918E-02  1.49585458E+00  2.13872658E-01
 -8.86126088E-01 -4.15757145E-01 -4.83313116E-01 -5.54568016E-01 -4.29746049E-01
 -6.10608637E-02 -1.25063716E-01 -9.17301343E-03  1.19180306E-01 -1.59377544E+00
  6.96420691E-02 -7.18856833E-01  1.27948178E-01 -8.57998475E-01  1.27629928E-01
  7.66729999E-01 -4.24034195E-02  2.36974232E-01  1.18246509E-02 -5.13451833E-01
 -1.12382471E-01 -8.13865940E-01  7.11328997E-02  1.98272021E-02 -1.15031225E-02
 -3.60617402E-03  1.69253735E-01 -1.26845607E+00 -6.33952889E-02  4.52186849E-01
 -1.47396537E+00  2.79223521E-01  5.59564825E-02  2.52265389E-01  9.07046042E-02
 -2.31940989E-02  1.19990329E-01  1.38961914E-01  4.67010267E-02 -2.06433558E-02
  2.22117802E-01 -4.94903974E-01 -1.93517367E+00  5.64273390E-01 -1.56041074E+00
  3.21816033E+00  4.73780324E-01  4.07019741E-01  2.65753283E-01 -4.83187930E-03
  1.28621814E-02  3.82360413E-03  1.08709614E-02  2.38353791E-01  3.76072151E-03
 -1.19838574E-01  9.30305374E-02 -5.04003638E-01  1.06354426E+00  1.43335947E-01
 -5.62110420E-01 -1.13055474E-01 -3.05979724E-03  1.01891770E-02  2.15323000E-02
  6.27262385E-02  1.44720760E-03  7.95456718E-02  1.95871251E-01 -2.46337012E-03
  3.82264682E-02 -3.66076977E-02 -9.14564927E-01 -6.65817885E-02 -2.44918829E-01
  2.68052438E-01  2.88550897E-01  2.11105092E-01  2.77082925E-01  1.78244043E-02
  1.31163624E-03  1.10527818E-01 -7.79191238E-02 -1.76756455E-01  9.50883003E-02
 -6.05603296E-02 -1.01547070E-02  7.23129938E-01 -3.04579011E-01  3.94767117E-01
 -2.48197639E-02 -2.16459164E-01 -2.75899994E-01 -3.06935548E-01 -7.87368623E-03
  8.60273094E-03 -8.21317710E-02  5.68402132E-02  1.01864659E-01  3.07755150E-04
 -7.66712824E-02  1.07776525E-01 -1.07501499E+00 -3.00017403E-01  2.59995925E-01
 -9.76929875E-01  1.26397837E-01  2.08332867E-01  7.33418786E-02 -9.12759525E-02
 -1.41039276E-01 -7.10443823E-02 -6.92924517E-02  1.77859378E-01  7.57579902E-02
  1.15016442E+00 -8.03388863E-02  1.07845528E-01  2.85774932E-01  2.64575153E+00
 -8.06300594E-02 -4.60648718E-01  1.88503745E-01  4.27598405E-01 -7.68742858E-02
  1.28865610E-01  7.31688983E-02  1.73283078E-01 -1.06541798E-01  2.60962983E-02
 -1.32495807E-02 -1.82651089E+00 -2.75725009E-01 -3.23839840E-01  1.20918889E-01
  9.44194595E-02  1.90015923E-01  2.03849251E-01  5.37793015E-03  1.27554832E-01
  3.11830392E-02 -1.81214952E-02 -3.98729254E-02 -3.58114242E-02  2.18638990E-03
 -3.02356876E-02 -2.19698829E-02  3.29391958E+00  1.90651542E+00  7.67945181E-01
  5.00102116E-02 -2.31681551E-01  4.00803584E-02 -2.84671220E-01  1.25051088E-01
  2.68781397E-02  9.87446725E-02  2.46147427E-01 -1.00761862E-01  1.65047856E-01
 -1.20707663E-01 -3.22864603E+00  2.38322218E+00 -5.20501483E-02  2.03788475E-01
  1.78416869E-01  1.60264404E-01  3.12138795E-01  1.13125667E-01 -6.03701287E-02
  1.29752341E-01 -7.96900235E-02 -2.58183225E-01  7.92389422E-02 -3.18454833E-02
  8.37354190E-03  1.41469246E+00 -7.30760282E-01  3.49604089E-01 -2.18246560E-01
 -2.45575153E-01 -2.15593478E-01 -2.63873352E-01 -1.27315394E-01  6.95672907E-02
 -6.16494306E-02  4.10372787E-02  1.61499980E-01 -2.95419887E-02 -1.00324445E-01
  4.06549635E-02 -6.33799298E-01  8.20066738E-02  6.63927667E-01 -2.84094766E-01
  9.71015367E-02  5.91782309E-02  1.89133992E-01 -6.89913856E-02  1.29087205E-02
  5.88911560E-02 -3.15049335E-01 -7.73430629E-01 -1.21599226E-01 -5.16520751E-02
  2.89509351E-02  6.21473743E+00  1.41840653E+00  1.25016310E+00 -2.44829449E-01
 -8.14911541E-01 -5.78363418E-01 -8.83610282E-01  1.99725775E-01 -5.48506457E-02
 -1.45556967E-02  6.97453222E-02  4.64805472E-01 -3.29120744E-02  3.89507232E-01
  1.21018018E-02  5.44384863E-01 -4.41090780E-02  3.24395132E-01 -3.33358208E-03
 -6.49666232E-01 -1.06366181E-01 -5.83222150E-01 -2.61220891E-01 -5.22009553E-01
 -2.79128770E-01 -8.49576897E-01 -3.65872141E-03 -6.25100647E-02  1.30547993E-02
  7.12955998E+00  4.43542595E-01 -9.19586585E-01 -1.25659187E+00 -5.73236514E-01
 -5.14125398E-01 -5.27284868E-01 -5.77364950E-02 -2.35785700E-02  1.79597529E-01
  5.55412516E-02  1.44947785E-01 -3.35308374E-02  1.15658717E-01  4.57707484E-02
 -6.99131081E-01  2.55361268E+00 -2.84954721E+00 -7.87697408E-01  2.31550957E-01
  8.08744736E-02  3.58363892E-02  2.73813515E-02  1.30973515E-01 -1.84140946E-01
  1.17490593E-01  3.63676703E-01 -8.78534311E-02  6.32974786E-02 -4.14701965E-02
 -1.58620362E+00  3.33679545E+00  1.31313537E-01  9.59359269E-01  2.20539164E-01
  2.60884316E-01  2.27497841E-01 -2.07031116E-02 -4.79120126E-02 -4.74014294E-02
  4.80093108E-02  1.57833252E-01  1.15419261E-01  7.95932599E-03  2.78445744E-02
 -1.10724887E+00 -7.10517150E-01 -5.19630409E-01  3.73124060E-02  2.31923344E-01
 -3.95838070E-03  1.54080007E-01 -9.49529790E-02  4.98656654E-02  6.06154669E-02
  1.30341909E-01  4.12942825E-01  2.57716596E-02 -6.29641585E-02  5.91259247E-02
 -2.50876619E+00  4.08035065E-03  7.45509214E-01 -4.77174958E-01  5.08054774E-01
  2.94538408E-01  4.00416305E-01 -1.09049966E-01  7.42217311E-02  7.89428127E-02
  8.63529474E-03  3.97080236E-02 -7.79673969E-03  1.17551788E-02  3.40046018E-02
 -2.80514487E-01 -3.69940732E-01  1.22749015E-01 -3.63020805E-02 -3.62554418E-02
  8.34499654E-02 -1.97062197E-02 -6.49738219E-02  9.22756832E-02 -3.64112021E-02
 -1.55524301E-01 -1.13842264E+00 -1.27969056E-01 -7.72993696E-01 -2.22464738E-01
 -9.40367584E-01  6.71372788E-02  1.87661322E-01 -1.30943300E-01  2.20603703E-01
  1.76284526E-02  1.54850466E-01  6.09725037E-02 -2.14872177E-01 -1.05161104E-01
 -3.82974399E-01 -8.50600968E-02  2.90086819E-02 -4.12144607E-02  2.61688600E+00
  6.41121288E-01 -7.26746038E-01 -1.87827243E-01 -1.96256635E-01 -1.44882222E-01
 -1.84892500E-01 -3.01460525E-02 -3.14823658E-02  5.12483232E-02  2.44005046E-02
 -7.33871254E-02  1.64256401E-02 -1.96929857E-02  7.41276177E-02 -2.37698474E-01
  8.72065516E-01 -9.40985983E-01 -9.15934372E-01  2.68980267E-01  5.07772032E-02
  5.13732656E-02  5.62861222E-02  5.44667294E-02 -5.40556365E-02  3.27627241E-02
  2.56692665E-01 -3.26485869E-01  1.07499814E-01 -6.17561785E-02 -6.87352959E+00
 -2.56451007E+00 -1.43453538E+00  3.23662631E-01 -2.51815840E-01 -1.65460628E-01
  2.49667985E-01 -1.97285499E-01 -7.16575160E-02  2.97176842E-01 -1.87806656E-01
 -6.64750444E-01 -4.71344318E-02 -6.93591072E-02  2.18687077E-02  3.96400132E+00
  2.89291327E-01  1.49060431E+00 -6.91355333E-01 -7.38990379E-01 -3.23120569E-01
 -5.59353806E-01 -4.66845911E-02 -5.78638795E-03 -1.89080063E-01 -3.97992805E-01
 -1.47778358E+00  1.48519412E-01  1.19860596E-01 -2.32344384E-02  8.24219239E+00
 -1.83322606E+00 -1.71879545E+00  5.13540905E-01 -1.11815826E+00 -1.02746689E+00
 -1.32683377E+00  3.16791722E-01 -1.07263131E-01 -1.51190758E-01  9.26526926E-02
  2.73885830E-01  9.88706194E-02  2.43625761E-02  1.59756809E-02 -1.46116234E+00
 -7.19160231E-01 -4.59347951E-02  5.52683473E-02  1.64396908E-01  2.40218402E-01
  2.28214894E-01 -7.14886915E-02  4.17903107E-02  4.74929725E-03 -1.04337858E-01
 -2.33982609E-01 -1.52484456E-01 -3.73734628E-01 -4.79107268E-02  4.81922816E-02
 -9.47936992E-02 -1.10544634E-01 -1.94944960E-01 -2.92306951E-01  1.33745078E-01
  7.46483848E-02  1.43842815E-01  9.77684816E-02 -3.85374496E-02 -1.31244166E-01
  1.11324591E-01 -1.16084311E-01 -5.59247717E-03  2.20586101E+00  1.61002121E-01
 -2.01354495E-01 -9.27307466E-01 -1.04876386E-01 -5.47877488E-02 -1.71483295E-02
 -5.31827586E-02 -6.75142769E-02  1.82529472E-02  2.53494226E-01  1.00912036E+00
  5.75680768E-02  1.11953383E-01 -4.66508912E-02 -8.90695161E+00 -2.48790340E+00
 -8.17377939E-01 -1.43451004E-01  2.01402706E-01  4.40255310E-01  4.55055618E-01
 -8.98945345E-02  1.56670996E-02 -6.61990364E-02 -1.68975151E-01 -7.47931411E-01
 -2.22585879E-02  2.38168638E-01 -1.31302838E-01  1.83877863E+00 -3.49382539E+00
  5.45746428E+00 -3.31885495E+00 -8.86477803E-02 -2.52104729E-01 -2.78938221E-01
  1.43199044E-01 -5.14375956E-02  7.04601095E-03 -3.82173791E-01 -1.46056287E+00
 -1.75925203E-02 -1.39597039E-01  6.10616108E-02  8.97997451E+00 -2.42311515E-01
  2.14485127E+00 -1.13531835E+00 -1.25460926E+00 -8.79116975E-01 -1.16857422E+00
 -5.31140482E-02  2.20262877E-02 -2.51753666E-01  1.48660983E-01  6.09779875E-01
 -1.76273312E-01  4.39641033E-02 -5.55808494E-02 -3.46029465E+00  1.72003428E+00
 -3.48632944E-01  4.94616920E-01  2.02740281E-01  5.41200764E-01  5.19965993E-01
 -3.14572153E-02 -6.23852834E-02  1.04575902E-04 -7.58898567E-02 -2.73151622E-01
 -7.41144959E-02  6.65859812E-03  2.64694387E-03  1.61727033E+00  9.21805263E-01
  2.30236990E-01 -9.27077706E-03 -1.12298906E-01 -1.89811362E-01 -1.54146944E-01
  7.87863542E-02 -1.08375898E-02  9.65915267E-03 -4.42248466E-02 -4.34721049E-01
 -6.56240244E-02  2.96276868E-01 -7.69375043E-02 -5.33175643E-01  4.27915831E-01
  9.10111205E-01  4.01790804E-01  2.23655172E-01 -1.29075105E-01  4.46074774E-03
 -1.66666920E-01 -1.07239523E-01  6.43147229E-02  3.24625714E-01 -6.05210509E-02
  1.27998900E-01  1.22547249E-01 -2.94928611E+00 -1.13354890E-01  1.44764705E+00
 -2.35032655E-01  1.24804980E-01 -9.14308112E-02  1.26821210E-01  7.27383996E-02
 -3.40672095E-02 -1.81164449E-02 -3.11311882E-01 -1.26568374E+00  3.15493207E-02
  2.14629701E-02 -1.29258244E-01  9.83004326E+00 -8.34085140E-01 -3.16916615E+00
  2.51452376E+00 -4.02445992E-01 -2.57408040E-01 -6.25838818E-01 -3.35492522E-02
  6.56818539E-02 -3.61984224E-02  1.67490414E-02  7.16558049E-02  3.23579030E-04
  2.51830470E-01 -1.46733183E-01 -4.66231750E+00  3.45519590E+00  4.48379192E+00
 -1.82433475E+00  2.35316509E-04 -6.12423267E-02  9.22733330E-02  9.66878907E-02
 -2.98891255E-02  1.63674897E-01 -2.89922932E-01 -1.11389851E+00  1.33975825E-01
 -3.98211466E-02  6.56581938E-02  7.10918035E+00 -1.57025904E+00  1.40031701E+00
 -1.02958955E+00 -8.89163760E-01 -7.61205566E-01 -8.36956933E-01 -2.59911044E-01
  1.66628115E-01 -1.44504819E-01  2.07327165E-01  8.11123804E-01 -8.43632113E-02
 -9.43032865E-02  1.08174115E-02 -4.83334801E+00  9.31440333E-01  7.73313219E-01
 -1.54434646E-01  5.93604371E-01  5.64930271E-01  6.76781621E-01 -4.88223873E-02
 -2.28415358E-03  7.37438772E-02  1.45211833E-01  4.89540620E-01 -3.09046300E-02
 -7.00960777E-03 -2.83777232E-02 -5.25481523E+00 -1.38492382E+00 -1.70860535E+00
 -8.46911793E-02  3.95528466E-01  2.02766715E-01  2.79557407E-01 -2.08294489E-01
 -7.90546973E-03 -5.53110325E-02  5.81679079E-02 -1.57788096E-01  1.23730235E-01
  7.74716508E-01  6.05858349E-02  2.36148242E-01 -5.76314885E-02 -9.93972220E-02
  8.21089442E-02  1.30911264E-01  1.80272666E-01  4.40103237E-03  9.73396841E-02
  2.31104487E-01
Total SCF Density                          R   N=        5460
  2.05117251E+00 -5.35491739E-02  3.00277122E-01  3.27283844E-03 -7.79133116E-03
  4.04566114E-01 -1.47586920E-03  2.26333852E-04  7.21690775E-03  3.89598707E-01
 -1.84173241E-03  9.50836530E-04  1.14439138E-02 -1.17661155E-02  3.97360427E-01
 -1.83658233E-01  2.87726012E-01 -1.99371915E-03 -1.79913727E-02 -2.15094790E-03
  3.11689435E-01 -1.68590342E-03 -1.95922487E-04  1.95276658E-01 -7.40658684E-04
  8.77072747E-03  7.01386845E-03  9.79444019E-02 -9.39308696E-04  4.40853664E-03
 -6.98503776E-03  1.71899211E-01 -1.59998414E-02 -8.33086916E-03 -8.14880159E-03
  8.21032205E-02  8.50948422E-04 -1.59620750E-03  5.51561842E-03 -1.06076480E-02
  1.88261384E-01 -8.00393045E-03  4.18581644E-03 -1.04263634E-02  9.18215582E-02
 -1.84821515E-02 -9.12306789E-05 -1.55084944E-02  9.70867581E-03 -9.45483190E-03
  1.91461800E-04 -7.62820764E-03  4.83406742E-03 -4.34554529E-03  1.35586422E-03
 -1.74169634E-02 -2.36871922E-03  1.24482754E-02  6.61116306E-03 -5.94288927E-03
 -1.31064355E-03  5.93935535E-03  3.05310163E-03 -2.87363933E-03 -4.54800290E-05
  9.53454303E-04 -1.78106433E-02 -1.62857692E-03  2.09085647E-04 -1.19728371E-02
  1.91627479E-02 -3.45435132E-04  7.58492035E-06 -5.70120327E-03  9.06545562E-03
 -6.96181015E-04 -4.44493118E-04  1.76728414E-03 -6.94759172E-04  1.42248916E-03
  1.21163287E-02  1.50720525E-02  4.15755909E-03  8.28256330E-04  5.82093397E-03
  6.03776527E-03  1.61910005E-03 -3.04543532E-04  5.57957746E-04 -1.56894726E-04
  1.15466755E-03 -7.32401109E-04  1.62224603E-03 -9.79610638E-03  3.71011771E-03
  6.72718217E-04  1.60678805E-03 -4.57665042E-03  1.81468048E-03  1.27906889E-04
  4.25574302E-04 -2.04419734E-04 -1.35995493E-04 -7.86187514E-05  3.33015392E-04
  1.36166751E-03 -2.88248537E-03  4.14544512E-03 -5.16826756E-03 -1.21682566E-02
 -2.96938493E-03  1.80854886E-03 -1.92608846E-03 -5.49835363E-03 -7.32372353E-05
  2.87700811E-04 -3.38545786E-04 -1.99976066E-04 -2.13808566E-04  6.14951757E-04
  1.07010584E-02 -2.04590764E-02 -2.23384879E-02  4.76097222E-02  3.61253894E-02
  6.09885195E-03 -3.52002589E-03  6.37269349E-03  9.37721533E-03  8.84109987E-04
 -1.98421913E-03 -1.03010233E-03  2.78195306E-03  2.06434286E-03 -4.10874141E-03
  2.05131160E+00 -1.92095131E-02  3.36514995E-02  4.87990198E-02 -1.01489973E-01
 -8.15241433E-02  1.07030020E-02  1.33570326E-02 -2.54733043E-02 -2.84748707E-02
 -2.68617198E-03  3.57233129E-03  7.93289473E-04 -5.54241793E-03 -3.92340667E-03
  7.95509672E-03 -5.45436299E-02  3.12116291E-01  2.39037470E-02 -4.90723897E-02
 -3.08004364E-02  9.02111287E-02  6.76462057E-02 -6.18838381E-02 -2.33469354E-02
  4.21331818E-02  4.02315250E-02  7.89888378E-03 -3.40691556E-03 -2.16997161E-03
 -3.67274804E-03 -1.00625390E-03 -5.18702354E-03 -2.96874839E-03 -4.07346209E-03
  3.78389517E-01 -4.45423155E-02  8.81369895E-02  8.81548036E-02 -1.61061161E-01
 -1.36929780E-01  8.36526577E-02  4.01569915E-02 -7.71668120E-02 -6.05885821E-02
 -3.65689808E-03 -4.29877955E-03  2.75556368E-03 -4.09967718E-03 -5.38954554E-03
  5.79151190E-03 -4.62935842E-03  9.72027128E-03 -1.50332358E-02  3.80018225E-01
 -3.91515901E-02  7.72419446E-02  6.85777732E-02 -1.39245495E-01 -1.05443083E-01
  9.58436599E-02  4.42493307E-02 -5.96586724E-02 -4.82264272E-02 -5.61041708E-05
  5.22396499E-03 -1.09820901E-02 -6.49329781E-03 -1.00225085E-03  2.56190440E-03
  3.46978919E-03  1.40798753E-03 -3.41068273E-04 -1.81265234E-03  4.13891281E-01
  1.34234984E-03  2.59046902E-03  2.39904992E-02 -8.79305739E-02 -4.72244993E-02
 -3.01239802E-02 -3.46875344E-03 -1.17993642E-02 -6.95393420E-03 -5.58873859E-04
  1.99409476E-03  6.39711335E-04 -7.59046130E-03 -4.00364512E-03  6.30000777E-03
 -2.05169703E-01  3.04659022E-01  9.97837979E-02 -1.03148878E-02  1.83473321E-03
  4.25066160E-01  3.76548505E-03 -1.32290532E-02 -8.17144826E-03  3.83095779E-02
  2.82823026E-02 -1.27505386E-02 -1.06842757E-02  2.01774845E-02  1.52677697E-02
  2.61324439E-03 -7.27536345E-04 -5.34168218E-04 -1.58469082E-03 -6.67712420E-04
 -1.77214398E-03 -1.99081202E-02  3.35431231E-02  1.44430647E-01 -2.82719535E-02
 -1.45358127E-02  9.41029612E-02  8.75648702E-02 -9.47344893E-03  2.73898078E-02
  4.98951567E-02 -7.08851083E-02 -8.24111225E-02  2.68423336E-02  2.28443343E-02
 -3.71824517E-02 -3.84052479E-02 -2.16077929E-03 -8.42483258E-04  5.00714515E-04
 -1.17398775E-03 -2.57418455E-03  3.56473777E-03 -1.34928806E-04  6.21820381E-03
 -3.71264460E-02  1.66472049E-01 -2.07683234E-03 -3.72132342E-02 -2.05905885E-02
  9.23577877E-02 -1.12740800E-02  2.65584125E-02  2.71771380E-02 -5.86808707E-02
 -4.82903749E-02  2.80346474E-02  1.36794002E-02 -1.91413307E-02 -2.27753401E-02
  3.29461065E-05  2.35951467E-03 -4.67000980E-03 -2.86668883E-03 -4.18101194E-04
  1.25962319E-03 -6.22990666E-03  5.44005029E-03  1.01312883E-03 -1.94446843E-03
  1.73955274E-01  1.94361786E-02 -3.79510002E-03 -5.54502074E-03  8.20415688E-02
  1.83958815E-03 -4.53003105E-03 -9.89149237E-03  7.05773157E-03  2.68860509E-03
 -7.37689582E-03 -4.55509507E-03  2.65593552E-03  2.64871949E-03  8.57829209E-04
 -9.81339972E-05 -5.89390757E-04 -1.56951860E-04  3.33922080E-04 -3.32464607E-04
 -1.40218765E-02 -7.85351471E-03  1.36165987E-02 -9.45675103E-03  8.20002728E-03
 -3.42700321E-03  6.45392045E-04 -5.86917540E-03  3.33133870E-03  2.67458939E-03
 -3.23857432E-03  5.26671433E-03  4.37600926E-03  5.03925220E-03 -7.89183052E-03
  9.05891354E-03  2.80027100E-03  1.99019786E-03 -5.24946729E-03 -4.99249465E-05
  4.83474876E-04 -6.05110449E-04  4.18653910E-04  9.81691961E-05  9.05504264E-05
 -1.46882634E-02 -5.42951901E-03 -1.25988628E-02 -4.16483851E-03  6.78617966E-03
 -9.90054911E-03 -2.85942781E-03  4.08214839E-04  2.26402404E-03 -7.65203092E-04
  1.88536469E-03 -8.62146007E-04  1.03322221E-03  1.79813272E-03 -5.54508395E-03
  9.29380328E-03  3.87943861E-04  3.78352823E-04 -2.61642743E-03  4.15686349E-03
 -5.78224017E-04 -6.12279380E-04  1.26646537E-03  6.50063182E-05 -2.19920169E-04
 -1.47215892E-04 -1.65951641E-02 -1.87151893E-03 -1.03197445E-03  1.44303641E-02
 -1.90106206E-02 -5.28338053E-04 -1.05469373E-04  5.79613758E-03 -7.76618504E-03
 -1.02421059E-03 -3.87105660E-04  2.04102554E-03  3.08985269E-03 -5.92703678E-03
  6.34931090E-03  5.42763698E-03  6.27842380E-03 -7.30190018E-03  3.29314780E-03
  1.94479412E-03  3.34496619E-03 -3.99958518E-04  5.29360542E-04  6.08563908E-05
  6.18156466E-04  2.95329699E-06  1.61386781E-05 -4.54181831E-04  1.19304245E-03
 -1.03522728E-02 -1.35774087E-02 -2.37432008E-03  9.67768461E-05 -2.79341530E-03
 -4.74926931E-03 -9.21167973E-04  1.99303503E-04  2.71947247E-04 -4.81359655E-04
  1.60818118E-03  1.94737279E-03 -3.62537083E-03  3.00728327E-03  4.48199002E-03
 -1.66983844E-04 -3.59621912E-03  1.91122360E-03  1.67327522E-03  1.38925873E-04
  1.57647336E-04  1.68276303E-04 -2.88006895E-04  8.51188644E-05 -4.99209057E-05
 -1.07076308E-05  2.21017310E-04 -5.40425531E-04  6.49642852E-03 -3.05643286E-03
  1.92811949E-03 -7.40431897E-05  8.29110238E-04 -2.19903568E-03  3.69889951E-04
  5.37135761E-04 -1.67880975E-04 -3.23012090E-04  9.96434915E-05  6.01767688E-04
 -4.73434230E-03  8.54931487E-03  5.45211264E-03 -6.43989429E-03 -2.49646781E-03
  1.12831502E-02  3.78583196E-03 -3.82236237E-03 -1.08099239E-03 -1.66432205E-04
  1.29306783E-04 -2.83543408E-04 -1.19011944E-04 -6.75997560E-05  5.65480506E-05
  9.33874702E-04 -1.63511917E-03 -2.87207998E-03  4.28313576E-03  1.52706968E-02
 -3.04887207E-03 -2.07308020E-03  1.03705471E-03  5.23510563E-03  2.11721801E-04
  3.99743445E-04 -5.87144336E-04 -1.17850318E-04  2.20789151E-04  1.26632833E-03
 -3.87615172E-03  6.48460783E-03  9.89433734E-03 -9.32093514E-03 -3.64055423E-03
  1.72196791E-02  9.99878431E-03 -8.01083749E-03 -3.49232485E-03 -2.12537453E-03
 -1.38685695E-05  7.82603981E-04  1.17338487E-03  6.50266140E-05  4.83416654E-04
  1.22768371E-02 -2.34316563E-02 -7.29902032E-02  1.80922316E-02 -2.14550132E-02
 -2.56958501E-04 -1.92242476E-03  1.03916267E-02 -7.53987825E-03 -7.63187613E-03
  2.60365576E-03  2.08775603E-03  2.26652153E-03 -2.86960286E-03  1.93575054E-04
  2.05318437E+00  7.88460761E-03 -1.71701353E-02 -2.66013671E-02  2.30793271E-02
  7.42468684E-03 -3.35927058E-02 -1.90010590E-02  1.53416085E-02  7.74786363E-03
  4.55965456E-03 -1.85165368E-04 -2.35711619E-03 -2.72343647E-03  4.04434871E-05
 -9.14763542E-04 -2.58156002E-02  4.47973807E-02  1.55230833E-01 -4.31596984E-02
  4.80550806E-02  1.68381315E-02  1.67358050E-02 -2.73377864E-02  1.67519070E-02
  1.51851910E-02 -6.50662191E-03 -5.49119462E-03 -4.48052357E-03  5.92010435E-03
 -4.99074773E-04 -7.57117571E-02  3.70536927E-01 -1.08406774E-02  2.49482356E-02
  3.07533690E-02 -3.30351920E-02 -9.94446550E-03  5.46336153E-02  1.64421447E-02
 -2.50248624E-02 -1.62917830E-02 -6.75603076E-03 -2.66472199E-04  4.78184754E-03
  5.64250398E-03  5.93076400E-04  1.04509509E-03  5.33604878E-02 -9.97782463E-02
 -2.64238716E-01  7.01193582E-02 -8.70911017E-02 -1.64304956E-01 -9.26961383E-02
  5.17390524E-02 -4.11160514E-02 -1.21245849E-02  1.10445307E-02  8.10062048E-03
  5.27777181E-03 -7.27253972E-03  7.07681412E-04  1.72350789E-02 -3.40139219E-02
  4.11680040E-01  4.32436904E-03 -1.17245794E-02 -8.69432051E-03  3.09668844E-03
  3.79229269E-04 -2.92473762E-02 -3.62353637E-03 -3.70852290E-03  1.27627043E-02
  2.76660870E-03  1.73269277E-04 -2.36790119E-03 -2.42147897E-03 -1.17080120E-04
  9.73332440E-06 -1.32240763E-02  2.55508375E-02  7.12021980E-02 -4.46627623E-04
  3.49499904E-02  3.45560071E-02  5.10754083E-02  2.21568251E-02  6.02176109E-03
  5.25270780E-03 -5.69252097E-03 -2.48150023E-03  4.69182900E-03  2.12486234E-03
  1.67061455E-03  6.91907707E-03 -1.84822617E-02 -3.57944159E-02  3.79427854E-01
 -2.10123068E-03  5.22452343E-03  1.84849512E-02 -2.08105819E-02 -1.70125971E-02
 -1.01141120E-02  1.69815116E-02 -2.13916297E-03 -1.52353048E-02 -1.22908272E-03
 -1.99564666E-04  5.79061387E-04  6.54811875E-05 -7.52653807E-05  6.64202673E-04
  1.46640743E-02 -2.87353390E-02 -8.87285890E-02  3.41049953E-02  1.18520089E-02
 -3.66641424E-02 -5.43199127E-02  3.01995735E-03  1.34562846E-02 -6.65675972E-03
  3.70368296E-03  4.62820027E-03  2.05413483E-03  4.38096610E-03 -6.65478960E-04
 -2.16364321E-04  3.95053520E-03  3.97257300E-02 -5.42795406E-02  3.18673701E-01
  1.44324638E-02 -1.99886285E-02 -4.83591040E-02  3.66152539E-02  1.21232656E-02
 -3.40629639E-02 -2.30538014E-02  1.73399505E-02  1.39308885E-02  6.31414005E-03
 -1.15580652E-03 -4.02861269E-03 -3.08307275E-03  8.78141960E-04 -2.08716489E-03
  9.73673713E-03 -2.13431528E-03  1.78822065E-01 -4.05641990E-02  6.95269791E-02
  1.25689091E-02  2.41922406E-02 -3.90146509E-02  2.48415341E-02  1.75276867E-02
 -7.86188199E-03 -7.28953224E-03 -3.81404784E-03  6.13523767E-03  1.76217041E-03
 -1.20418575E-01  2.28870998E-01 -1.17110165E-01  1.72673380E-02 -3.24464700E-02
  2.11709508E-01 -5.19546746E-03  7.05657730E-03  1.67051483E-02 -1.13435235E-02
  1.60653463E-02  1.38610286E-02  4.26716142E-03 -1.16507867E-03  7.26232258E-03
 -1.89443446E-03  1.42551852E-04  1.60998251E-03  2.68030968E-04 -6.84422230E-04
  1.17992582E-04 -2.15471061E-02  2.24147014E-02 -2.00674367E-02 -4.11816420E-03
 -2.07621845E-02  8.37809143E-02  2.80351818E-02 -1.57522977E-02 -1.18812834E-03
 -5.36521816E-03  1.60669079E-03  1.93539310E-03  2.17543474E-03 -2.78961748E-03
 -2.72004160E-04  4.15917602E-02 -6.75771080E-02  5.84392951E-02 -9.31458003E-03
 -1.11278054E-02 -5.39427650E-02  7.72962466E-02  7.78061486E-03 -1.29689425E-02
 -9.09395714E-03  1.12793037E-02  1.39024446E-02 -3.65876191E-02 -6.68523667E-03
  5.23468901E-03  1.40939891E-02  2.08613461E-03 -7.47866716E-04 -5.79512462E-04
 -7.31786768E-04 -5.31253583E-05 -5.00409262E-04 -3.96240683E-03  7.52548857E-04
  5.57832501E-02  7.81982183E-03  5.26404304E-03  2.52258428E-02  1.02311089E-02
 -6.45287740E-03  5.81762675E-03  7.17072599E-03 -5.69351887E-03 -8.90991092E-04
  1.81638094E-03  3.00440899E-03  3.55036790E-04 -3.38566977E-02  6.07058260E-02
 -3.53297784E-02  5.77851247E-02  3.71466924E-02  5.79077088E-02 -6.86152154E-03
  6.16158325E-02  5.77672513E-05 -6.96558294E-04  8.25432305E-03 -7.65538120E-03
 -3.88844547E-03 -2.51945227E-03  8.66721470E-03 -1.41849797E-04 -4.87750984E-03
 -6.43707905E-04  1.81934975E-04  2.24295492E-04 -4.24189160E-04 -1.05545854E-04
  3.05984853E-04 -1.71604294E-03  3.22987278E-03 -3.25795225E-02 -3.10657349E-04
  1.96861449E-03  7.49158940E-03 -5.68241226E-03 -1.02096766E-03  2.34358351E-03
 -5.28117509E-03  2.21316878E-03  2.12499551E-03  1.64248634E-03  1.64199950E-03
 -5.26426496E-04  2.38017767E-02 -4.16969218E-02  2.86398290E-03  4.03180850E-02
  1.22611050E-01 -3.88456899E-02  4.75484631E-03  5.82429985E-03  6.96273532E-02
 -5.90628502E-04  6.81053141E-04  1.73375466E-03 -2.08549252E-03 -2.17393049E-03
  1.37096144E-03  6.20867388E-04  3.66692241E-04 -1.12311911E-04  8.56610072E-05
  2.51278853E-04 -3.45391875E-04 -3.77872691E-04 -1.31009359E-04  1.76659232E-04
 -6.77857393E-03  1.17617085E-02  7.75161938E-03 -5.10633878E-03  7.52807896E-03
  2.34813245E-02  8.19134066E-03 -4.91860498E-03  3.97691065E-03 -1.16163092E-05
 -1.70128616E-04 -5.81697934E-04  2.95050179E-04 -1.04514305E-04  2.69708133E-04
 -1.37086963E-02 -9.14715874E-03 -6.90637743E-03  1.60838758E-02 -1.17189803E-02
  3.93196381E-04  9.52462462E-03 -5.12541676E-04  6.65405165E-04  3.61372978E-03
 -1.12258979E-03  1.87104448E-03  2.75056827E-03 -4.12747392E-03 -2.51512119E-03
  3.92440412E-03  3.04676147E-03 -4.94545107E-03 -1.31445048E-03 -4.15180308E-04
 -1.06764066E-05  1.72378734E-04  3.01243393E-04 -3.09440086E-05  1.52555827E-04
  3.32839353E-03 -6.53573603E-03 -1.50530484E-02  6.82163473E-03 -1.86332844E-03
 -1.81150767E-02 -7.60716405E-03  7.55770314E-03 -4.39568540E-03 -4.47851082E-04
  6.22743617E-04  2.56785807E-04 -4.25252809E-05 -3.43974039E-04  2.16137273E-04
 -1.36251775E-02 -8.39971037E-03  9.79660363E-03 -8.65150993E-03 -3.20764231E-03
 -9.62447127E-03 -5.41868573E-03 -5.91294659E-03 -2.85056308E-03 -1.71308344E-03
  3.78708483E-03  3.57599055E-04 -1.14003373E-03 -2.02762877E-03  3.02770452E-03
  3.19897914E-03 -3.19807741E-03 -2.00496130E-03  2.93734300E-03  1.15347744E-03
  2.95047596E-05 -1.23985289E-04  2.53612847E-04  9.94375083E-05  8.59419739E-05
 -1.26364522E-04  2.03737267E-04 -1.68806617E-03 -1.54704704E-03 -1.68277223E-04
 -7.41992297E-03  4.07218438E-03  1.68839455E-03 -1.57941960E-03 -1.54711657E-04
 -5.63493769E-04 -1.61900066E-04  5.35186808E-04  3.33575040E-04  6.10130683E-06
 -3.59168819E-04 -1.05209118E-02 -1.72586459E-02 -5.59457554E-03  3.55460637E-03
  9.41776114E-03 -9.74246976E-03  3.52245139E-03  2.32745422E-03  5.82418788E-03
  4.52433713E-04 -1.23855427E-03  2.61659154E-03  8.16961915E-04 -1.50495595E-03
 -4.06580067E-03  4.36994265E-03  2.36356045E-03 -6.03687156E-04 -7.82824981E-04
  1.21141614E-03  4.54965362E-04 -1.01863107E-04  6.25146366E-05  1.31173705E-04
  3.89921845E-04  3.21746090E-04 -1.32845794E-04  4.21759588E-03 -7.65242268E-03
 -1.34657406E-02 -5.92010456E-03 -5.71205571E-03 -2.20982778E-02 -8.44872188E-03
  2.32167446E-03 -4.08998459E-03 -6.88760964E-05  4.48445936E-04  1.29689169E-04
  4.80165533E-04 -3.59666470E-05 -2.47115653E-04  9.71597026E-04 -2.60227480E-03
  9.73344451E-03  1.94044828E-02 -2.41753415E-03 -3.31961371E-03 -1.01116454E-02
 -5.10054235E-03  3.66461925E-03 -3.49849877E-04  9.52392835E-04 -3.44597533E-04
  5.18173741E-03  1.24727463E-03 -2.78477984E-03 -4.24830976E-03  4.56697278E-03
  2.47575969E-03 -4.38685085E-03 -2.20513302E-03  2.20095474E-03  1.76575544E-03
  3.71150007E-04 -1.99102852E-04  3.80540893E-05 -1.86648761E-04 -2.67342035E-05
 -8.98339293E-05 -3.47850151E-03  5.86505733E-03  1.05265225E-02 -3.38709807E-03
 -7.69265176E-03  1.49373638E-02  6.86109549E-03 -4.04025176E-03 -3.43349161E-03
 -1.32053240E-05 -4.49739654E-04  2.39180250E-04  1.11649991E-05  2.15294503E-04
 -4.54588113E-04 -1.29691049E-03  3.47755800E-03 -5.74008245E-03 -3.38953499E-03
  7.47093337E-03  2.74965378E-03  5.62594585E-03  4.32215168E-03  2.74153964E-03
  3.77537704E-04 -5.58420621E-04  9.05345560E-05 -2.19897735E-03  2.11325208E-03
 -3.32024165E-04  3.22063531E-04  1.15121450E-03 -3.57455981E-04  5.24184284E-04
  2.08585893E-03  1.79796612E-03 -1.48357728E-03  1.05599585E-03  3.44182698E-05
  8.55265596E-05 -2.18106060E-04 -1.07035747E-04 -6.74972385E-05 -1.11930687E-05
 -1.03520279E-03  2.32338829E-03  4.56240937E-03 -2.96753789E-03  4.79321159E-03
  6.26763378E-03  3.34417856E-03 -1.74526795E-03 -3.23049785E-04  8.64739252E-05
 -3.84498006E-07 -4.34185062E-04  6.11664625E-05 -9.59268816E-05  3.02120087E-04
  2.82247975E-03 -7.96288939E-03 -6.02274015E-03  5.38013850E-03 -1.10450640E-02
  1.75958134E-03  3.31906910E-03 -2.83535965E-03 -1.60789280E-03  1.60462946E-03
  2.95361102E-04 -8.11625844E-04 -1.79333039E-04  4.43105480E-04  2.33195399E-03
  1.40252215E-04 -6.54587132E-04 -1.21343656E-03  7.79977970E-04  9.23544962E-04
  2.06219603E-03 -3.19092466E-04  7.87502046E-04  3.01367032E-04  2.35289717E-04
  7.91151524E-05 -1.83899510E-04 -3.30185490E-04 -2.40875895E-06 -1.03074535E-04
 -2.35761698E-03  5.20378859E-03  7.88739010E-03 -6.51737806E-03  4.72398181E-03
  3.74554141E-03 -5.12031668E-04 -5.34572956E-03  6.37676329E-04 -5.16167453E-04
 -1.58198780E-04 -5.51853538E-04  3.42101790E-04 -1.96783554E-04  1.29438493E-04
  1.34915585E-02 -1.61908394E-02 -1.57923434E-02  4.04058592E-02 -2.34344838E-02
  1.69076534E-02 -2.49754773E-03 -4.87629240E-03  2.24463179E-03  5.60589184E-03
 -8.07687112E-03  4.40745789E-04  5.81865067E-03 -2.81645696E-03  8.61193459E-03
  2.07852301E+00 -7.76648890E-04  3.09135239E-03  4.01800879E-03 -4.30954323E-03
 -2.64195722E-03 -7.24927167E-04  1.97303767E-03 -1.89199762E-03 -2.91280139E-03
 -8.32347715E-04 -3.00644763E-04  6.40649979E-04  6.87339830E-04 -1.13055836E-04
  2.43139084E-04  5.20655286E-03 -1.15409748E-02 -2.43111197E-02  1.47400914E-02
 -1.07610845E-02 -9.11289855E-03 -5.57752567E-03  6.11148828E-03  8.86421391E-05
  2.34238587E-04  1.09430821E-03  1.34819525E-03 -6.10942627E-04  2.37694897E-04
 -1.89631411E-04 -2.52113345E-02  2.97601665E-02  4.07476576E-02 -9.42490128E-02
  5.51664565E-02 -5.62078034E-02  3.73414664E-03  2.31236782E-02 -1.15807129E-02
 -1.22550272E-02  1.46225112E-02 -2.00852947E-03 -1.16569875E-02  5.64000937E-03
 -1.65430111E-02 -1.81593505E-01  5.02653384E-01  1.04919914E-03 -5.03011098E-03
 -8.33778723E-03  2.79123677E-04  1.07734448E-02  2.11552822E-03 -1.51332545E-02
 -2.23220618E-03  1.80122701E-02  2.77838818E-03 -1.69942406E-04 -3.07334979E-03
 -3.16768513E-03 -9.92890901E-04 -5.06666500E-04 -2.67445464E-02  4.93786072E-02
  1.03644423E-01 -3.88500236E-02  4.38795001E-02  2.55236935E-01  1.41919024E-01
 -5.27408831E-02  2.54325743E-02  1.56505646E-03 -2.04515214E-03 -5.04181261E-03
  5.33109198E-03 -3.57281497E-03  3.52829589E-03  2.39375137E-02 -4.41296555E-02
  8.94650283E-02  1.17063086E-01 -1.02300916E-01 -2.05463079E-02  1.99681786E-01
  5.94499604E-02 -2.29008317E-02  2.91938117E-02 -1.67856383E-02  1.59430846E-03
 -3.78014454E-02  2.27936989E-02  1.31943245E-02 -1.13872692E-02  2.56036836E-02
  7.86055087E-01  3.97821961E-03 -4.48326762E-03 -8.26803307E-03  1.10490291E-02
  3.49459275E-03 -2.10377119E-02 -1.42270148E-02  2.34631245E-02 -8.92454725E-03
  8.27095044E-04 -1.06601384E-03  1.29478388E-03  6.74467161E-05  3.38011870E-04
 -6.28453890E-04  3.98037355E-03 -1.35362743E-02 -1.93722587E-02  9.50160113E-04
 -2.28981998E-02  1.43899489E-02 -2.88791242E-02 -3.68225900E-02  1.56885283E-02
 -1.68755741E-03  1.66935933E-03  3.86239212E-03 -3.24814885E-04  3.91851911E-03
 -2.84529343E-03 -9.04575233E-02  2.09672720E-01  1.19927198E-01 -1.86696466E-01
  2.86218107E-01  8.68947040E-02  2.52836763E-02  5.86567364E-02  6.38583820E-02
 -1.38041590E-02 -1.96357449E-02  4.98827713E-03 -1.96872723E-02  1.25995339E-02
 -1.61911859E-02  3.68378381E-02 -7.07696447E-02  5.60809635E-02  6.16719526E-01
  1.03461040E-02 -1.99529585E-02 -2.79480413E-02  4.11512681E-02  1.74509308E-02
 -5.84979412E-02 -2.12905557E-02  4.04093383E-02  9.30820283E-03  3.06259351E-03
 -2.77246367E-04 -7.61090593E-04 -1.33826470E-03  1.15304307E-03 -1.10701009E-03
 -7.40747513E-03  9.48867777E-03  3.64447770E-02 -2.58911852E-02 -1.76641037E-02
  6.74419093E-02  4.16390579E-02 -1.74373935E-02  2.37470807E-02 -1.79640121E-03
 -4.24660606E-03  2.53692038E-03  6.17907521E-03  4.71778651E-03 -2.90080339E-03
  5.10846491E-02 -1.15856629E-01 -1.01534385E-01  2.85199829E-01  1.69462189E-01
 -6.93787116E-02  6.92868069E-03  7.87950886E-02  1.28888165E-01  1.03136926E-02
 -2.26878295E-02  2.86267954E-02  1.22671127E-02 -2.21874169E-04 -1.33759552E-02
 -2.09083750E-02  3.88917818E-02  8.89104347E-03 -5.52947013E-03  5.89209778E-01
  1.72225513E-03 -4.54379427E-03  3.47902692E-03  3.27765113E-03  6.90450307E-04
 -2.43104536E-02 -1.01895088E-03 -3.72887845E-03  6.54325686E-03 -6.97075481E-05
 -4.12925307E-04  3.70910429E-04  9.95125912E-04 -2.47026379E-04  4.09585001E-04
  4.57519489E-03 -1.22432890E-02 -4.54979318E-03  3.44570842E-02 -2.28896950E-02
 -7.32935964E-03  1.08671017E-02  2.81203517E-02 -5.77843006E-03  3.91324128E-03
 -3.19446725E-03  9.56114701E-04  1.74650051E-03 -5.51709992E-05  9.25656429E-05
 -1.24567586E-02 -2.61567743E-02  2.68014953E-03  2.43002944E-02 -1.05428111E-02
 -8.37189571E-02 -3.99609671E-03  5.22871173E-02 -2.74759291E-02 -1.05432369E-02
  1.79740346E-02  1.89667189E-03 -8.94071866E-03  3.48887532E-03 -1.75644487E-02
 -2.41067401E-01  5.82936513E-01  6.56650926E-02 -2.41455583E-01  1.46033511E-01
  7.69428341E-01  1.74686708E-03 -4.39762094E-03 -9.95868414E-03  1.32626903E-03
  4.46243485E-03  4.50054060E-04 -1.17416703E-02 -5.36986550E-04  1.04615711E-02
  2.39540336E-03 -1.27950373E-04 -2.56898506E-03 -2.53855560E-03 -5.83913210E-04
 -4.16613633E-04 -1.71518670E-02  3.46895856E-02  8.18349791E-02 -3.22819899E-02
  4.02345986E-02  1.72265514E-01  9.55947968E-02 -4.03247667E-02  2.11877327E-02
  1.99976263E-03 -1.44363871E-03 -4.15898077E-03  2.82574349E-03 -1.71393312E-03
  2.48387492E-03  5.22646764E-03 -6.95127218E-03  4.52678910E-02  5.91989116E-02
 -5.79761687E-02  2.42973603E-03  1.27317277E-01  4.08565214E-02 -1.53298540E-02
  1.83494232E-02 -1.13677938E-02  5.13452453E-05 -2.66280569E-02  1.60203139E-02
  8.53432055E-03 -8.10388453E-03  1.68102261E-02  5.13966206E-01  6.24716006E-02
 -1.10166420E-02  3.14514375E-02  3.39442994E-01  3.36788501E-03 -5.74508325E-03
 -7.89012771E-03  1.19073333E-02  4.04965427E-03 -2.05188704E-02 -1.20724455E-02
  1.64501277E-02 -2.65499929E-03  9.48245134E-04 -6.68295699E-04  6.38877981E-04
  3.58540428E-05  2.50368024E-04 -4.45239015E-04  1.79039777E-03 -6.41269349E-03
 -1.26619788E-03  1.19786300E-03 -1.79885334E-02  1.51389903E-02 -9.19382613E-03
 -1.95409411E-02  9.29842483E-03 -1.16581719E-04 -2.77734730E-04  2.12391003E-03
  4.82268805E-04  2.27297039E-03 -1.86417344E-03 -5.18973499E-02  1.12161294E-01
  5.90842912E-02 -7.56404006E-02  1.54310512E-01  4.89675900E-02  1.58912995E-02
  4.32255260E-02  3.60655598E-02 -6.88517511E-03 -1.33044969E-02  5.09141994E-03
 -1.11079591E-02  6.87202493E-03 -9.62202304E-03  3.21853907E-02 -6.07679736E-02
  5.23749074E-02  3.47469889E-01  3.09778818E-02 -1.43384587E-01  4.71668298E-02
  2.02350958E-01  6.33202612E-03 -1.20139842E-02 -2.12510549E-02  2.96563019E-02
  1.39383043E-02 -3.53696848E-02 -1.67376043E-02  3.01844063E-02  5.29965205E-03
  1.91088570E-03 -2.52412318E-04 -1.98766583E-04 -7.17743973E-04  8.98205666E-04
 -9.11498805E-04 -4.19940999E-03  4.83273678E-03  2.17377416E-02 -2.23195530E-02
 -1.66506076E-02  4.31485631E-02  2.46387481E-02 -1.71546308E-02  1.63421549E-02
 -1.54833358E-03 -2.19514086E-03  1.92795045E-03  3.46211611E-03  2.91320505E-03
 -2.34467566E-03  2.83959504E-02 -5.97651822E-02 -5.64312498E-02  1.53787673E-01
  1.16433697E-01 -4.06238575E-02  6.56372958E-03  4.70033742E-02  8.06971466E-02
  5.67968992E-03 -1.58443438E-02  1.85167168E-02  6.80522855E-03 -1.48194042E-04
 -1.03106995E-02 -1.79841130E-02  3.27261887E-02 -3.54748126E-03  2.95090629E-02
  3.67416013E-01  8.72381580E-02 -1.14671592E-02  3.65583948E-02  2.33508646E-01
 -2.01377439E-05  2.93056963E-04  3.44263502E-05 -1.95223774E-04 -1.47136767E-04
  8.63299068E-04  4.28322624E-04  3.51411083E-04 -4.29056491E-04 -4.34911272E-05
  4.32445625E-05  6.40029038E-07 -3.86843425E-05  1.63776333E-05 -1.66944732E-06
 -4.92272077E-04  9.45474010E-04 -2.80818304E-04 -1.53188483E-03  9.64837645E-04
 -9.42196761E-04 -9.64112661E-04 -4.80944467E-04  3.75872319E-04 -2.81442987E-04
  1.51378875E-04  1.21644240E-05 -1.35178443E-04  4.91885918E-05 -7.23441826E-05
  3.16990919E-03 -4.71081535E-03 -6.78796457E-03 -3.98350841E-05  7.69530890E-04
 -7.38884781E-04 -2.54516208E-03 -3.46004158E-03  2.20396599E-03  2.43858343E-04
 -1.34664948E-04  2.36019208E-04  9.83422603E-04 -4.92512969E-04  3.46605283E-04
 -1.15421403E-02 -1.07843655E-02 -1.53318735E-02 -4.60458557E-03  2.60031364E-03
 -1.33084709E-02 -1.01107461E-02 -2.94941020E-03  1.65815326E-03  8.95904675E-04
  3.07179061E-04 -2.09365875E-04 -4.37968125E-04  2.90628149E-04  1.14721307E-04
 -1.13467870E-03 -6.14382669E-04  1.33106454E-03 -6.03608795E-04  5.27727549E-05
 -4.37313425E-05  4.04318252E-05 -3.67145634E-05  3.54444089E-05 -3.54180091E-05
  3.60529524E-04 -8.03268151E-04 -2.26578453E-03 -6.13439603E-04 -1.13594123E-04
  8.81678329E-04 -1.87254063E-03 -2.42919171E-03  1.37340910E-03 -1.84212078E-04
  1.67219422E-04  2.25223348E-04  1.16330931E-04  3.22551447E-04 -1.12925552E-04
 -5.63743517E-03  1.30790737E-02  9.52311263E-03 -4.83107992E-03  2.09228156E-02
  5.53646181E-03  1.80320582E-03  4.18733443E-03  6.84113829E-03 -5.00032572E-04
 -1.55611798E-03  4.05038615E-04 -6.44583585E-04  7.31278920E-04 -9.17521616E-04
 -1.10705706E-02 -9.88961244E-03  4.68909291E-03  4.03194064E-02  6.10364833E-03
 -2.09202669E-02  4.49952824E-03  2.30377591E-02  5.67008703E-03 -4.91339752E-05
  3.01481769E-03 -4.38219846E-04  1.16926010E-03  9.70447431E-04 -1.97138904E-03
 -1.99335656E-05  3.71764738E-03  8.14083185E-04 -1.87394977E-03  8.82451524E-06
 -1.63157474E-04  1.97806566E-05  4.58241437E-05  3.61714012E-05 -4.39400230E-05
  3.19714464E-05 -3.80001432E-04  4.75336358E-04 -1.10744554E-03 -2.55168032E-04
  7.50957284E-04 -4.92976392E-04 -3.33255214E-04  1.01609371E-05 -1.15480884E-03
 -1.14267647E-05  2.23002586E-04 -1.70394143E-04 -2.35873172E-04 -3.29035896E-04
  1.90871958E-04  4.13524264E-04  9.41018683E-04  4.15727683E-03 -9.67275839E-03
 -1.32212206E-02  1.70085484E-03  1.63553917E-03 -5.23429889E-03 -6.56058043E-03
  2.39366083E-04  8.21333118E-04 -1.22878576E-03 -3.57558496E-04 -1.37404492E-04
  1.05642148E-03 -1.28137816E-02 -7.53764352E-03  4.17512954E-03 -6.03927254E-03
 -2.65305153E-02 -1.16734105E-02  3.10862592E-03 -4.69069205E-03 -1.68065827E-02
  1.63232779E-04 -4.81570236E-04  1.56667406E-03 -2.03504847E-04  4.80650475E-04
  3.04384474E-04 -1.06484663E-03 -4.00282929E-04  1.95734285E-03 -2.25635879E-05
 -1.13320052E-03  1.23313847E-04 -5.00595677E-05  1.65393188E-06 -4.29041926E-05
 -2.51906375E-05 -3.34120072E-05  2.71090491E-05  1.02247584E-04  3.05836553E-04
 -1.35601652E-03  7.81089406E-05  9.28274656E-05  5.72072917E-03  4.06134390E-03
  2.32411948E-05 -3.50167973E-04 -2.99860648E-04  1.93504475E-04 -6.93988923E-05
  2.43470847E-04 -3.77062594E-04  1.73347443E-04  3.48752926E-03 -7.47539024E-03
  8.57616728E-03  5.88871627E-03 -8.19218605E-03 -5.54692198E-03  7.97280163E-03
 -5.90399499E-04 -1.69452819E-03  1.15939826E-03 -6.76734001E-06 -1.10129049E-04
 -8.23809177E-04  4.75321909E-04  7.59652136E-04 -3.19156664E-04  1.73588173E-04
  2.84214695E-02 -6.48256769E-03 -2.90065363E-03  3.02896740E-03  1.79235145E-02
 -3.06605997E-03 -2.62813014E-03 -5.05445957E-04 -3.52180049E-04  4.35804149E-04
  1.31416202E-03  1.73021151E-05 -3.78100295E-05 -1.84317839E-04  4.84184636E-04
 -1.92137943E-04  2.97041121E-04  2.57993732E-04  1.85095108E-05 -2.56764308E-04
 -7.04811073E-07  9.90164783E-06  8.46437643E-06  3.47105388E-05  1.00312658E-05
 -1.38353602E-06 -4.94305588E-05 -2.01580189E-05  7.77936792E-04 -4.39881654E-04
 -2.04688668E-04 -4.16928324E-03 -2.22994887E-03  2.79058962E-04 -7.61555153E-04
  1.57793756E-04  3.11017483E-06 -5.00406046E-05 -2.70162417E-04  7.77550635E-05
 -4.96857329E-05 -1.82048068E-03  3.80040463E-03 -4.44850936E-03 -7.00091203E-03
 -1.89770560E-03  3.34808653E-03 -4.54077026E-03 -2.21237591E-03 -2.02829343E-03
 -6.26175570E-04  5.88116828E-04 -5.20102531E-04  4.25945860E-04 -3.37031045E-04
  6.88184618E-05  6.33398858E-04 -9.96148051E-04 -1.61467378E-02 -2.67778300E-03
 -9.72824614E-03 -3.33264920E-03 -1.01089574E-02 -2.52671117E-03 -5.91382962E-03
  3.19889688E-04 -3.31729560E-04  3.59152380E-04 -5.86953252E-04  5.44327963E-04
  1.84591134E-04 -4.77801034E-04 -6.80574733E-04  6.46234422E-04  4.34395342E-04
 -1.74195648E-03 -2.67382730E-04  8.10096043E-04  4.18202535E-04  7.66231796E-05
 -8.77511923E-06 -2.95129381E-05 -8.49976760E-05  2.37353202E-05 -1.47437506E-05
 -6.44509648E-04  7.44928980E-04  8.53732109E-04 -1.99280956E-04 -2.73792973E-04
  3.10885720E-03  2.21414051E-03  2.86950107E-04  6.47612483E-04 -2.37594867E-04
 -1.48205746E-04  1.19555568E-04  2.83906387E-04  1.29426454E-04 -5.79216885E-05
  6.03741468E-03 -1.20211677E-02 -7.36940586E-03  1.53910015E-02  4.37410624E-03
 -6.46269058E-03  2.94443690E-04  1.94641747E-03  5.80240173E-03  7.21920070E-04
 -5.43106839E-04  1.29153355E-03  8.14173449E-04 -1.31625579E-04 -1.52887958E-04
 -1.52677701E-03  1.85248748E-03 -7.57626517E-04 -1.14840080E-02  2.67091216E-02
  9.21729601E-03 -1.70886077E-03 -5.06269901E-03  1.58955492E-02  2.87223611E-04
 -4.43945425E-04 -1.07678816E-03  1.94569003E-06 -3.91338548E-04  1.47837546E-03
  3.26945102E-04 -1.45700790E-04  1.32656164E-03  1.91399667E-03  1.12945517E-03
 -4.43808679E-03 -2.48023004E-03  2.20165083E-03  1.00237733E-03  4.13764883E-04
  6.92101195E-07 -7.49086843E-06 -1.10388925E-04 -1.46699407E-04 -1.06646088E-04
 -2.89405525E-03  5.00989487E-03  1.24451517E-02  1.23094380E-03  4.69546130E-04
  3.68160451E-03  3.54341043E-03  1.05168423E-03  1.54557876E-03 -4.98448879E-04
 -7.17456021E-04 -3.30056110E-04 -8.72506382E-05 -3.29027283E-05  3.68193330E-05
  7.01646689E-03 -7.95752699E-03 -2.87744669E-02 -2.47612193E-02  7.04040271E-03
  8.97667937E-03 -7.14241153E-04  2.17413913E-02 -1.11806291E-02 -3.13890620E-03
 -2.68056143E-03  2.73107346E-03 -1.01543064E-02  3.92674753E-03  1.13950929E-03
 -2.93711810E-03  4.05466325E-03  2.82235467E-02  2.26135652E-02 -5.76212111E-03
  1.96767476E-02  1.87296235E-02  1.75772478E-02 -5.15236169E-03 -1.78155302E-03
 -3.37589210E-04 -8.60483445E-04 -1.74832468E-04 -7.44312739E-05 -4.32376221E-04
  2.07518594E+00 -4.98174044E-04  5.70207461E-04 -2.95414621E-03 -5.04501071E-03
 -1.26629560E-03  1.07744632E-02  5.25260918E-03 -6.34949999E-03 -1.00170915E-03
 -9.54730266E-04  9.24163615E-05  7.99795383E-05  2.39102094E-04  3.36244388E-04
  2.23162199E-04  5.05711479E-03 -1.01861953E-02 -3.07223565E-02 -2.54669550E-03
 -2.29391392E-03 -1.27832905E-02 -8.29000228E-03 -1.64656850E-04 -5.63956555E-03
  1.07399576E-03  1.57804495E-03  1.15439390E-03  4.73332696E-04 -1.28978918E-04
  4.21551322E-05 -1.40872173E-02  1.58442578E-02  6.86972703E-02  5.41522888E-02
 -1.48544506E-02 -3.01207680E-02 -6.25776463E-03 -5.34645136E-02  2.58760533E-02
  7.41737498E-03  5.59747319E-03 -5.70388306E-03  2.20258520E-02 -8.57510544E-03
 -2.63237636E-03  6.19238311E-03 -6.91003098E-03 -5.41177543E-02 -4.63521108E-02
  1.47920376E-02 -4.15239821E-02 -3.39555625E-02 -3.57725391E-02  1.30934008E-02
  3.56420701E-03  8.54268420E-04  1.99321509E-03  6.03506663E-04 -1.56577907E-04
  1.19490243E-03 -1.79461917E-01  5.11249241E-01 -3.07130378E-03  5.26896351E-03
  1.98086534E-02  1.33234731E-02 -4.22417587E-03  1.22651161E-02  1.16774709E-02
  3.35041125E-02 -3.71221129E-03  5.08722125E-04  1.03771047E-04 -1.17780048E-03
 -1.97505797E-03 -1.39071301E-03 -1.02849337E-04 -2.78932434E-02  5.31116715E-02
  1.10449560E-01 -1.19783772E-03  1.60709031E-02  2.23080210E-01  4.48917040E-02
 -8.42524786E-02  3.65443868E-02 -2.75967521E-03 -1.83124638E-03  1.28613132E-03
 -5.25451305E-03  1.67481013E-03 -6.92053009E-04  5.43961713E-02 -1.12137429E-01
 -1.71817904E-01 -1.88520155E-01  3.76385170E-02  1.09600047E-02  8.85471817E-02
 -3.87519381E-02  2.39056662E-02  2.39530833E-02 -1.98899610E-02  1.03137139E-02
 -1.94415158E-02  8.70767190E-03  8.39297670E-03  4.82529994E-03 -5.52931768E-05
  5.27834706E-02  3.25904632E-02  2.25068975E-02 -9.62601013E-02  4.37615570E-02
 -4.96625081E-03  3.56903269E-02  8.51459351E-03  1.59928293E-04  2.66718065E-03
 -1.78652518E-03  1.21371548E-03  2.21173975E-03 -3.81594399E-02  8.48395256E-02
  6.98372480E-01  6.28503151E-03 -1.55783057E-02 -2.72024053E-02 -4.55182559E-05
  1.22646691E-02 -2.93031478E-02 -2.97804740E-03 -1.97547679E-02  1.20188165E-02
  2.26329577E-03 -1.63053867E-03 -6.98564046E-04 -2.04147374E-03 -3.13104467E-04
 -4.91211678E-04 -6.59109410E-03  1.14887400E-02  4.53708533E-02 -1.67006014E-02
  2.79990837E-03  5.27130285E-02  4.23512686E-02 -3.84092493E-03 -1.80342884E-02
 -1.47665335E-03 -1.48115731E-03 -5.02560452E-04 -5.15830012E-04  1.95434040E-03
 -1.30735976E-03  5.25969105E-02 -1.08262275E-01 -1.78055142E-01 -1.22046752E-01
  1.05808427E-01 -7.02234523E-02 -1.55648663E-04 -6.49865554E-04  3.96945966E-02
 -1.18016160E-02  1.78306526E-02  2.96654198E-03 -2.31225317E-02  1.73941237E-02
  7.03219105E-03 -1.01562495E-02  2.53161744E-02  7.68793324E-02  3.32804294E-02
 -8.92008184E-02  1.77691838E-02  6.87149300E-02  1.70207760E-02 -7.12909688E-02
 -9.77700309E-04 -1.27044740E-03  1.40354595E-03  1.23821217E-03  9.68517877E-04
 -5.85081902E-04  4.51653977E-03 -9.63744512E-03 -2.46852771E-02  5.99078610E-01
  5.36631088E-03 -1.68934998E-02 -2.13360742E-02  1.27728834E-02  8.95712863E-03
 -1.20572898E-02  2.26725130E-02 -2.00380931E-02  1.45163692E-02  1.34692253E-03
 -1.51698273E-03 -3.69603934E-04 -9.96907903E-04 -2.64799070E-04 -1.13234561E-04
 -1.77017497E-03  8.52452543E-03  6.66244450E-03 -3.90801685E-03 -3.63946103E-02
 -9.95948703E-03 -1.68898678E-02  4.27788741E-03 -6.88410059E-02 -4.67891435E-04
 -3.19291289E-04  2.48674742E-03  1.54272886E-03  3.30989036E-03 -1.23728104E-03
 -1.65253646E-02  3.56101016E-02  3.09373664E-02  1.02344199E-01  9.83974487E-02
  5.64567992E-02 -1.69316182E-02  5.42333014E-03  7.11631155E-02  5.02626448E-03
  1.64340242E-02 -2.08282734E-02  1.16829006E-02  1.53307886E-02  2.27900579E-02
  6.40563425E-03 -1.05489489E-02  4.54054399E-04 -9.24005851E-02 -1.14038761E-01
 -4.74216648E-02  3.94833704E-03 -8.45531727E-02 -9.75501472E-02  1.91571361E-03
 -1.17043656E-03  4.19077170E-03  1.81965558E-03  2.59728037E-03 -1.04262406E-03
 -1.08865432E-02  1.74845563E-02 -2.59261686E-03  9.04177846E-02  7.29753437E-01
 -4.95806810E-03  5.39094174E-03 -1.37027724E-03 -1.53501909E-02 -1.73979447E-02
  3.10852669E-02  1.46658025E-02 -9.46233515E-03 -1.45334087E-02 -2.40063430E-03
  5.57086556E-04  3.16993768E-04  5.22807133E-04  6.85273879E-04  7.56632814E-04
  1.85099981E-02 -1.98069492E-02 -8.26585117E-02 -3.39071931E-03 -1.26139148E-03
 -5.97139397E-02 -4.12673726E-02  5.63746151E-03 -9.97675722E-03 -3.78777917E-03
  5.37545109E-03  2.34837204E-03 -1.28112036E-03 -5.79858005E-04 -3.32825064E-04
  1.25494127E-02 -4.55622941E-02  5.79257447E-02  3.19279296E-02 -2.66146682E-03
 -6.75276844E-02 -3.37779805E-02 -1.04628624E-01  4.71605428E-02  7.74941702E-03
  1.14218907E-02 -6.73195430E-03  3.58561240E-02 -1.51106203E-02 -6.26312855E-04
  7.45790859E-03 -1.08726994E-02 -2.41735297E-01 -1.43725942E-01  1.58673053E-02
 -6.53587250E-02 -1.60319537E-01 -1.05086561E-01  1.46037868E-02  1.02735556E-02
 -4.63004183E-03  2.86346197E-03 -4.20467635E-03  3.77790859E-03  3.71798296E-03
 -2.39625850E-01  5.87589368E-01  1.76481984E-01 -5.14536038E-02  9.25306174E-02
  7.62972704E-01  2.11187983E-04  7.21532331E-04  9.63754506E-03  1.28589629E-02
  7.40719853E-05  6.10453122E-04  4.23439628E-03  2.46685678E-02  1.24346097E-03
  1.12686467E-03 -1.24868086E-04 -1.17010289E-03 -1.72508983E-03 -9.89043929E-04
 -2.36306510E-04 -2.22766261E-02  3.99435508E-02  1.00217629E-01 -7.87295634E-04
  1.51148013E-02  1.67064218E-01  4.03403487E-02 -6.06585233E-02  2.78278992E-02
  6.53424208E-04 -2.92096891E-03  2.08430003E-04 -3.33592297E-03  1.68702860E-03
 -2.34683648E-04  2.35269622E-02 -4.75785787E-02 -1.20150750E-01 -1.07699386E-01
  1.66683265E-02  3.01670307E-02  6.34932892E-02 -1.07518339E-02  1.03134285E-02
  1.75439225E-02 -1.59944160E-02  6.62672987E-03 -1.50381010E-02  6.99022518E-03
  5.29171506E-03  4.22685221E-03 -7.76025858E-04  7.78326660E-02  3.85419854E-02
  2.38863371E-02 -5.99057258E-02  5.81185040E-02  9.33421908E-03  2.94585087E-02
  4.37458712E-03  1.32650001E-03  1.37568974E-03 -3.29186023E-04 -9.16823907E-05
  1.21484793E-03 -2.65494202E-02  5.99678622E-02  4.63166804E-01 -2.85729355E-02
 -1.20740120E-02  1.01870321E-01  3.13971516E-01  4.98370203E-03 -1.18795153E-02
 -2.31608871E-02  8.27659295E-04  1.55443123E-02 -1.94677607E-02 -2.98577824E-03
 -1.29031158E-02  1.34278925E-02  1.78568970E-03 -1.30226143E-03 -4.79291279E-04
 -1.68333613E-03 -1.55984495E-04 -5.79369527E-04 -7.80792009E-03  1.06949755E-02
  4.35509704E-02 -1.73242319E-02  3.19442791E-03  4.98385725E-02  3.24193407E-02
 -1.06176756E-02 -1.36162667E-02  5.54932286E-04 -1.76041339E-03 -7.33473881E-04
  7.89687923E-05  1.38433200E-03 -5.16374385E-04  2.90063628E-02 -5.29978162E-02
 -1.03013710E-01 -5.53679103E-02  5.26094017E-02 -2.39122652E-02  9.68648969E-03
  5.10082006E-03  2.22307557E-02 -3.60190223E-03  9.75582817E-03 -5.53136767E-04
 -1.45084266E-02  1.25138285E-02  7.36374330E-03 -4.44399349E-03  1.11493601E-02
  9.03812291E-02  9.08959976E-03 -6.73655277E-02  4.79446496E-03  7.04188227E-02
  2.03633136E-03 -5.34169197E-02 -1.10490798E-03 -9.75418202E-04  1.94336813E-03
  2.36511286E-03  1.10896002E-04 -8.12634131E-04 -6.18921194E-04 -2.77560541E-03
  7.31323084E-03  3.42983976E-01  1.16520469E-01 -2.99106893E-02  1.01335009E-03
  2.06721341E-01  3.12519224E-03 -1.10082279E-02 -1.35582443E-02  1.16755717E-02
  3.68044894E-03 -6.84696872E-03  1.65837525E-02 -1.55713646E-02  8.85483533E-03
  9.28621543E-04 -9.72025594E-04 -3.72341812E-04 -4.05314513E-04 -2.36215854E-04
 -1.80093586E-05  1.78643702E-04  4.78826481E-03  2.68491273E-03 -2.03411252E-03
 -2.83992666E-02 -1.46050258E-02 -1.08437453E-02  7.58518919E-03 -5.20150267E-02
 -6.22810601E-04  1.23147349E-04  1.59188816E-03  7.05317180E-04  1.95614470E-03
 -1.00047918E-03 -9.85074989E-03  1.82582423E-02  1.44555398E-02  5.06104532E-02
  5.91080265E-02  3.08255250E-02 -1.57334469E-02 -2.61061744E-03  4.25594259E-02
  1.20076029E-03  1.47534789E-02 -1.54089981E-02  6.66993946E-03  1.10052462E-02
  1.63279453E-02  3.19918864E-03 -3.77497159E-03 -4.27064399E-03 -7.36646930E-02
 -1.13433054E-01 -2.87175139E-02  1.01685202E-03 -6.47371190E-02 -9.06085692E-02
  1.08091514E-03 -2.16328315E-03  4.25926239E-03  1.42903666E-03  2.47605190E-03
 -1.88818144E-03 -5.73740430E-03  1.02499407E-02 -2.41908994E-02  1.12054924E-01
  5.01386741E-01  5.90123628E-02 -2.54902910E-02  1.07035867E-01  3.51348685E-01
  3.91492984E-04 -7.97355981E-04 -1.13620898E-03  4.26491525E-04  8.47241304E-04
 -2.51487304E-03 -9.76357044E-04 -1.41353311E-03  1.11692015E-03  1.65172391E-04
 -2.89589305E-05 -3.34400392E-05 -3.24886641E-06  1.92777465E-05 -2.21387480E-05
 -4.60189522E-04 -3.51471154E-04  1.86240674E-03  1.89507897E-04  7.74743075E-05
 -7.49320613E-03  8.61151847E-04  4.36851526E-03 -1.73296298E-03  6.20863008E-04
 -3.24822372E-04 -2.09022049E-04  2.59337481E-04  8.25228458E-05  4.43586083E-05
 -5.71897709E-03  1.13562223E-02  3.86928016E-03  1.55179605E-02 -3.82530717E-03
  4.33204029E-03 -5.02314825E-03  5.82599789E-03 -2.24199123E-03 -1.14230103E-03
  7.34829124E-04 -6.44019198E-04  4.89002823E-04 -4.00240516E-05 -3.56328896E-04
 -5.26221034E-04  4.90036827E-04  4.63093272E-03 -1.55610846E-03  1.01355800E-03
  8.37460093E-03  2.75121082E-03  1.14988806E-03 -1.00904506E-03 -7.16847367E-04
  7.78109288E-07 -2.95468065E-04  2.14818659E-04 -1.88072400E-04 -6.71982870E-05
 -1.20290835E-02 -1.02694762E-02 -4.24076807E-02  3.43774829E-03  1.63406671E-03
 -1.93960585E-02 -2.69902569E-02  1.48675936E-03  2.34399450E-03  3.05835113E-03
  4.34790870E-05  3.94045085E-04  3.84603946E-04 -6.10559664E-04  2.71729969E-04
  6.54493050E-04  1.20531585E-04 -3.54931507E-04  7.59656694E-05 -5.42724872E-05
 -2.49210298E-05  3.67190859E-05  1.11812436E-05 -3.02334395E-05  7.85882876E-06
 -6.88069462E-04  2.71295207E-04 -5.60418138E-04  9.71670895E-05 -2.32733789E-04
  3.62039935E-03  5.14894192E-04 -1.41221885E-03  1.72373251E-04 -3.42180621E-05
  8.37470967E-05  3.59262410E-05 -4.42414374E-05 -6.37717991E-05  8.27892314E-06
 -1.39761953E-03  1.11980429E-03  2.36206627E-03 -1.06124159E-02  1.94487627E-03
 -8.57345393E-04  3.09941527E-03 -1.10879221E-03 -7.38519794E-04 -8.97276480E-05
  1.72398623E-04 -1.54624942E-04 -1.08211675E-03  4.74704370E-04 -6.24180585E-05
 -9.03355933E-04  2.39483804E-03  8.26292497E-03  9.61437401E-03 -9.47918845E-03
 -2.05950920E-03  6.29466244E-03  4.75589507E-03 -5.24972142E-03 -2.15758020E-04
  4.57458524E-04  3.87511353E-04  2.20176147E-04 -3.52365243E-05 -5.55592071E-04
 -1.97947719E-02  7.65962590E-03  7.74936270E-03  1.06438582E-02 -3.45826468E-03
  5.76630905E-03  5.50482908E-03  6.33848368E-03 -1.44642020E-03 -3.86773944E-04
  9.24362273E-04  2.44988249E-05  4.22553973E-04  4.82675574E-04 -2.02063493E-04
  6.53995806E-04 -2.28891010E-04 -5.88022638E-04  1.09433126E-03  9.45531074E-05
 -3.90855143E-05 -8.82315903E-06  7.38083621E-05  4.44007568E-07 -1.22501269E-05
 -1.08012216E-05 -1.29359074E-03  6.89777871E-04  4.48340948E-04  3.36547147E-04
 -4.45687950E-04  5.14233973E-03  9.48976316E-04 -1.81026612E-03  1.84995853E-03
 -1.06930342E-04 -6.48128224E-05  8.93670491E-05  2.26156780E-05 -3.35765956E-05
 -3.45086440E-05  1.90582896E-03 -3.25660578E-03 -1.93770080E-03 -5.57773314E-03
  2.37532057E-03 -1.80739581E-03  3.20458562E-03  9.53743205E-04  7.39978094E-05
  2.01458579E-04 -9.31923597E-04  9.18378291E-04 -9.72919216E-04  1.02929528E-04
 -5.12369711E-04 -3.50803435E-04  1.13884300E-03  4.79811451E-03  7.89462069E-03
  6.14081350E-03  3.88131381E-04  3.18616782E-03  5.07715234E-03  4.88459205E-03
 -4.69961049E-05  3.79544740E-04 -2.68087098E-04 -9.44539907E-06 -1.93555560E-04
  1.27871787E-04 -1.46141093E-02 -3.79794884E-03  1.10623006E-02 -1.13729572E-03
 -1.62987653E-02 -5.80234197E-03  7.78126724E-03 -1.65646231E-03 -1.17891430E-02
 -5.10677946E-04  3.54273512E-04  8.09395033E-04 -6.90377396E-05  2.26233362E-04
  1.00113716E-04  5.02271770E-04 -2.75925029E-04  7.03523298E-04 -5.89773267E-04
  1.60738648E-03 -3.82896709E-04  4.09622405E-06  3.31173643E-05  1.48231906E-05
  5.27538217E-06  1.89419183E-05 -9.07123691E-06 -2.21841854E-04  6.08249257E-04
  2.14373866E-03  1.05387611E-04  7.69956632E-05 -5.85863569E-04 -1.44723032E-03
 -1.08220562E-03  1.16900503E-03  3.47737983E-04 -1.08471361E-04 -2.97091887E-05
 -1.54964665E-04  9.92644862E-06  9.05079688E-06 -6.64665592E-03  1.17518452E-02
  6.82393548E-03  3.94225472E-03 -5.58219985E-03  8.71536035E-03 -5.83357793E-04
  9.93574409E-04 -3.02540469E-03  6.48290598E-04 -1.24918181E-03 -3.97804752E-04
  9.17892650E-04 -7.01638888E-04 -3.70964810E-04  3.01970439E-04 -8.36575628E-04
 -4.61269937E-03  2.13465034E-03  1.72111215E-03 -2.27897804E-03 -3.50259204E-03
  9.23878775E-04  2.28487346E-03  3.26709542E-05  2.65217401E-04  2.05814391E-06
 -2.33319812E-04  6.45309369E-05 -2.14966906E-04  7.78082676E-04 -1.53682980E-03
  5.28279259E-03 -3.42587372E-02 -2.66439683E-03  2.38188097E-04  4.59281208E-03
 -1.91095332E-02 -4.78087169E-03 -3.11657163E-04 -5.36049493E-04  7.69026144E-05
  2.13059815E-03 -4.78726871E-05  4.21455817E-04 -2.67912081E-04 -7.14009053E-04
  3.21758904E-04  2.79627528E-04 -1.92400229E-03  4.95687400E-04 -2.70610485E-04
 -6.72301174E-05  2.27403913E-05  9.60251734E-05  6.25950546E-05  4.23557666E-05
 -1.20394529E-05  3.02423600E-04 -8.72162941E-04 -1.11226903E-03 -6.53266342E-05
 -1.61486235E-04 -1.14289762E-03  1.30261130E-03  7.60675070E-04  2.21421361E-03
  3.39328944E-05 -1.51399281E-05 -9.21737318E-05 -3.77079703E-05 -2.96519345E-04
  5.82483461E-06  1.68374018E-03 -2.90924361E-03 -5.53646834E-05 -3.35192746E-03
 -9.16161891E-03 -4.55646251E-03  6.14380085E-04 -9.00508629E-04 -5.08959667E-03
 -4.04531404E-04 -4.29428510E-04  9.29494202E-04 -4.06779097E-04 -8.96216852E-04
 -1.10814032E-03 -2.69037625E-04  2.57016144E-04  1.58768778E-03  2.50173666E-04
  3.36996182E-03  4.07669021E-03  6.19686652E-04  2.14498521E-03  3.03433633E-03
 -1.97420222E-04 -2.54797495E-04 -5.65204176E-05  9.72219336E-05 -1.47615356E-04
  1.03209626E-05 -2.56731945E-04  6.67897236E-04 -7.31494575E-03 -1.87943895E-03
 -3.88378354E-02 -4.17245256E-03 -4.36869267E-03 -4.58849448E-03 -2.60078457E-02
  3.50652824E-04  1.86581397E-04  7.00556119E-04 -1.04063190E-04  2.23938500E-03
 -1.70493140E-04  3.31631271E-04  9.40750832E-04  1.01320146E-03  1.37053881E-04
  6.83703609E-04  5.06521238E-04  6.40265456E-04  1.85719464E-04 -1.39380069E-05
  5.08879374E-05 -2.29772247E-05  5.82456931E-05 -1.70926102E-05 -5.84194536E-06
 -4.67561676E-04  6.10805150E-04  1.48846742E-03 -8.97112369E-05 -2.58521462E-04
  1.64144731E-04 -2.44702469E-04 -2.31742369E-04 -2.87139152E-04  8.93667855E-05
 -6.61995109E-05 -6.26377281E-05 -2.85623358E-05 -4.06044603E-05  4.11170578E-05
  5.97082768E-04  5.06759309E-05 -5.17930120E-04  2.61315399E-03 -5.79868799E-03
  2.87603014E-03 -5.74065566E-05  1.11347013E-04 -2.25591790E-03  4.54837579E-04
 -2.61766883E-04 -2.33783240E-04  2.32388359E-04 -1.74266140E-04  4.58541499E-04
  5.77755260E-04 -1.22365949E-03 -1.58660118E-03 -8.05150163E-03 -1.61046210E-03
  3.90822671E-04 -1.62659908E-03 -4.77043817E-03 -1.24981103E-03  9.87252272E-05
 -5.32422475E-04  1.77680253E-04  1.39488301E-05  1.13969016E-04  1.72532140E-05
  4.66902135E-03 -1.04095192E-02  3.04065740E-03 -1.30986107E-02  5.45643755E-03
 -8.76381840E-03  1.93267458E-03 -6.63800375E-03  2.76017832E-03 -1.03861435E-04
 -5.08013118E-04 -9.15986836E-05  8.21219584E-04 -3.76808307E-04  7.35985599E-04
 -4.32841492E-03  8.89571088E-03 -4.38718718E-03 -1.53030619E-02 -4.18804457E-03
  1.79326166E-02 -3.19307562E-03 -3.28652065E-03 -4.61058128E-03 -1.28981159E-04
 -1.58898665E-03  6.56928627E-04 -1.23792745E-03 -2.59738011E-04 -4.41769992E-04
  7.84578388E-03 -1.19874039E-02  3.05486718E-02  4.12612175E-02 -5.15905618E-03
  9.52845965E-03  1.23989284E-02  8.96380139E-03 -1.03864601E-03 -3.38076027E-03
 -2.99936672E-03  3.55861634E-03 -7.39443199E-03 -3.24549134E-04  1.46672775E-04
 -3.21814272E-04 -3.38775437E-04 -1.27358834E-03 -3.79311197E-03  5.83789752E-04
 -1.00549584E-02 -7.60074896E-04 -1.47873029E-02  5.43870570E-03 -9.30384705E-04
 -2.47642186E-04 -2.95268324E-04 -1.52499502E-04  7.56273566E-05 -1.63944344E-04
 -1.49270635E-04  1.48374553E-03 -8.04810473E-03 -1.47403567E-04 -1.12496206E-03
 -8.13064428E-03 -4.38192816E-03 -1.86766339E-03  5.73138580E-04  4.68104822E-04
  2.99561502E-04  2.54460174E-04 -6.72373638E-05  1.84223606E-04 -7.80999486E-05
 -7.21961237E-04  2.31145886E-05  4.53775040E-03 -1.23352434E-03  1.63734772E-03
  1.26163970E-02 -7.51523989E-04 -3.46133477E-03  2.00341733E-03 -6.62511945E-04
 -4.31298613E-04 -5.40038223E-04  3.14599239E-04 -1.04719256E-04 -6.66344563E-05
  2.06116194E+00  9.10309013E-03 -1.97673338E-02  8.10977904E-03  3.36893738E-02
  1.36029618E-02 -4.00978492E-02  6.41367997E-03  8.76289690E-03  1.21600770E-02
  2.31177218E-04  3.05897346E-03 -1.35795023E-03  2.72646475E-03  6.14835655E-04
  6.70464973E-04 -1.59849420E-02  2.14037392E-02 -6.61505696E-02 -9.15454856E-02
  1.15158984E-02 -1.83469015E-02 -2.58347794E-02 -2.23756249E-02  3.79414444E-03
  7.75496141E-03  6.13076935E-03 -7.80357715E-03  1.61314121E-02  7.68031348E-04
 -1.47085526E-04 -1.94800502E-04  2.07773153E-03  6.14464275E-03  8.15291017E-03
  1.66647071E-03  2.21302702E-02  4.07260263E-03  3.17868149E-02 -1.01189045E-02
  1.88668785E-03 -2.10920935E-04  8.18854080E-04 -5.41014504E-05 -2.08634189E-05
  2.31906320E-04  7.55327256E-04 -3.01671099E-03  2.38051162E-02  7.22516009E-03
  5.96522310E-03  1.44814601E-02  1.38709085E-02  7.73383587E-03  1.70017299E-03
 -1.06527094E-03  1.42320825E-05 -5.67802099E-04  2.79622178E-04 -6.32796302E-04
  1.86275703E-04  1.03873549E-03  1.05322390E-03 -4.53150548E-03 -1.61842378E-03
 -5.17912603E-03 -2.56589291E-02  5.18696835E-03  5.25897601E-03 -6.28395241E-03
  1.02829354E-03  9.24085680E-04  1.19531528E-03 -3.03527493E-04  1.70078951E-04
  9.22062510E-05 -1.21141067E-01  4.03392888E-01 -8.06609438E-03  1.52730763E-02
 -4.20967351E-03 -6.02500937E-03 -2.04431446E-02  8.52783426E-02 -2.96201728E-03
  1.16997929E-02 -3.68728928E-02 -3.08067971E-03  4.21685799E-03 -5.07079845E-04
 -1.38699608E-03  1.05571808E-03  8.73958462E-04 -4.55303171E-02  1.00493578E-01
 -1.07533328E-01 -1.85629624E-01  2.30673182E-02  4.81586118E-02  4.79808837E-02
 -4.40212673E-02  5.45310970E-03 -2.45849871E-02  2.07704477E-02 -3.25034116E-03
  6.16532474E-04 -4.08232188E-03 -1.97389512E-03  2.66903106E-02 -6.02452387E-02
  9.10164081E-02 -1.93892695E-02  2.64159396E-02 -1.44235641E-01  5.20720508E-02
 -1.13350876E-01  6.29217588E-02  5.82049925E-03 -6.09669255E-04 -4.91687153E-04
  7.62727994E-03  6.30525334E-04  5.16212580E-04  6.49105528E-03 -5.08942322E-03
  3.64267844E-02  2.08928802E-02  2.10628402E-02 -8.43460793E-02  2.39302671E-02
 -3.31768890E-03  2.48129264E-02  4.30429893E-03  4.08566150E-03  1.41155693E-03
  4.79063284E-03 -1.47253119E-03  1.32308158E-03 -5.45338364E-03  8.42683791E-03
 -5.78539893E-02 -1.65297469E-02  3.91488994E-03  6.88547996E-02 -6.73783798E-02
 -2.24032304E-02  5.43401647E-03 -1.74734725E-03 -1.15165595E-03 -1.90891080E-03
 -9.92313183E-04  3.93215587E-04 -1.33590866E-03  3.72120347E-02 -8.02757929E-02
  6.29348977E-01  1.38854163E-02 -2.87504994E-02  4.00618498E-03  4.43095633E-02
  2.70044622E-02 -7.53465264E-02  1.94053655E-03  3.04075822E-02  2.59726927E-02
 -2.15883206E-03  7.41871821E-03 -2.23775834E-03  4.95509764E-03  2.14238999E-03
  2.60971433E-03 -5.40199839E-02  1.10297985E-01 -1.67653333E-01 -2.06290350E-01
  1.59978522E-02  1.13029084E-01 -7.56484090E-02 -9.67179930E-02  1.62480846E-02
  8.98131542E-03 -5.63615038E-03 -1.09966660E-02  1.59229157E-02  3.54788463E-04
 -1.52474751E-03  1.33801206E-03 -5.88503542E-05  2.53175426E-03 -2.32895875E-03
 -5.72051584E-03 -6.59563805E-03  1.12382154E-03  2.10010211E-02 -1.05205744E-02
  3.49399651E-03 -2.13826143E-04 -1.44369383E-05  5.35093261E-03 -1.28126952E-03
  8.58275200E-04 -2.28980085E-03  3.66445815E-03 -6.88169394E-03 -1.42478198E-02
  4.15239280E-03  2.43727198E-02 -6.49149673E-03 -3.68092818E-03  9.87978808E-05
 -1.06272997E-03 -7.00088708E-04 -1.23591911E-04 -1.08743517E-03  4.56043214E-05
 -3.85725555E-04 -1.88260002E-03  7.31092111E-03 -2.76724976E-02 -4.10923524E-03
 -4.79168499E-04 -3.64298885E-04 -1.68664995E-02  1.35559952E-03 -1.46909167E-03
  8.14622509E-04  5.35932196E-04  4.18629831E-04 -4.82994610E-04  2.17908861E-04
  2.92734670E-04 -7.52685988E-03  2.14035121E-02 -6.34824983E-02  4.67825102E-01
  6.36035413E-03 -8.68897736E-03 -9.28699765E-03  1.80136269E-02 -4.01205963E-03
 -6.08475511E-02 -2.36903396E-02  2.75820192E-02 -4.26672507E-03  2.22278907E-05
  6.98900633E-04  6.49566880E-06  1.02023710E-03 -3.16979543E-04 -1.15672468E-03
  8.66160069E-04 -7.32253500E-03  1.77849522E-02  1.15175949E-02  5.66336796E-03
  2.17949457E-02  2.74894881E-02  2.78780084E-02  2.87238882E-02 -4.17876124E-03
 -8.11527088E-04  3.63434472E-03 -2.10066768E-03 -9.87491448E-03 -1.51398395E-02
  4.58709892E-03 -1.03209992E-02  2.14247809E-02 -8.92027435E-03 -9.13418924E-03
 -4.15695091E-02  2.25060855E-02 -2.42053788E-02 -2.27608011E-03  5.55627629E-04
 -1.01722255E-03 -1.39106527E-05 -7.32769639E-05  1.31498708E-03 -3.07333985E-04
  2.55654615E-03 -6.29129117E-03  2.25979990E-02  6.58251779E-03 -9.58272146E-03
 -1.35107058E-02  1.19894281E-02  4.61785453E-03 -2.07856927E-03  5.53976190E-04
 -3.14350974E-04 -1.61260328E-04  1.42653482E-03 -7.55900455E-04 -6.91145151E-04
  6.21366894E-04 -2.17000510E-03 -1.69702395E-03  1.40825522E-04  7.77211609E-03
  7.69996508E-04 -5.41043120E-03 -2.21458823E-03  8.73080619E-03 -2.14699586E-04
  1.84186383E-04 -2.73922926E-04  8.14264207E-05  1.91178930E-04 -6.87680717E-05
  6.58637863E-03 -1.60088405E-02  3.68678012E-02 -9.47673349E-03  4.84908147E-01
  1.77273625E-02 -3.22072982E-02  3.72736643E-02  8.45376761E-02 -4.28107325E-03
 -6.44182740E-02  2.18993827E-02  2.17920883E-02  8.97846211E-03  1.42509547E-03
  4.89743937E-03 -4.61967852E-03  5.91479588E-03  5.26235151E-04  7.81149119E-04
  1.51132729E-02 -1.91976559E-02 -6.25763211E-02 -8.41056459E-02  2.10731735E-02
 -6.95959512E-02 -3.78889253E-02 -1.21801355E-02  3.06817588E-03  1.39043477E-02
  5.14194539E-03 -1.08864983E-02  1.94187749E-02  2.19580829E-03  1.17142696E-03
 -4.42678022E-04  7.82509839E-03  4.25947141E-03  3.48247160E-02 -1.92033747E-02
  4.35970154E-02 -1.23051521E-02  5.61891773E-02 -2.83139843E-02 -8.96134789E-04
  3.26086578E-03 -4.34937014E-04  2.33053641E-05 -1.16793493E-03  9.66343861E-04
 -1.44936412E-03 -5.70967343E-03  3.54812791E-02 -2.07502046E-02 -8.95875942E-03
  4.37377439E-02  2.03448271E-02 -1.80645942E-03 -1.45805285E-02 -3.04934300E-03
 -2.20414238E-03 -4.11967254E-04  8.24459340E-04 -7.57838944E-04 -2.17421013E-04
  6.91445242E-03 -9.97149913E-03 -7.19713657E-02  2.52201669E-02 -6.83655562E-03
 -6.22953333E-02 -3.40406375E-02  2.14260742E-02 -2.59267422E-03  6.18376117E-03
  6.68781898E-04  1.81534225E-04 -2.34655167E-03  1.14958940E-03 -1.11541237E-04
 -2.09567383E-01  4.57990683E-01 -1.93438337E-01  4.73034994E-02 -3.24821893E-02
  5.62654664E-01 -9.18610367E-03  1.95105601E-02  7.36123509E-03 -1.16564493E-02
 -3.38555538E-02  7.72311096E-02  2.94646151E-03  3.60086488E-03 -3.94389851E-02
 -2.90795488E-03  2.84303243E-03 -2.75420431E-04 -7.05817875E-04  4.51584957E-04
  9.17256881E-04 -1.97529216E-02  5.40281614E-02 -9.58885178E-02 -9.89983640E-02
  1.21190723E-02 -3.92873762E-03  2.99821657E-02 -6.08294065E-03 -1.20580207E-04
 -2.17497149E-02  1.72018068E-02 -2.23036579E-04 -1.85469887E-03 -4.23816700E-03
 -1.86700764E-03  2.81985788E-02 -6.33734792E-02  9.52610655E-02 -1.48135635E-02
  2.38548689E-02 -1.32439308E-01  3.17833397E-02 -9.82954668E-02  5.04983131E-02
  1.40215658E-03  3.15989439E-03 -9.00517440E-04  8.37429698E-03 -1.44731376E-03
 -3.70954324E-04  1.72339390E-03  2.28545133E-03 -7.79754728E-03 -1.54663618E-03
  8.30495567E-03 -5.50532441E-02 -7.24073030E-03 -1.37010336E-02  1.28692383E-02
  3.61946242E-03  1.97737853E-03  1.13174275E-03  3.39396649E-03 -6.83314870E-04
  1.13739538E-03 -3.85242919E-03  4.72267833E-03 -7.96027901E-02 -1.38748069E-02
  9.24989224E-03  6.23978667E-02 -8.01276344E-02 -2.23929832E-02  1.10254137E-02
 -9.34505512E-05 -1.70690743E-03 -2.47758055E-03 -1.27141492E-03  3.99891144E-04
 -1.02437557E-03  3.99856427E-02 -9.34294152E-02  4.94922857E-01 -9.03401948E-02
  5.58888134E-02 -1.81141864E-01  4.03311622E-01  9.72159579E-03 -1.77107766E-02
  1.02793322E-02  3.62660212E-02  1.83719406E-02 -4.17933048E-02  5.41065771E-03
  1.83700370E-02  1.57155111E-02 -1.20360136E-03  4.09673290E-03 -1.35703460E-03
  3.57159036E-03  1.11134596E-03  1.02505483E-03 -1.62125452E-02  4.12924872E-02
 -8.63154656E-02 -1.05815516E-01  3.17273967E-03  3.27040843E-02 -4.04979958E-02
 -4.41750195E-02  3.80439630E-03  5.24284387E-03 -2.79115042E-03 -5.77926289E-03
  8.73011627E-03  2.93764878E-04 -6.71766063E-04  3.36040789E-03 -4.80444600E-03
  4.20376390E-03  1.35596663E-02 -1.51200460E-02 -6.38109779E-03 -7.12643417E-03
  1.16772112E-02 -9.78548756E-03  4.76692069E-04  1.80402886E-03 -3.17984090E-04
  4.76398108E-03 -1.89503816E-03  3.41556446E-04 -4.27126132E-03  5.66211592E-03
 -1.56941889E-02 -3.35435678E-02  3.88952453E-03  2.95001724E-02 -1.29546729E-02
 -1.51359315E-02 -1.10878455E-03 -7.44365942E-04 -2.06455588E-03 -1.50050541E-04
 -5.16439748E-04  1.69698213E-04  2.51302133E-04 -4.47637275E-04  3.28456898E-03
 -4.81876786E-02 -1.52809424E-03 -2.01278364E-03 -1.16144616E-03 -3.17935110E-02
 -4.82849492E-04 -2.54755336E-04  2.43445540E-03 -4.73947861E-04 -5.17040163E-04
 -6.90563414E-04  7.23025420E-04  2.60145019E-04 -5.49332947E-03  1.53317511E-02
 -4.31905895E-02  2.37564572E-01 -7.47711498E-03  3.80450394E-02 -5.14633042E-02
  1.24716416E-01  5.13026353E-03 -6.12777734E-03 -9.54813983E-03  1.15638572E-02
 -4.38900904E-03 -2.77766459E-02 -1.47445108E-02  1.49945256E-02 -4.75240051E-03
  4.05899965E-05  2.31100530E-04  1.24169129E-04  4.12422355E-04 -1.23807838E-04
 -5.86672122E-04 -1.09498557E-03 -1.66588296E-04  8.35294249E-03  9.64948245E-04
 -7.55030899E-03  1.49873306E-02  2.03120667E-02  1.39904578E-02  8.87552645E-03
 -3.82385528E-03  5.94914169E-04  2.30204960E-03 -1.62596793E-03 -5.66172892E-03
 -8.34433303E-03  4.18404314E-03 -8.50580398E-03  2.21570310E-02 -1.31889435E-02
 -1.14452660E-02 -2.95062233E-02  1.83155340E-02 -2.13963508E-02 -1.94669128E-03
  6.05170024E-04  1.11429334E-04 -8.58419023E-04 -5.99919985E-04  1.55401087E-03
  7.22023940E-04  3.03764451E-03 -5.95931804E-03  2.70868803E-02  4.19565545E-03
 -2.42294222E-02 -1.69986348E-02  1.65872382E-02  1.19757363E-03 -1.27717690E-02
  2.16822674E-04 -1.78206416E-04  1.02607351E-03  1.69585958E-03 -4.04118731E-04
 -1.15502574E-03  6.88509583E-04 -2.07674353E-03 -2.94749849E-03  6.83542947E-03
  1.49488007E-02  3.81759247E-04 -5.65937677E-03  3.76710778E-03  1.36679488E-02
 -2.16129720E-04  4.79001231E-04 -5.03116947E-04 -3.19285666E-04 -2.38799078E-04
 -6.64827708E-05  7.53255050E-03 -1.82965015E-02  5.34767091E-02 -1.72914790E-02
  2.56459322E-01 -3.32685970E-02  5.70488073E-02 -1.09663630E-02  1.39170247E-01
 -4.31628059E-04  2.17713742E-04 -2.13857174E-03  1.28976721E-03  9.58221472E-04
  4.13017276E-03 -1.06041340E-03  1.77168456E-03 -8.67390647E-04 -3.37947163E-05
  1.90485974E-04 -5.15329969E-05 -1.69439095E-04  1.04454815E-04 -4.63894464E-05
 -3.87918783E-03  7.12354511E-03  3.32071011E-04 -1.31852796E-02  1.18850180E-03
  6.83228957E-03  4.18639923E-03 -5.33535894E-03  2.71198600E-04 -1.06262775E-03
  6.23517399E-04 -2.34502474E-04 -3.82528309E-04 -5.67506789E-06 -7.76463569E-05
 -3.33383510E-04  2.72276532E-04 -2.06340927E-03 -1.41882325E-03 -4.74061957E-04
 -4.25475483E-03  1.34496932E-03 -6.07231361E-03  2.80825376E-03  4.26591414E-04
 -2.79151815E-04 -1.20482143E-04  4.02570315E-04  1.33182832E-04  1.02284900E-04
  2.01722798E-04  3.42345847E-04 -8.80495041E-04 -7.77413243E-04  1.28731293E-03
 -4.19661309E-03 -1.72916782E-04 -1.41546976E-03  1.56511058E-03  3.38160134E-04
  7.60850814E-05  8.96992636E-05  4.10515244E-05  7.29997866E-05  7.03913662E-05
 -3.86988601E-04  5.06933233E-04  8.01086409E-04 -7.93391398E-04  7.29280885E-04
  4.88407510E-03 -9.42092385E-04 -9.87294344E-04  6.03270832E-04 -2.43049992E-04
 -1.14393304E-04 -1.26981861E-04  6.09157008E-05 -4.66082650E-05  7.48185865E-07
 -8.23834133E-03 -1.79778503E-02  3.40640449E-02  2.20083109E-03 -1.99635149E-03
 -2.52732001E-02  2.63574324E-02  2.95056757E-04  8.34299904E-04  2.70736298E-03
 -1.60465977E-03  2.94793756E-03  1.12558040E-03 -8.39453517E-03 -4.22486865E-03
  3.90864912E-03  7.43452673E-04 -4.09664441E-03 -1.86396132E-03 -1.41438085E-04
 -2.00791750E-04  1.85007599E-04 -3.09457051E-04 -1.44795149E-04  2.51087301E-04
 -2.02642576E-03  2.41663846E-03 -2.75921353E-03  1.07982494E-02  5.10562674E-04
  6.75125933E-04 -1.46499890E-03  4.68889856E-03 -1.86224021E-04 -2.95163955E-04
  2.14908134E-05  3.48826501E-04 -2.44639730E-04 -4.65341191E-06  3.96457671E-04
  4.13901935E-04 -1.08049311E-03  3.24176798E-03  5.14954569E-04  1.36434116E-03
 -1.12773239E-03  2.30282936E-04  5.66207835E-04  2.31572960E-04 -4.81961211E-05
  1.47730068E-04  1.33857767E-05 -1.92188978E-04 -1.31869303E-04 -1.37803403E-04
 -1.83399038E-04  4.39835664E-04  8.74160190E-05  9.67464532E-04 -1.57466221E-04
  8.74671553E-04 -1.47675217E-04  5.72127760E-04 -2.55972154E-04 -7.71627001E-05
  7.48259971E-05 -9.96531953E-06  5.04711180E-05 -5.85047798E-05  9.55888208E-06
 -3.95255282E-05  4.31416302E-04 -6.32154625E-04 -1.59953756E-03 -1.27913586E-03
 -2.81284151E-05 -2.70383479E-04 -1.09461277E-03 -1.08216207E-03  2.78318489E-05
  2.00726594E-05  5.03042146E-05  4.91161740E-05  5.55529889E-05 -2.67037770E-05
 -1.74372068E-02  1.79535611E-03 -3.68427438E-03 -7.25352529E-03 -8.01034904E-03
  2.24489042E-03 -2.32100334E-03 -3.88998418E-03 -4.31071011E-03 -2.99085979E-04
  7.15253901E-04  2.74827108E-04 -7.93293195E-04 -5.04168612E-04  3.30555763E-04
  2.93024929E-03 -3.42901851E-03 -8.71770040E-04  2.14996759E-04  1.62586959E-03
  1.51161901E-05 -2.27436503E-04  2.46805880E-04  6.51372802E-05 -4.87922105E-05
 -1.68014864E-04  1.87944979E-03 -4.84422966E-03  3.60376684E-03  6.09411413E-03
 -3.37690377E-03 -3.11135148E-03  6.54318294E-04  2.79350974E-03 -4.92769002E-04
  2.16139275E-04 -2.59426778E-04  4.74993885E-04  4.22945804E-06 -2.68766858E-04
 -5.19858065E-04 -4.51312323E-04  4.33209963E-04  1.70173928E-03  1.06456860E-04
  8.17040261E-04  1.13537822E-03  7.02989403E-04  1.91236946E-03 -6.81706501E-04
 -1.45942893E-04 -1.44856629E-04  1.71534674E-04 -2.23444159E-04  1.24529637E-04
 -1.46235300E-04  1.38173302E-04 -2.09565350E-04  1.73567060E-03  2.92105354E-03
  7.78856112E-04  5.85722139E-04  9.23675275E-04  2.02512539E-03  5.94700612E-04
 -1.09609307E-04  1.23976971E-04 -1.12868919E-04  1.39497800E-05 -8.38363124E-05
 -2.19392321E-05  5.72544364E-05  1.82997069E-04  1.96840704E-03 -1.02401498E-03
 -1.44584857E-05 -1.62652988E-03  1.93691878E-03 -3.09374130E-04 -2.43780316E-04
 -2.60159349E-05  6.75098879E-05  1.03317192E-04  9.43517586E-05 -8.86051605E-06
 -1.23135304E-06 -2.01611575E-02  7.73919268E-03 -1.14955129E-02 -7.55085190E-03
  1.49912033E-02  1.00429510E-02 -8.03226062E-03 -3.72849227E-03  7.33827759E-03
 -1.00274687E-03  1.38172643E-04  1.21591185E-03  1.03091797E-03 -1.89239934E-03
  1.50635080E-03  2.01942427E-03  1.49806906E-03 -5.90999541E-03  3.41524559E-04
  1.80028361E-03  1.86081531E-03 -1.33261762E-04  4.46385433E-04 -8.90749327E-05
  2.32235420E-04  2.65448684E-05  2.18280042E-04 -5.56999358E-03  1.03630361E-02
 -6.38885944E-03 -1.05100725E-02  2.80544284E-05  1.19375309E-02 -2.75982386E-03
 -5.17893692E-03  8.51008123E-04  5.94669134E-04 -6.25452515E-04 -5.60378681E-04
  9.03300827E-04  1.53605394E-05 -2.40117241E-04 -6.91922391E-04  1.65334702E-03
 -3.18812976E-03  1.16829322E-03 -1.47347610E-03  9.78526028E-04  4.51117505E-04
  2.35956313E-03 -1.07936716E-03  4.01458445E-04 -2.31396587E-04  1.52186610E-05
  6.34700383E-07  1.36744780E-04  1.07783179E-04  3.65430104E-05 -4.10575606E-04
  2.13749637E-03 -8.26072206E-04  8.40998760E-04  1.56292296E-03  1.34738461E-03
  9.28630797E-05  2.70056150E-04 -1.01961653E-04 -6.40223750E-05 -3.29445822E-05
 -4.38133776E-05 -2.51772248E-05 -3.20278263E-06  2.53056872E-04 -2.55824238E-04
 -3.80103182E-04  9.56488665E-04 -1.00138985E-04 -2.09201777E-03  2.98639758E-04
  1.00487822E-03 -1.18894483E-04  1.18960403E-04  5.19547191E-05  6.05870172E-05
 -4.52900490E-05  1.73259486E-05  2.27868329E-05 -8.31856599E-04  1.91084576E-03
 -6.66745296E-03  2.77617810E-02  2.43348973E-03  3.59179633E-03 -7.87094381E-03
  1.39621542E-02  4.29915970E-04 -2.26479066E-05 -4.23261043E-04 -2.90567419E-04
  1.77827228E-03 -7.31030983E-05  2.48022052E-04  6.11317615E-04 -8.80620185E-04
 -2.00752473E-03 -1.66579277E-03 -4.49865428E-04  7.61572225E-04 -1.22899312E-03
 -3.59974482E-05  1.50601124E-04 -1.59016320E-04 -2.48247134E-05 -1.79408176E-05
 -8.56713902E-07  6.47339905E-05  1.07544382E-04 -2.53374716E-04 -5.74659991E-04
  5.77341279E-03  9.44679722E-04  7.69606531E-04  1.02003757E-03  3.70707883E-03
 -2.60215227E-04  8.98733021E-05 -7.01239262E-05 -2.17401959E-04 -4.56918404E-04
 -5.65922724E-04  2.96154266E-04 -4.52962314E-04 -1.98930124E-04 -3.82757432E-04
  1.69122444E-04 -2.25386856E-03  2.79668576E-04 -2.18246559E-03  4.59425316E-04
  5.82274949E-05  1.21751285E-05 -1.06343517E-04  1.53081593E-04 -1.33128493E-04
  1.03017348E-05  3.00668443E-06 -1.14652313E-05 -1.43499657E-03 -9.77392340E-04
 -2.60019626E-04 -9.06896274E-04 -9.42816944E-04 -7.66409346E-04  2.23907264E-05
  1.29415613E-04 -6.39542888E-05 -1.71079134E-05 -1.45942544E-05  1.77335391E-05
  2.09854389E-06 -1.76658648E-04  2.30183140E-04 -2.56179913E-04 -2.77991007E-04
  2.12598512E-04  1.84805609E-03 -7.44462890E-04 -5.26802437E-04  3.14946900E-04
 -5.76549731E-05 -5.05142004E-05 -6.36487229E-05  7.88039046E-06 -1.09283994E-05
 -8.93906121E-07  2.29405685E-03 -5.03921308E-03  5.82046053E-03  1.57166410E-03
  2.38072829E-02 -6.70855600E-03  6.07118970E-03  5.88377325E-04  1.26027078E-02
  2.92144962E-04 -4.70932973E-04  4.89079097E-04  1.90493580E-04  1.33021707E-03
 -1.23554416E-03  2.46389969E-03  1.07974694E-03 -5.82784292E-03 -2.32194706E-03
  5.99765693E-03  1.77694430E-03 -3.51450350E-03 -1.07122105E-03 -1.72483671E-05
  4.30600883E-05 -2.20821502E-04 -2.96100122E-04  7.19666927E-06  1.18967993E-04
  1.49283443E-04  4.99455491E-04 -1.74679190E-03 -8.75317051E-04  1.03353006E-02
 -1.25751643E-03 -1.53705451E-03 -1.28481877E-03  2.97055138E-03  2.87113779E-04
  3.31002845E-04 -6.42763822E-04  4.28752962E-05  4.71432784E-04  1.13336082E-03
 -4.95098858E-04  1.05050309E-03 -2.07581832E-03  1.22832346E-03  6.68560814E-04
  2.91370840E-03 -1.13019884E-03  7.49887674E-04  3.48005435E-04  1.95857078E-04
  3.89822666E-05 -1.99440024E-04 -1.32939868E-04 -2.54631994E-04  1.56273570E-04
  3.69202047E-05  3.95267100E-06  9.97870359E-04 -9.16090711E-04 -3.44782255E-04
 -2.92564541E-04  1.05140297E-03 -7.70517620E-04 -5.20596202E-04 -1.81335428E-06
  2.18240501E-05  6.23862298E-05  4.04301937E-06  7.29193684E-06  2.03214309E-05
 -3.86383475E-05  1.42436944E-04 -5.53035159E-05  8.21272190E-05 -1.17982015E-03
  1.48476689E-04  1.68966287E-04  2.11842713E-04 -1.04550627E-03  1.33817152E-05
 -5.90720590E-06 -7.75110644E-06 -1.84352316E-05 -4.21639314E-06 -1.59793287E-05
 -9.62347945E-04  2.13091781E-03  1.61579955E-03 -8.90032271E-04 -2.34953723E-02
  2.60874540E-03 -1.75115140E-04 -5.26454068E-04 -1.24975627E-02  1.99015797E-04
  4.46854488E-04 -8.11166511E-04 -2.40951218E-04 -1.02196291E-03  1.44367275E-03
 -5.28975693E-02  9.99783165E-02  1.50730465E-01  2.18295358E-01 -2.00027012E-02
  8.97455774E-02  7.18814827E-02  9.45380442E-02 -1.29419310E-02  1.42556404E-04
  8.43201075E-03 -7.85473179E-03  1.33637551E-02 -8.70189598E-04 -1.66864942E-03
  9.11184154E-03 -2.20020257E-02  4.03405668E-03 -3.03557148E-02 -1.33075559E-02
 -3.97223673E-02  6.53953820E-03 -1.09462569E-02 -8.10157687E-03 -1.22304380E-03
  7.04576151E-03 -3.25099070E-03  3.87981996E-03  2.17273364E-03  1.71922256E-03
  2.16173051E-03 -5.71344796E-03  8.03304636E-03 -8.04675330E-03 -2.08528223E-03
 -8.40541818E-03  1.39190363E-03 -3.53347959E-03 -1.93077843E-03 -3.60161320E-04
 -5.92217885E-07  2.08931197E-04  7.83839133E-04 -6.18820742E-04  3.02059948E-04
 -4.04550230E-04  5.57859408E-04 -7.41107521E-03  4.08817526E-04  8.65822850E-04
  1.70024122E-03 -6.31485167E-03  8.20024363E-04  1.25234715E-03 -2.99766930E-05
 -1.40948771E-04 -1.63902929E-04 -2.59810666E-04  2.26270025E-04 -2.52881820E-04
  1.50903278E-03 -3.62464072E-03  9.37170381E-03 -1.61227528E-02 -9.86184373E-03
 -5.84446916E-03  5.37348805E-03 -1.34814745E-02 -4.08035189E-03 -3.08444833E-04
 -3.68838187E-05  1.31552389E-04  2.64385391E-04 -1.50820741E-04  9.61833336E-04
 -9.65663967E-03  2.02481930E-02  5.04941134E-03  3.29078428E-02  4.58715537E-03
  5.71455424E-02  6.31396314E-03  2.63548614E-02  1.05611366E-03  5.79975786E-05
 -3.28580227E-03 -7.09271972E-04  1.87702696E-03  1.08895124E-04 -1.73923175E-03
  2.13225589E-01 -5.28710591E-03  1.91082270E-02  1.31641651E-01  1.95617089E-01
 -1.47676248E-02  6.87312501E-03  6.38025010E-02  8.03499869E-02 -7.64475227E-03
 -9.55427024E-05  7.93610983E-03 -6.97021809E-03  1.19070740E-02 -9.23349274E-04
 -7.83296351E-04  1.40143674E-02 -2.93574859E-02  2.50085105E-05 -5.57388695E-02
 -2.94680037E-02 -4.49158048E-02  9.91327132E-04 -1.55674367E-02 -1.72178135E-02
  1.09780196E-03  4.70927640E-03 -3.79584389E-03  6.17119717E-03  2.63821697E-03
 -5.43119604E-04  8.50893039E-04 -1.78072753E-03  7.33675549E-03  1.34434692E-03
 -3.34633837E-03 -3.71647803E-03 -5.05081452E-03  2.54156017E-03 -2.71267569E-03
 -1.65370758E-03  2.47978621E-03 -1.09198970E-03  1.92752480E-03  5.09794393E-04
  1.36467092E-03 -5.50457517E-04 -3.80126261E-04 -4.27913487E-03 -1.00945727E-02
 -1.25205035E-02  7.70136524E-03 -3.80450156E-03 -4.60922089E-03 -1.05423089E-02
 -5.78783731E-04 -7.80677300E-04  1.75263323E-04  1.55267404E-05  3.79278847E-04
 -5.87429304E-04  2.28113790E-04 -9.28546525E-06 -2.58658446E-02  1.76375281E-02
  2.75914333E-02 -6.29704612E-03 -1.77605410E-02  9.36659659E-03  2.46108021E-02
  1.91153030E-03  6.42745123E-05 -1.22044716E-03 -1.62213145E-03 -1.37740459E-03
  3.39135042E-04 -1.62557676E-02  3.40489799E-02 -1.52451888E-02  6.21441348E-02
  1.09598583E-02  7.91272014E-02 -1.16880408E-02  4.29496252E-02  4.44826766E-03
 -1.17395109E-03 -3.99453432E-03 -3.46194730E-04  3.66003538E-03  2.07321812E-04
 -2.41156355E-03  1.66426949E-01  1.50339274E-01 -5.35870333E-02  1.02334515E-01
 -1.61529053E-04 -8.20680668E-02  2.51746468E-01  1.01880237E-01  3.46022651E-03
 -4.16428147E-02  1.18990535E-01 -7.65611641E-03 -5.97592824E-03  1.48049015E-02
  3.08401024E-04  2.18060250E-04 -7.56397966E-03  6.10019631E-03 -1.99889271E-02
  3.62833998E-03 -1.27249831E-02 -3.44508911E-02 -1.53883502E-02  4.51865201E-03
 -2.24348199E-02 -1.91938601E-02 -2.38477747E-03 -4.19902772E-03  8.79604428E-03
  3.96687686E-04 -2.59007149E-03  1.88471890E-03  4.01962973E-03 -1.09067686E-02
  1.85189290E-02 -8.54345501E-03 -3.39998765E-03 -1.40390398E-02  1.50336599E-02
 -7.02779581E-04 -5.44602566E-04 -1.52241966E-03  4.65857337E-04  1.32934351E-03
  6.73582823E-04 -2.21386362E-04  7.74517905E-05 -1.26473957E-05  7.68483594E-04
 -4.34707051E-03 -2.53093686E-04 -5.63948998E-03 -1.85356644E-03 -5.94607838E-03
 -1.26215646E-03 -1.86624792E-03  1.15329053E-04 -5.59116370E-05  8.03195097E-04
  1.22816516E-05 -1.15379309E-04 -7.09781883E-05 -1.80301292E-04  1.33520392E-03
 -6.22703539E-03  7.00119704E-04 -4.31762764E-04 -2.56916207E-03 -5.20860827E-03
  3.67288771E-03 -1.82545193E-03  9.61359318E-05  3.89118545E-04  5.37558555E-04
 -1.77529757E-04  4.87855073E-04 -2.55763874E-06  5.37180173E-03 -9.30794251E-03
 -4.95453027E-03 -1.16066922E-02 -6.53077266E-03 -3.68387243E-02 -8.59779018E-03
 -6.61453577E-03 -4.96134686E-03  3.37746498E-04  3.05196929E-04  1.81445329E-03
 -6.80843599E-04 -1.14748966E-03 -1.15853138E-04 -2.17982852E-02 -4.23764989E-02
  2.10613941E-01 -6.90051162E-03  2.38896597E-02 -2.69447264E-03 -6.43595245E-02
  2.09184362E-01  1.94166026E-02 -1.34462706E-03 -3.13032851E-02  9.82126916E-02
 -6.76692778E-03 -5.18290123E-03  1.34316836E-02  3.01560142E-04 -1.76127311E-04
 -5.59084570E-03  6.96489045E-03 -2.01794093E-02  4.12726536E-03 -1.55608060E-02
 -7.67135798E-02 -1.45888216E-02  2.97119955E-03 -1.70710701E-02 -3.17904973E-02
 -2.78979189E-03 -4.87960824E-03  9.39502377E-03  1.31856303E-03 -1.91816981E-03
 -2.01444667E-03  3.81657276E-03 -1.05202761E-02  2.06747100E-02 -1.07674899E-02
  1.18367223E-02 -1.94096026E-02  1.01299764E-02  1.60552432E-03  5.59857869E-03
 -2.96920980E-03 -4.39121781E-04  3.07976730E-03  1.85179480E-03  4.08027855E-04
 -2.03865218E-03 -1.00308894E-03  3.85318045E-03 -2.69691183E-02  1.78411013E-02
  1.80229923E-02  1.96401742E-03 -2.12584183E-02  1.04931989E-02  1.45635968E-02
  2.98373796E-04  1.04893742E-03 -7.72851610E-04 -1.05167834E-03 -7.44490894E-05
  5.83266615E-04  5.02168325E-04 -6.42317389E-04 -6.70448957E-03 -4.28610534E-03
 -7.69507819E-03 -1.60210281E-03 -6.25191368E-03 -2.57222419E-03 -7.62675905E-03
 -8.86906458E-05  1.57360342E-05  8.78686238E-04  1.69328127E-04  7.84182603E-04
 -2.48370588E-04  3.37112468E-03 -5.39558109E-03 -5.34011176E-03 -1.09144809E-02
  1.47336038E-02 -3.01891803E-02 -6.52639343E-03 -5.95399433E-03  6.72501048E-03
 -6.08630586E-05 -2.02545318E-04  2.64088611E-03 -4.42642238E-04 -4.80190518E-04
 -2.31125980E-03 -3.89839547E-02 -4.06758078E-02  1.55538135E-01  1.31537094E-01
 -5.44927693E-02  1.06253300E-01 -2.48420060E-01  5.35045148E-02 -7.80166197E-02
  9.84886199E-02 -1.19594259E-01  3.30082299E-02 -3.77197644E-02  1.31626768E-02
 -6.07215039E-03 -5.93278203E-03 -5.85043372E-03  6.82649261E-03 -2.25321969E-03
  6.40690764E-03 -1.75181641E-02  2.12423352E-02 -2.31405992E-02 -3.40919444E-03
 -1.11779675E-02  7.75009159E-03 -1.90300008E-02 -2.09352952E-03  6.01056714E-03
  8.17873282E-04 -3.85876695E-03 -6.60265345E-03 -1.87100408E-03 -3.44203490E-04
 -8.31689194E-03  2.06500979E-02 -2.92586497E-02  8.69028485E-03 -1.08390849E-02
  3.67362811E-02 -1.29915462E-02  4.81639120E-03 -5.80876437E-03  5.31307581E-05
 -2.07634821E-03  5.24868600E-04  1.12312591E-03  2.38220795E-03 -2.52628332E-04
  1.07185594E-03 -3.20346487E-03  1.23071688E-02  4.27394288E-03  1.72533387E-02
 -3.78977323E-03  1.20961621E-02  4.25913003E-03  1.27495022E-02  6.00448679E-06
  2.66744894E-04 -6.46316431E-04 -5.98180127E-05  9.64033404E-05  4.44119022E-04
  4.03533785E-05 -3.22138450E-04 -1.41536085E-03  1.40869217E-02  9.89905959E-03
 -2.05046420E-03  2.10673523E-03  1.17117568E-02  6.84680088E-03  4.93352748E-04
 -2.40820538E-04 -2.82274612E-04  7.74878889E-05 -1.05786252E-04 -3.31910760E-04
  4.49507027E-03 -9.59050782E-03  3.85758277E-03 -1.74133002E-02  1.81668172E-03
 -1.99493417E-02 -1.76459820E-04 -1.40597966E-02  3.41282985E-03  1.28349948E-03
 -1.37729911E-04 -4.41866082E-04 -1.78882893E-03 -1.86512182E-04  2.56216737E-04
 -2.25311554E-02 -4.34968516E-02 -2.15899126E-02 -3.86817868E-02  2.09682666E-01
 -7.61028090E-03  2.49571393E-02 -1.96572527E-01  5.03923795E-02 -5.73390193E-02
  1.41765583E-02 -9.37647340E-02  2.69671265E-02 -2.40811818E-02  1.11840954E-02
 -4.61604607E-03 -5.46282375E-03 -5.14502737E-03  5.08426110E-03 -1.57568832E-03
  9.61429905E-03 -2.29497118E-02  5.57225373E-02 -3.84647342E-02 -3.27752931E-03
 -2.81389289E-04  1.51824688E-02 -2.61143244E-02 -2.52681565E-03  8.88222000E-03
 -2.13538739E-03 -4.56247828E-03 -3.73692481E-03  4.56152433E-04 -1.19787190E-03
 -1.18049546E-02  3.12264565E-02 -6.03399413E-02  2.54696416E-02 -1.08409890E-02
  5.63655638E-02 -1.61170365E-02  2.04655466E-02 -5.57582164E-03  9.99760080E-04
 -2.67564136E-03  2.09515446E-04 -2.47333111E-04  3.75471542E-03  1.11341726E-03
  5.07392867E-04 -3.56788506E-03  2.61093948E-02 -5.14966511E-03  2.49957720E-02
  5.86281547E-03  2.19902073E-02  4.57756221E-04  1.45092598E-02 -3.34791426E-04
 -2.87007456E-04 -1.15338299E-03 -2.33937046E-04  7.53331083E-06  9.74629171E-04
  2.65928747E-04 -9.16748654E-04  8.89837039E-03  3.32652343E-02  3.35227103E-02
 -1.06184588E-02  1.27805804E-02  2.71270958E-02  2.28194567E-02  1.00876283E-03
 -2.40334264E-04 -5.83423486E-04 -6.74186388E-04 -1.47907760E-03 -2.81324706E-04
 -4.59483775E-03  9.82143724E-03 -4.52149556E-02 -2.28092204E-03 -9.05333598E-03
  1.45734595E-02 -4.34887883E-02 -3.97933029E-03 -5.24176070E-03 -1.17141287E-03
 -7.72182948E-04  2.36485081E-04 -3.41026865E-04 -9.75862699E-04  4.55734349E-04
 -3.47003202E-02 -3.30991068E-02 -3.82055040E-02 -3.90267787E-02  1.48342259E-01
  1.22970028E-01  7.89577506E-03 -1.73432106E-02 -4.70954314E-03  4.46943704E-03
  2.97758674E-02 -3.93903370E-02 -1.39361042E-02  7.94997037E-03  1.59430568E-02
 -2.69483552E-03 -3.41669050E-03  9.25377250E-03  1.07455067E-03 -2.01541018E-03
  1.74796217E-03 -5.38374762E-02  1.02432964E-01 -6.04819341E-03  8.50157753E-02
 -2.57676710E-01  9.97054052E-02  1.57509216E-02  3.89578602E-02 -1.04498802E-01
 -1.10770163E-02 -6.58347751E-03  1.59652548E-02 -1.30841510E-03 -2.74291110E-03
 -1.02604705E-02  1.04824896E-02 -2.75784670E-02  3.87570386E-02 -1.95428577E-02
  6.48853972E-03 -6.16947683E-02  2.22866687E-02 -5.33522319E-03  7.92142972E-03
 -2.30250656E-03  6.92957564E-06  4.75512535E-03 -6.16343991E-05  6.26374178E-03
 -3.46160039E-03 -2.30669220E-03  6.16068177E-03 -2.87317205E-02  2.47786299E-02
  1.78063400E-02  1.02423772E-02 -2.65498040E-02  1.66696604E-02  1.44861184E-02
 -1.19359843E-04  7.54534218E-04 -9.60788579E-04 -4.14341675E-04 -2.25650312E-05
  6.66334203E-04  8.79295251E-04 -1.32192524E-03  1.40415747E-02  2.11467193E-03
  2.70117172E-02 -7.50173865E-04  6.24975110E-03 -1.13461966E-03  1.98976342E-02
 -8.21184864E-04  3.44141003E-04  7.96540936E-04 -1.03676835E-05 -5.13580305E-04
  2.55235356E-05  1.14765642E-02 -2.69886180E-02 -5.09734771E-04 -2.62154645E-02
  3.14798384E-02 -5.44435623E-02  7.08786561E-03 -1.69084035E-02  2.36964037E-02
 -3.02171899E-04  2.31125760E-03  2.80577839E-03  7.73839721E-04 -1.83797547E-03
 -8.04981830E-03 -1.30610255E-02 -1.11385666E-02  2.83907606E-02  5.35724598E-02
 -1.62474488E-02 -2.23954409E-02  2.18104256E-01  9.68869046E-03 -1.81960638E-02
 -1.25100548E-02  1.05859779E-02  6.65262002E-02 -3.66812343E-02 -1.67867740E-02
  1.01366914E-02  2.83022230E-02 -3.18548586E-03 -4.07494585E-03  9.83127864E-03
  2.25434926E-03 -8.52885746E-04 -7.76682029E-04 -6.60738416E-03  1.91733054E-02
 -2.23213947E-02  6.97517379E-02 -2.26572712E-01  8.78350150E-03 -9.62312625E-04
  3.37541522E-02 -8.63189791E-02 -9.85287351E-03 -4.51689766E-03  1.56033900E-02
 -1.11087280E-03 -3.26498759E-03 -9.94616902E-03  1.63543610E-02 -3.77251220E-02
  6.56120867E-02 -2.90083583E-02  3.09674344E-02 -6.71843997E-02  1.15624055E-02
 -8.80630738E-03  1.38076655E-02 -6.20324030E-03 -1.83902160E-04  7.02650951E-03
  3.88762883E-03  2.04650794E-03 -6.74170026E-03 -1.84462013E-03  5.55614725E-03
 -7.58840501E-02  4.85067722E-02  4.49746814E-02  4.44715466E-03 -5.81802341E-02
  3.07789047E-02  3.51775908E-02  5.65034266E-04  2.51381314E-03 -2.66730659E-03
 -2.08220609E-03 -1.87005754E-05  1.29532726E-03 -2.14595637E-03  5.72436854E-03
 -2.60818557E-03 -2.43100002E-02 -2.42951244E-02  1.49941650E-02 -7.76670607E-03
 -2.41146270E-02 -1.78559245E-02 -1.29745228E-03 -2.04433740E-04  1.67038825E-03
  8.89753226E-04  1.88167344E-03 -5.65914191E-04  1.20389335E-02 -2.69958538E-02
 -3.57928391E-03 -4.66553933E-02  6.70304780E-02 -5.15485103E-02  1.16078196E-02
 -2.43879204E-02  3.89899048E-02 -1.36384765E-03  1.07292821E-03  4.75388902E-03
 -1.61036007E-03  3.88673252E-04 -8.92201254E-03 -1.32506610E-02 -1.31036962E-02
  4.85874066E-02  7.15621942E-02 -1.80874861E-02 -2.66378807E-02  1.73779863E-01
  1.66762423E-01  1.14339981E-03 -1.69850511E-03 -3.69438980E-03 -4.84783368E-03
  1.36890373E-03 -8.21894405E-03 -6.28941807E-03 -1.05389654E-02  3.33633178E-04
  1.02587388E-05 -1.39962873E-04  1.82897091E-04  2.83013849E-04  1.15978448E-04
  1.96815573E-05  4.49213393E-03 -1.02472283E-02 -1.86823207E-02 -1.10540110E-03
 -1.32241793E-04 -2.33688969E-02  1.17796661E-02  1.76411698E-02 -7.67126455E-04
 -6.13604429E-04  6.17845077E-04 -3.58532187E-04  7.77801269E-04 -6.87532534E-04
 -2.72319678E-04  1.10591858E-02 -2.57206664E-02 -1.56933662E-02 -3.50630748E-02
  1.49669537E-02 -5.84878107E-02 -9.11392427E-03 -3.37138501E-03 -8.85073467E-04
 -1.04712649E-02  8.46320137E-03  3.46940917E-03 -5.78897635E-03  5.72950922E-04
 -5.89277916E-03 -5.99502189E-03  1.31591966E-02  3.02182431E-02  4.54330539E-02
 -1.60587776E-02  2.85672151E-02  2.52847460E-02  3.68483160E-02 -1.26837113E-02
 -2.76641578E-03  1.35243059E-03 -5.65931287E-04  1.23037302E-03 -1.05971754E-03
 -9.03739280E-04 -3.21173408E-02  7.34532932E-02 -1.50482027E-01  2.39276625E-01
 -1.55737995E-01  2.32787577E-02 -1.00757461E-01  1.15525472E-01 -8.06997852E-02
  8.61277162E-03  6.06561451E-03  1.04713765E-03 -1.56355276E-02  1.15069973E-02
 -1.02350246E-02 -1.62147541E-03  1.31133587E-03  1.27977963E-02  2.61328944E-03
  2.41069674E-03  2.54671217E-02  1.54882777E-02  8.71825500E-03  2.59054823E-03
 -6.39534718E-04  1.86147390E-05 -5.97645797E-04  3.15299436E-04 -2.96068209E-05
  3.22922167E-05 -2.45868755E-03  9.44128603E-03  1.24832319E-03  1.46828288E-03
  7.84486744E-05 -1.35990444E-03 -3.40717796E-03  3.18186267E-03  1.96919226E-01
 -1.28028192E-03  2.04781593E-03  1.30360322E-02  7.93116980E-03 -3.52023453E-03
 -2.56169625E-03  1.42366865E-03  1.32063297E-03 -2.49543678E-03 -9.81794991E-05
  3.30608269E-04 -1.26492830E-04  7.80210874E-04 -3.89314787E-04  1.00929159E-04
 -1.63195094E-04 -4.20603828E-04 -2.44233227E-03  6.65868489E-03 -7.48943306E-03
  6.42561573E-03  1.34834023E-02  7.49757542E-03 -3.46024206E-04 -1.81410836E-03
  6.43405395E-04  3.40641673E-04  3.01380180E-04 -5.31083499E-04 -4.53848360E-04
  8.26656481E-03 -1.54319917E-02 -3.05359332E-03 -4.09555742E-02  1.97731673E-02
 -2.91269711E-02  1.19015591E-02  6.78379528E-03 -1.80318181E-03 -5.32467125E-03
  1.57850269E-03  3.17527604E-03 -9.55740002E-03  3.42878950E-03 -2.55719489E-03
 -2.10713022E-03  4.01269487E-03  6.28772825E-02  6.57725701E-02 -1.65468263E-02
  5.33637460E-03  4.46621880E-02  4.40376658E-02 -1.01212242E-02 -2.60966622E-03
  2.80614072E-03 -2.78743447E-04  1.66763667E-03 -1.32490569E-03 -1.48384670E-03
  1.69724777E-02 -4.16963715E-02 -6.43683038E-02  1.24882150E-01 -8.67733262E-02
 -8.81874210E-02 -4.19072797E-02  6.16247846E-02 -4.67645386E-02  4.54638097E-03
  3.08863893E-03  1.99080809E-03 -7.63266319E-03  5.66220386E-03 -3.95290619E-03
  4.73208061E-04 -1.61784907E-03  1.24193529E-02 -8.06793188E-03  1.05495267E-02
  9.67156444E-03  1.16426182E-02 -2.76045813E-03  7.91224941E-03 -3.69535565E-04
 -1.11974842E-05  1.69981430E-04 -1.03014330E-04  1.19223615E-04 -6.32984965E-04
  1.05959132E-02  1.21534154E-02 -2.73909214E-03 -1.49232730E-03 -5.50267787E-03
 -6.66641185E-03  6.65393383E-03  6.66895651E-03  8.81377883E-02  5.68944087E-02
  3.58128466E-03 -5.30674167E-03 -4.75454493E-03  1.28075492E-02  2.00507068E-03
 -2.87781253E-02 -1.27211662E-02  1.25621231E-02 -2.83951880E-03  1.97841428E-04
 -7.16205531E-04  1.03918319E-03  5.52439282E-04 -4.99886174E-04 -1.16523377E-03
  7.55680089E-03 -2.21520497E-02  2.34705300E-02  2.94114553E-02 -2.00319501E-02
 -2.31361989E-02  2.45046166E-02  3.38924070E-02  3.56379254E-03 -3.65729332E-03
  2.73737349E-03  3.77495089E-03 -3.30690127E-04 -5.61654525E-03 -9.00511839E-03
  4.43515829E-03 -1.05779577E-02  2.18099479E-02 -4.25115754E-03  7.51579873E-04
 -2.51620732E-02  1.29819779E-02 -1.33968185E-02  1.51195675E-03 -7.87553270E-04
 -1.01476126E-04  7.12268499E-04 -1.31303436E-05  9.75518438E-04 -9.15672874E-04
  1.76226488E-03 -3.75671196E-03  5.88488354E-03  9.64421518E-03 -4.85306712E-05
 -8.75826363E-03  1.28882641E-03  5.59590020E-03  2.77913563E-03  5.32114213E-04
  7.24235637E-05 -4.69014196E-04  8.04323882E-04 -4.67823215E-04 -1.38140547E-05
  2.86292138E-04 -9.14077918E-04 -1.26288440E-03 -2.71731133E-03  5.83657431E-03
 -1.54647699E-04 -3.11225830E-03 -3.32713747E-03  5.49603559E-03 -4.78844820E-05
  6.40136078E-06 -3.34258569E-05  1.27630158E-04  5.61103161E-05 -8.95506368E-05
 -4.56446080E-02  9.38441508E-02  2.65435622E-02 -1.12186944E-01  2.69659011E-01
  9.05065970E-02  3.84974907E-02 -5.69450723E-02  1.43755568E-01 -5.78357109E-03
 -2.11390620E-03  1.24001682E-02 -4.86507281E-03  1.14222482E-02 -1.28930500E-02
  1.08530141E-03  1.54489919E-03  9.49171680E-04  1.58520259E-02  5.46828583E-04
 -5.35122485E-03  3.20072744E-02  5.60355434E-02  8.04883286E-04  6.86686856E-03
  2.05268882E-01  1.03761993E-03 -1.09901151E-03 -5.80941474E-03  5.12825111E-04
  1.41018388E-02 -1.83401924E-02 -1.00916055E-02  5.71134666E-03  3.58025236E-03
 -7.29651653E-04 -1.79316943E-03  2.91699147E-03  4.69170696E-04 -4.65510567E-04
 -1.00613137E-03  9.61331730E-03 -2.09256556E-02  1.44179959E-02  5.36163948E-02
 -5.34954546E-02 -2.86998076E-02  7.98038888E-03  3.62746359E-02 -1.41080906E-02
 -4.41907938E-03 -9.89995974E-04  6.66855889E-03 -3.08583392E-03 -3.80546512E-03
 -6.97572145E-03  8.50832584E-03 -2.11140638E-02  1.27017278E-02  4.97769253E-03
  5.66930711E-03 -3.20788212E-02 -6.29228614E-03 -1.37846685E-02  6.07844369E-03
 -3.15449035E-03  1.48199860E-03  2.00067590E-03  4.46889871E-03 -1.34576675E-03
 -2.64588169E-03 -5.47291493E-03  1.01955225E-02 -6.66156153E-02 -2.10523875E-02
  2.79612146E-02  1.78113545E-02 -4.84555074E-02 -1.16605232E-02  1.92895371E-02
  1.46279918E-03 -1.62524795E-03 -1.77089931E-03 -1.61629942E-03  5.67190800E-04
  1.69354529E-03 -3.17954247E-03  5.85773965E-03 -9.03517446E-03 -2.03063055E-02
  2.35727590E-03  2.66136625E-02 -1.19702089E-02 -1.79913760E-02  1.71962220E-03
 -2.34393671E-04 -1.57353734E-03 -4.24440331E-04  8.31499659E-04  2.25149050E-04
  3.74084154E-04  6.08873416E-03 -1.70867685E-02  4.01389612E-03 -7.05374678E-02
  1.71675616E-01 -2.90343451E-02  2.44554788E-02 -3.40263525E-02  9.06017901E-02
 -1.78827409E-03 -1.36583674E-03  6.93658467E-03 -3.14725312E-03  7.72467235E-03
 -9.60650634E-03 -5.94915140E-03 -7.51189392E-03  1.44549369E-02  2.68499556E-02
 -2.49946453E-03 -9.85783600E-03  5.31133502E-02  7.03476053E-02 -5.83022254E-03
 -3.68731738E-03  1.12891803E-01  8.81791855E-02 -1.02491972E-02  1.87838600E-02
  4.97093597E-03 -3.40339454E-02 -1.75679420E-02  6.73902713E-02  1.11711946E-02
 -2.68800555E-02 -1.60673901E-02  1.67894455E-04 -1.90739901E-03  4.07985113E-04
 -2.56400405E-03 -5.37500054E-04  6.09376201E-05  9.69211992E-03 -1.89438137E-02
  1.79836566E-02  3.58545823E-02  1.35785360E-02 -5.52905423E-02  1.76665180E-02
  2.13605493E-02 -1.01520639E-02 -4.46385430E-03  8.33918912E-03  2.25716780E-04
 -1.67628206E-03  3.06974382E-03  7.10651307E-03  2.95887231E-03 -7.47769478E-03
  1.25168525E-02  2.85125927E-03  1.22642476E-02 -1.26309173E-03 -2.33699634E-05
 -1.13392921E-02  1.32689777E-02 -2.12821732E-04  8.51531830E-04 -2.26226337E-04
 -9.65199765E-04 -5.65727834E-04 -6.79559262E-05  1.42934012E-03 -8.74485810E-04
  4.83832977E-03  7.63615828E-03  2.77624299E-03 -1.61650642E-02  4.64692036E-03
  6.23187346E-05  2.34150441E-03  6.79390942E-04  1.07819045E-03  3.91655816E-04
  8.57902256E-04 -1.37872144E-04  5.83151824E-04 -3.79954442E-04  2.38982244E-04
 -2.49070501E-03 -3.51960510E-03 -6.30477404E-03  6.48724976E-03 -3.74316229E-03
 -3.71094033E-03 -5.47439697E-03 -2.23252289E-04 -2.35611121E-04 -1.16299368E-04
 -7.88267471E-05  6.95994304E-05 -3.44585650E-04 -4.54660524E-02  9.42030272E-02
  9.84510868E-02 -2.02014613E-01 -1.89717152E-01  8.54684433E-02  7.65494354E-02
 -1.02523103E-01 -9.22984463E-02  6.94898167E-04  6.77411470E-03 -2.58214062E-03
 -1.35884207E-02 -1.04687844E-02  1.11782475E-02 -1.50973545E-02 -3.03694425E-02
  3.97041100E-03 -5.76756626E-03  4.92950790E-03 -1.85576038E-03 -1.58721280E-02
 -2.10942073E-02  1.22695024E-03  6.35402043E-04 -3.08476803E-02 -4.41337430E-02
  2.07426936E-01 -1.15090280E-02  2.34331388E-02  4.47518021E-03 -5.38090081E-02
 -2.38565314E-02  6.08396523E-02  9.17976920E-03 -3.25607425E-02 -1.63175185E-02
 -5.01147351E-04 -2.04023487E-03  6.89780934E-04 -2.89095938E-03 -7.12244759E-04
  5.35207292E-04  8.67193025E-03 -1.35771691E-02  1.11765572E-02  6.10439673E-02
  2.26934888E-02 -3.97167711E-02  6.46593060E-03  2.94203050E-02 -3.53410616E-03
 -4.17075563E-03  4.08407175E-03  1.46655437E-03 -4.83942356E-03  1.43357012E-03
  5.82649112E-03  3.83519355E-03 -9.69642971E-03  9.34503908E-03 -2.99059715E-03
 -4.99897004E-03 -6.23991952E-03 -7.16900760E-03 -1.75587263E-02  3.27112576E-03
 -1.08307643E-03  3.38974829E-03 -2.06085390E-03  9.45755592E-05 -1.81150900E-03
  7.65840412E-04 -2.04869889E-03  5.94788029E-03 -1.90073870E-02 -2.49224674E-02
 -2.46823660E-02 -2.34788251E-03 -1.17523954E-02 -1.94055335E-02 -1.67756108E-02
  7.39511910E-04 -1.40671679E-03  1.53449963E-03  4.13143846E-04  7.34558231E-04
 -2.23207651E-04 -1.30451155E-03  1.65652177E-03 -1.00286213E-02 -1.37475886E-03
  7.12925510E-03  1.74462824E-02 -1.11938451E-02 -2.79875571E-03  6.38539051E-03
 -5.34624201E-05 -5.24232540E-04 -1.05117849E-03 -1.53442414E-04 -2.78292725E-04
  1.37181501E-04  6.16422151E-03 -1.68198348E-02  6.25603142E-02 -1.33658399E-01
 -1.27752177E-01 -3.04329541E-02  5.72675529E-02 -6.77182514E-02 -6.11390690E-02
  2.81662446E-03  4.72566277E-03 -3.49176274E-03 -9.17225798E-03 -5.98615097E-03
  7.63617710E-03 -2.31341471E-02 -3.44049166E-02  5.52239418E-03 -5.03807562E-03
  3.75470693E-03 -5.09546306E-03 -1.12451316E-02 -1.64377142E-02 -8.15281652E-04
 -3.08876271E-03 -4.37746227E-02 -2.73991430E-02  1.17556860E-01  8.54899270E-02
Magnetic Field P1 (GIAO)                   R   N=       16380
  3.42739602E-18  1.22455163E-03 -1.62901139E-17 -5.09577758E-03  7.53521321E-03
 -5.30515888E-17 -2.35011673E-03 -1.56106877E-02  1.21801212E-02  9.36086217E-17
  9.80950471E-03 -4.89685011E-03 -1.61338274E-03  2.66615232E-01  3.04887309E-17
 -4.45104062E-03  2.42486024E-02 -3.51846241E-02 -2.80710489E-02  5.97638708E-02
  5.33815057E-17  4.72723863E-03 -1.04274032E-02  6.01317734E-02  1.14763706E-02
  3.93019928E-02 -1.30646298E-02  4.68327483E-18  1.73742812E-02 -3.25346288E-02
  1.66925053E-02  7.89708445E-02 -1.49124258E-01 -6.09983141E-02  2.62225223E-03
 -1.59577407E-17  7.49711159E-03 -1.57619239E-02 -2.95620094E-02  2.32495659E-01
 -7.42267140E-02 -7.53991620E-02 -6.04658642E-02  1.43801085E-01  1.42323502E-17
  8.71003005E-04 -2.96305814E-03  2.28459121E-03  9.95786769E-03  3.03496800E-03
  1.87348812E-04  4.45617793E-03  9.84710994E-04 -4.56281011E-03 -1.33613395E-19
  3.17029044E-04 -2.34358800E-03 -9.45221309E-03  1.68009273E-02  1.90046204E-02
 -5.16640598E-03 -7.24418984E-03  5.11956607E-03  4.84736241E-03  1.41319019E-04
  6.05457948E-20 -7.63007273E-04  4.92485159E-03  9.98035486E-03 -1.72488350E-02
 -3.08050527E-02  3.63946525E-03  4.44846254E-03 -4.08105482E-03 -6.00403509E-03
  2.72269090E-05 -8.93300685E-05  1.69460214E-19 -2.90634406E-04  5.48114069E-04
  6.97560867E-03 -1.00202229E-02  6.63042981E-03  3.24637341E-03 -1.57450090E-03
 -7.51184428E-03  1.22849802E-03 -1.29730690E-03 -8.03904439E-04  1.70400261E-03
 -4.50866477E-20  2.33181826E-04 -1.35103563E-03  8.17510831E-03  1.27183974E-02
  8.47854748E-03 -4.62110904E-03  4.48387283E-03  5.23009834E-03  1.98172278E-03
 -5.50181746E-04  6.02988751E-05  7.21977523E-04  1.31088175E-03 -9.81360318E-21
  2.44687695E-04  1.32177244E-04  1.15553080E-02  2.72108181E-02 -3.03480699E-02
 -8.29609513E-04  4.98894538E-03  1.29136319E-02 -1.49145787E-02  1.42594463E-03
  2.91093278E-03 -4.49094572E-03  1.37956311E-03  3.91094484E-04  3.72713624E-20
 -1.13916970E-02  1.45479894E-02  2.74427241E-02 -8.42602822E-02  3.75995236E-03
  1.65061092E-02 -3.05821714E-03 -5.16382214E-02  2.49103407E-02 -7.41939555E-03
 -7.45135849E-03  1.47665566E-02 -2.68966345E-03 -5.04212248E-03  3.95606372E-03
 -2.88590797E-19  2.68672190E-02 -3.69294661E-02 -5.22363810E-02  1.97671034E-01
 -3.75296289E-03 -7.10770284E-02  2.19720288E-03  1.03815983E-01 -2.17265479E-02
  1.42008467E-02  2.03139846E-02 -3.20077239E-02  5.09546019E-03  1.10003262E-02
 -9.18277323E-03  9.64734761E-04  5.37467157E-18 -2.49299208E-02  2.69536879E-02
  3.19532117E-02 -1.25607147E-01 -6.38295523E-02  1.66053221E-01  8.37174265E-02
 -9.48429120E-02 -8.17809750E-02 -1.23743171E-02 -1.35507013E-02  2.02343901E-02
 -5.23402572E-03  6.31369675E-03  6.98355823E-03  6.59301425E-03  1.77160131E-03
 -9.07573570E-18  1.98050557E-02 -3.14007717E-02 -7.79802729E-02  2.15542826E-01
  1.17237785E-01  1.62325012E-01 -6.83523685E-03  6.68001686E-02  9.86722760E-02
  1.96021477E-02  1.63858365E-02 -3.65976387E-02  7.91166051E-03  1.72053505E-02
  5.51540988E-03  5.04310371E-03  5.28207413E-03 -1.19348355E-02 -5.74846639E-17
  7.42174819E-02 -1.72316112E-01 -9.66642635E-02  7.60989729E-02  1.40780775E-01
 -3.41664244E-01 -8.55502025E-02  9.00151298E-02  4.12118011E-02  1.96225424E-04
  4.18746698E-03  5.52876208E-03  1.07005362E-05  3.02091284E-03 -1.14188496E-02
  4.94898455E-03 -4.05627010E-03  2.72094659E-02  2.88572870E-01  7.35470888E-19
 -1.34343877E-02  2.45508635E-02 -1.00382956E-01  4.05301379E-01 -2.98207861E-01
 -4.76358384E-03 -2.98558594E-02  2.02924327E-01 -2.04688040E-01  2.71284758E-02
  2.22165971E-02 -4.54994483E-02  5.63466604E-03  1.56112532E-02 -3.10858000E-03
 -2.04709676E-03  1.33843451E-02  1.03244209E-01  1.65454683E-02  1.77564195E-02
  7.82235606E-18 -2.75929479E-02  4.43187852E-02 -1.29826646E-01 -2.36943387E-01
  1.52648682E-02  1.41433230E-01  8.03721134E-03 -1.14843833E-01 -2.45200610E-02
 -5.60752987E-03 -1.48047028E-02  1.79980567E-02 -1.50844840E-02  3.83456895E-03
  1.23943649E-03 -1.48728032E-02  3.42547265E-02 -4.16408830E-03  7.12569988E-02
 -3.34385733E-02 -6.11110602E-02 -3.78479877E-17  6.00824823E-03 -6.12562537E-02
 -1.10580515E-01  1.76237382E-01  3.36970117E-02 -9.70868955E-03 -4.60524245E-02
  8.65718788E-02  3.51490766E-02  1.46789763E-02  7.60234652E-03 -1.96180951E-02
  4.46067399E-03  8.24710913E-03 -6.89043374E-04  7.96876047E-03 -1.01902334E-02
  5.81094228E-02 -3.74168803E-03 -2.24983518E-01 -3.87687216E-03 -6.66125182E-03
  4.88520700E-17  4.02753980E-02 -6.19305962E-02 -5.68687800E-02 -3.14417291E-02
  7.00550634E-02 -1.39354307E-01 -3.24536137E-02 -2.32770577E-02 -5.95691520E-03
  1.79543842E-03 -6.54195470E-04  2.93260103E-03 -4.79614857E-03  3.07500402E-04
 -5.47961765E-03  2.40947856E-03  5.02324723E-03  8.84314012E-02  1.80582386E-01
  2.34665834E-02 -2.88243972E-02  7.43457141E-02  1.09985832E-01  1.74733270E-17
  2.32218635E-03 -7.55297817E-03  7.79552272E-03  5.74038610E-03  2.07848348E-03
 -2.35287445E-03 -7.32875312E-03 -3.56765294E-05 -5.83390335E-03 -1.59775777E-03
 -6.22897992E-04  2.11196348E-03  1.23686655E-03 -2.71052422E-04 -3.72402147E-04
  5.87354828E-05 -9.25818263E-04 -1.02024969E-03 -1.06842240E-02 -1.37470658E-02
 -1.64549004E-03  1.47687135E-02 -6.02274464E-03 -7.74004560E-03  3.40965523E-19
  1.48707859E-02 -2.76295927E-02 -1.98484034E-02  9.15839526E-03  2.78357059E-02
 -4.45200078E-02 -8.84284572E-03  7.89568118E-03  1.61248300E-02  1.71421739E-04
 -6.97063243E-04  1.63185354E-03  1.90889363E-04 -9.71390108E-05 -2.01469028E-03
  2.40539343E-03 -5.75293796E-03  9.66749462E-03 -2.26800520E-02 -2.73677975E-02
 -6.96658048E-03  2.67557600E-03 -4.82836014E-03 -6.54032947E-03  5.18161139E-04
 -3.31161376E-19 -1.43883312E-02  3.03396115E-02  1.91125874E-02 -2.29211297E-02
 -2.37012103E-02  4.60074121E-02  1.76493020E-02 -1.36336926E-02 -5.50711274E-03
  4.22181407E-04  4.89950910E-04 -2.17771607E-03 -1.23421124E-03 -1.30219623E-04
  2.80762167E-03 -2.09934531E-03  6.39354726E-03 -1.18368624E-02  2.31513433E-02
  3.67601585E-02  7.73115045E-03 -1.73061177E-02  6.53667721E-03  1.22507543E-02
 -3.75084053E-04  4.70102588E-05  9.52471301E-21 -3.29124204E-03  6.50686085E-03
 -1.42128014E-02 -1.93940879E-03 -1.07246828E-02  4.48938777E-03 -1.52501832E-02
 -2.54041467E-03 -7.30321002E-03 -6.82392719E-05 -7.56610852E-04  8.34546109E-04
 -3.58217988E-04 -7.05608289E-04 -5.29708083E-04 -8.14596613E-04 -3.77679732E-04
 -6.31074119E-03  5.60479973E-03 -9.03639656E-03  4.10631060E-03  1.12284620E-02
  3.65105784E-03 -2.73553745E-03 -9.58678790E-04 -9.27473385E-04  1.40185319E-03
 -1.00623905E-20  2.71948509E-03 -6.73496227E-03  3.54811071E-03  8.62318182E-03
  6.78718008E-03 -1.00388492E-02  5.52903774E-04  2.81571635E-03  4.58087984E-03
 -7.04003835E-04  2.77398898E-04  6.46134791E-04  8.60913223E-04  1.43901608E-04
 -4.28713561E-04 -4.36633189E-04  1.53915112E-03 -1.14969746E-02 -1.73209013E-02
 -9.67073631E-03  1.53486773E-04 -1.43676656E-03 -5.76661465E-03 -5.40135891E-03
  7.36474427E-04 -3.28219729E-04 -5.35048417E-04  2.42537894E-03  1.84212902E-19
  3.17363727E-03 -6.47843494E-03 -5.84234872E-03  1.10691033E-02 -6.00032958E-04
 -7.16556954E-03 -6.62782312E-03  9.57103201E-03  6.03548456E-03  2.55130429E-04
  1.34882648E-03 -1.32638344E-03  1.53192694E-04  6.53051086E-04  1.14629720E-04
 -2.32412995E-03  7.77077210E-03 -1.69178839E-02 -2.66391667E-02  2.96941409E-02
  7.18046820E-03 -4.64445948E-03  1.95219232E-03  7.37248816E-03  1.37091317E-03
  4.05154276E-03 -5.86258899E-03  1.35541703E-03  4.93213017E-04  3.64821569E-19
 -6.39060785E-03  1.70034096E-02 -6.77827298E-03 -1.73113602E-02 -6.08486296E-03
  1.10559576E-02  1.01462258E-02 -1.20597992E-02  8.48839007E-03  2.44829260E-03
  5.40039230E-04 -2.38284365E-03 -1.11717137E-03 -2.69946516E-03  7.06460018E-04
 -2.77262277E-03  2.20810116E-03  7.22503194E-03  1.34075683E-02  1.31756165E-02
  2.02904197E-02 -2.44384226E-02  4.66267521E-03  6.25964479E-03  4.08897349E-04
  1.70307133E-03 -2.67326435E-03 -5.28864031E-03 -2.96041183E-03  1.74917066E-03
 -2.56123345E-18  1.75999274E-02 -4.44545069E-02 -1.41260774E-02  4.76725188E-02
  1.63367092E-02 -4.92855258E-02 -3.91176004E-02  5.25894736E-02 -1.75831568E-02
 -4.26179802E-03 -2.73666870E-03  6.55747891E-03  1.66104183E-03  5.41990468E-03
 -2.97166343E-03  3.31561892E-03 -4.84711621E-03 -7.96732420E-03 -3.85065841E-02
 -5.41139769E-02 -2.39688486E-02  5.68944273E-02 -2.62819624E-02  1.61607339E-02
 -2.37010928E-03 -5.18088431E-03  7.80979161E-03  1.21476957E-02  7.39097409E-03
 -6.10979837E-03  9.07033596E-04 -2.25869638E-18 -1.89978527E-02  5.63138758E-02
 -2.07036558E-02 -3.19256322E-02 -2.71805315E-03  4.07407326E-02 -5.09813142E-02
  1.99982132E-02  7.91290486E-02  8.13411000E-03  1.82004271E-03 -1.01995978E-02
 -3.94176912E-03 -5.79537853E-03  4.08323269E-03 -9.43792787E-03  1.52749363E-02
  2.78919357E-02  3.09383115E-02  6.51941194E-02  4.52318119E-02 -3.45907643E-03
  6.31646504E-02  8.98092787E-02 -1.97256549E-03  2.95790877E-03 -2.43103666E-03
 -1.43725805E-02 -3.31917176E-03  2.74864346E-03 -5.61909434E-03  1.64221611E-02
 -2.34638079E-18 -9.90158489E-03  5.46756577E-03  4.47959322E-02 -1.65433748E-02
 -3.90987507E-02  1.28964178E-01  4.71189063E-02 -3.57812993E-02 -1.11911572E-01
 -5.20524510E-03  4.47059738E-03 -1.58420295E-04  3.03402619E-03  1.78474101E-03
  1.53075203E-03  5.17743064E-03 -1.00478389E-02  7.38182284E-03 -8.31639363E-03
  6.01623657E-02 -8.44318675E-02  4.23787858E-02 -7.05453682E-02 -8.28559880E-02
  1.41756119E-02  3.48153596E-04 -1.69570879E-02 -4.19144815E-04 -1.51841561E-02
  6.69464050E-03  2.39030779E-02 -8.99729755E-02 -1.73992583E-02  2.30989011E-17
  2.09601680E-02 -3.86120765E-02 -6.79690893E-02  1.10328745E-01 -1.56597080E-02
 -1.13403358E-01  3.60919309E-02  4.26287463E-02 -3.36265848E-03  1.29081123E-02
  6.14915884E-03 -1.39535629E-02 -3.51166852E-03  4.24757407E-03 -6.91288024E-04
 -5.80088836E-03  1.87757604E-02  8.89121352E-02 -6.44374567E-02  2.37556153E-02
 -4.77584358E-02 -7.96651246E-03 -1.40391734E-02  3.00361509E-02  1.42348444E-02
 -8.52826750E-03 -6.62265322E-03  1.47268462E-02  4.46600557E-03  5.52073782E-03
  4.49928662E-02 -1.67165618E-01 -1.62265521E-01  8.12984659E-01 -5.59234156E-17
  2.83737473E-02 -8.10332174E-02  2.29967346E-01  4.93531920E-02  8.60030075E-02
 -5.15011645E-02  1.01124013E-01 -4.32906578E-02  3.92893135E-02 -1.77298796E-02
  3.55712861E-03  1.00400656E-02  1.47298427E-02 -7.76634407E-04 -7.91184138E-04
  1.16078004E-02 -1.84619324E-02 -8.12372919E-02 -1.05797501E-01  1.61833969E-02
 -1.04088491E-01 -5.70056910E-03 -9.51798760E-03 -7.73203185E-02  1.24670527E-02
 -2.20218410E-03 -8.44356995E-03  2.12124511E-02  3.97787840E-03  2.07895996E-03
 -1.20620779E-02  3.71689158E-02  2.37564495E-02 -7.16463368E-02 -1.95640757E-01
  2.03740353E-17 -2.64508324E-02  6.39351594E-02 -3.56843004E-02 -9.67958267E-02
 -4.51816679E-02  1.09046657E-01  1.60762690E-02 -7.30988325E-02 -8.81966751E-03
  1.73330558E-03 -2.38406814E-03 -1.59921357E-03 -7.73647131E-03 -3.65929677E-04
  2.73700965E-03 -2.80401011E-03  2.34053551E-02  4.74873984E-03  7.78662735E-02
  8.57563641E-02 -5.08800161E-02 -1.60297427E-03  7.08175055E-02 -1.06460570E-02
 -4.22670968E-03  4.05373196E-03  2.98220424E-04 -1.13288659E-02 -1.74588008E-03
  8.17393346E-03 -2.40036737E-04 -1.22769740E-02  1.56733927E-02 -5.48016267E-02
  3.49612139E-03  4.05991147E-02  1.25882713E-17  1.21760150E-03  2.51057195E-02
  3.08959140E-02  1.33616719E-01 -8.57412096E-02  1.17910807E-01 -4.10672338E-03
  2.72236453E-02 -8.26720081E-02  1.41189263E-03  5.72162953E-03 -9.06795939E-03
  6.12654088E-03  3.54999556E-03  9.96398565E-04  2.60271726E-02 -2.31637326E-02
  1.92116260E-02 -1.04604721E-01  4.50939869E-02 -8.03225087E-02  6.99403362E-02
 -5.88183971E-02 -2.14075966E-02  9.04182717E-03  3.47801247E-03 -1.19637322E-02
  3.42209837E-03 -3.02496511E-03  9.24901849E-03 -1.22492989E-02 -1.82173631E-02
 -4.00034575E-02  3.74374738E-02 -1.96972231E-01  7.08339068E-02  3.60776150E-02
 -3.04584371E-17  4.70624690E-03 -1.51880090E-02 -2.62796128E-02 -8.52371739E-03
  1.87138012E-02 -6.81956388E-02  4.69037935E-02 -4.23144216E-03  7.56476662E-03
  3.38428187E-03  3.14769815E-04 -1.16316995E-03 -2.67598299E-03  1.24015195E-03
 -2.67458737E-04  3.91798678E-03 -1.33070735E-02  2.14889947E-02  3.52995005E-02
  3.20420266E-03 -5.37486400E-02 -7.49449035E-02 -4.64713208E-03 -2.57286007E-03
  9.99959165E-03 -8.81188660E-03  6.49754664E-04  4.33482424E-03  1.25645851E-03
  1.70304061E-03  6.90422994E-03 -5.73812634E-02 -6.98340066E-02  2.64510290E-01
 -6.74265064E-02  1.29005916E-01 -2.82984540E-02  9.70429418E-02 -5.86875572E-18
  2.55406738E-03 -5.65901437E-03 -1.25835033E-03  1.19644862E-03  1.57405316E-03
 -1.20550378E-02  1.02862291E-03 -1.47904460E-03 -4.55929205E-03 -5.46216589E-05
  2.60643712E-04  1.11446179E-04  4.81281271E-05  3.06168891E-04 -5.82229524E-04
  1.89384026E-03 -2.55682207E-03 -3.77938985E-04  7.17524172E-03  1.86694750E-03
 -9.79476495E-03 -1.19552933E-03  4.38515508E-03 -1.67774881E-03  5.71751553E-04
  2.18821845E-04 -5.87680720E-04  1.39889183E-04 -5.34897168E-05 -8.82025706E-04
 -3.51466754E-04 -7.22053298E-05 -2.40713379E-04 -2.02588185E-03 -1.32618641E-02
  4.96386361E-03 -9.77267837E-04 -1.57924158E-05  8.29947406E-04 -1.10280979E-21
 -1.15546950E-03  2.86521551E-03  1.52949117E-04  4.70101803E-03  3.36967813E-03
  8.53255221E-03 -8.92358515E-03  1.43677567E-02  1.69646427E-02  1.02371240E-04
  1.65991573E-04 -5.92407949E-04  6.56428326E-04 -2.88116258E-04  3.35809861E-05
 -2.06913097E-03 -4.73525621E-04 -2.75182013E-03  1.70225619E-03 -6.00792373E-03
  2.37717375E-02 -8.25309236E-03  3.39013230E-03  5.99987750E-04  3.33219870E-04
  7.61645008E-04 -1.01778714E-03 -5.36040277E-04 -1.18981257E-04 -1.58401250E-04
 -7.20184116E-03  2.84553902E-02  1.78446332E-02 -1.04983338E-02 -4.45985592E-04
 -4.16583317E-02 -2.02952848E-02  1.01931690E-03 -9.50873885E-03 -2.88254254E-04
 -3.32508662E-19 -2.51370102E-03  4.99580063E-03  2.61763544E-03 -1.12567568E-02
 -6.28448310E-03  8.63897515E-03  1.10107164E-02 -1.79659817E-02 -1.36791471E-02
  4.69359643E-05  5.01340762E-05 -8.55047755E-05 -6.65935876E-04 -2.44587377E-04
  6.05437699E-04  5.50458860E-04  1.89813643E-03 -5.74685340E-04 -3.18538533E-03
  9.44476580E-03 -1.49553226E-02  2.78242614E-03 -5.83789144E-03 -2.78905309E-03
 -5.22340309E-04 -3.92593610E-04  6.09736294E-04 -6.47085910E-04 -9.23379792E-04
  1.37771202E-03  7.19654737E-03 -2.74304622E-02 -1.18851549E-02 -5.95234026E-04
 -1.47923640E-02  3.65890409E-02  1.92320459E-02 -4.15134946E-03 -1.27687518E-03
  6.02428528E-05  1.97439793E-03 -3.98697517E-19 -1.65588952E-03  4.69386477E-03
  3.15952076E-03 -1.05487694E-02 -7.93257055E-03 -3.39382158E-03  1.87045903E-03
 -3.47802874E-03 -9.53233406E-03 -3.53495294E-04 -4.80768260E-04  6.74852625E-04
  1.10812288E-04 -9.85797528E-04  1.29459832E-04  3.55593590E-03 -9.81869933E-03
 -1.40840003E-02  2.65555930E-03  4.86937712E-03 -3.18446909E-03 -1.23180560E-02
 -8.36879884E-03  7.89528738E-03 -9.73740713E-04  2.03918714E-05  8.66115982E-04
 -3.97178292E-04 -1.28523113E-03 -4.63592366E-04  1.50651828E-03 -3.93216455E-03
  1.52591825E-02 -1.59116702E-02 -2.48384733E-02 -5.99193304E-03  3.65061479E-03
 -6.00731209E-03 -1.07607353E-02 -1.44173332E-03  4.87458791E-05  6.39618302E-04
 -1.14359298E-19 -1.35928529E-03  2.54132452E-03  2.21862099E-03  1.23971792E-03
 -5.99244337E-03  1.28870898E-02  5.78311230E-03  2.80410148E-03 -1.00299164E-03
 -5.83558591E-04 -1.51988816E-04  3.65926044E-04  4.91806864E-04  7.17849204E-04
  5.93454572E-05  4.65675001E-03 -9.23930957E-03 -1.46438118E-02 -2.71041265E-03
 -8.09326278E-03 -2.99403497E-02 -1.56540862E-02  1.00068000E-03 -5.94851420E-03
 -5.01116045E-04 -4.94808872E-04  1.85401435E-03  2.90687137E-05  2.15011415E-06
  3.47306751E-04  9.95490521E-04 -4.10187477E-04  1.12844799E-02  1.77965744E-02
  1.07803858E-02 -8.25008114E-03 -1.72143373E-02 -1.57447096E-03  7.17610075E-03
 -9.36111592E-04  1.68125429E-03 -7.21637773E-04  5.76173585E-03  1.46193473E-18
 -1.54121244E-03  1.79171440E-03  5.83891276E-03 -8.06683114E-03  1.80001123E-03
  5.90480237E-03 -8.63857664E-04  2.37830604E-03  9.60882607E-03 -1.02234673E-03
 -2.98906668E-04  8.36417478E-04  2.78239097E-04 -8.80151054E-05 -2.01789660E-04
  9.09144584E-04 -2.97732279E-03 -1.16168992E-02  9.39995826E-03  4.19905295E-03
 -1.63123963E-04 -1.06150047E-02  1.13172602E-02 -1.26038026E-03 -1.30784429E-05
  8.84595720E-04 -5.39329874E-04  4.68925935E-05  3.68259749E-05 -3.35841849E-05
 -4.53239764E-03  2.07449191E-02  2.22694541E-02 -5.27937502E-03 -8.75060306E-03
 -3.41412389E-02 -2.03609966E-02 -4.26872994E-03 -3.54198854E-03 -4.64756756E-04
  3.67029030E-03 -4.54807461E-03  2.14417057E-03 -3.14456037E-04  7.38175317E-19
  2.76433978E-03 -7.79366602E-03  1.44999250E-03 -3.12881662E-03  1.07314061E-02
 -2.93915830E-02  4.91387206E-03  5.15480567E-03  1.95766123E-02 -3.44969623E-04
 -1.04818229E-03  4.24067048E-04 -8.88706057E-04  5.14508171E-04 -7.69063230E-04
  2.12902398E-03 -2.51106895E-03 -6.45238142E-03  1.17120611E-02  3.85990893E-03
 -2.51601425E-02 -1.26372953E-02  2.74385290E-02  1.74357336E-02  9.69323654E-05
 -1.17268075E-03  2.83463735E-03  1.86165273E-03  3.54746899E-03 -3.09056817E-04
 -2.66443460E-03  3.20277370E-03 -2.05438137E-03  2.19376334E-02  5.85830585E-02
  8.19119792E-03 -1.60380289E-02  2.03178678E-02  4.89543951E-02 -7.34620247E-04
  1.09738365E-02 -9.41374179E-03 -2.94480251E-03 -2.85313181E-03  4.57639623E-03
  3.27778663E-20 -7.66559306E-03  1.81696547E-02 -4.94034545E-04 -1.21260194E-02
 -2.11850416E-02  5.53778335E-02  4.89744021E-04 -2.65427968E-02 -2.88441549E-02
  6.62617567E-05  2.50199505E-03 -1.03807613E-03  8.69434194E-04 -1.13836244E-03
  1.91840419E-03 -9.68667911E-03  1.48592202E-02  1.14834632E-02 -1.70427990E-02
  3.97311715E-03  3.05114371E-02  1.56305786E-02 -3.36801812E-02 -2.72090163E-02
  6.36249964E-04  3.47086324E-03 -5.67547793E-03 -5.27163704E-03 -8.09336160E-03
  1.46718027E-03  6.49470987E-03 -7.57405180E-03  7.46799441E-03 -5.34204421E-02
 -1.43545888E-01 -9.43560511E-03  2.03176494E-02 -7.32724700E-02 -1.34835236E-01
  1.83773683E-03 -1.73977697E-02  1.52638186E-02  5.01049320E-03  7.21713368E-03
 -6.02807455E-03 -9.60969637E-04 -4.92775194E-18 -6.04102378E-03 -1.14713558E-02
  7.23906223E-02 -2.74384997E-02  3.97754880E-02  1.32268716E-01  4.93355547E-02
 -1.71457109E-02  4.45988971E-02 -1.15858333E-02  6.28440927E-04  9.26720458E-03
  2.58415732E-03  4.32055883E-03 -1.68369047E-04  2.06803165E-02 -1.13243310E-02
 -1.56034485E-02  6.54484927E-02  4.64584175E-02 -3.06246236E-01  1.60590465E-02
  1.47362409E-01 -1.14817827E-01  7.46659440E-03  1.76811110E-03 -4.82159047E-03
 -6.70897596E-03 -8.51770326E-04 -1.94731754E-03  1.19310255E-03 -2.73222894E-03
 -4.81912330E-02 -4.89134945E-03 -3.82892145E-02 -1.44572932E-02 -1.49024820E-01
 -4.36048913E-02  9.89236574E-02 -4.02995308E-03  2.26416907E-02 -1.33027951E-02
  4.08812119E-02  4.40128913E-02  1.65433687E-02 -1.73234754E-03 -7.40445427E-03
 -3.64887543E-17  1.47233727E-02 -2.64884216E-02 -4.50700921E-02  6.15472609E-02
 -2.49643219E-02 -8.99377950E-02  3.95991369E-02 -1.34517108E-03 -2.03550614E-02
  6.40938065E-03  3.30774812E-04 -4.75841006E-03 -3.83453165E-03  5.49892694E-03
  6.71819740E-04  2.30555259E-02 -1.17460121E-02 -3.48595555E-02 -2.13670600E-02
 -4.62039220E-02 -2.80091397E-01 -2.40445696E-02  5.53956600E-02  3.64489442E-02
 -6.04879260E-03 -6.00993348E-03  1.86075355E-02  7.34741042E-03  1.17842391E-02
 -1.62758406E-04  1.05981938E-02 -1.12336503E-01 -8.41180135E-02  2.53694762E-01
  6.54471806E-01  3.20220843E-01  4.44494286E-02  1.26369997E-01  2.78155978E-01
 -1.91345720E-02  4.86065621E-03  1.57387041E-02 -1.05916573E-02  1.87678678E-02
  6.43915142E-03  4.41129830E-03  4.02697694E-02  5.19017546E-02  7.57181248E-17
 -1.33009743E-02  3.09104994E-02  4.36545522E-02 -1.15988278E-01 -1.38816840E-01
  6.26947940E-02  1.62988780E-01 -2.01595993E-01 -3.18212090E-01 -4.46699006E-03
  2.34177761E-03  5.27817378E-03 -7.43206148E-04 -3.92878185E-04  5.44279092E-03
  5.23215037E-02 -7.93666091E-02 -1.99987190E-01  5.19850185E-02 -2.46064187E-03
 -4.21705850E-01 -9.91736161E-02 -1.24664796E-01 -9.21043808E-02 -6.02466788E-03
  5.12618678E-03  8.80929813E-03 -6.21933793E-03 -1.83942695E-02  6.26560192E-03
 -2.22842623E-02 -1.05239364E-01  1.37546387E-01 -4.76417210E-01 -2.44524544E-01
  5.55027501E-01  2.60487539E-01 -3.00343606E-02 -1.55873335E-01 -5.45871980E-02
  2.27198783E-02  1.53551401E-02 -2.71042339E-02  4.27267470E-03  8.09788414E-03
  6.79399518E-03  7.49159291E-02 -7.98146366E-02  5.66914977E-01 -1.38689668E-16
 -1.47840855E-02  5.48172422E-02 -2.31313618E-02  1.00068903E-01 -1.05705497E-01
  1.89455825E-01 -5.55682835E-02  2.56599784E-02 -1.36807695E-01  2.99523284E-03
  6.27595879E-03 -7.40469762E-03  5.83669244E-03  8.54120415E-04  2.10549270E-03
  1.40311347E-02 -8.32355525E-03  3.91738666E-02 -9.52816495E-02 -2.10092141E-02
  4.50200541E-02  1.04091916E-01 -1.33821986E-01 -5.00592166E-02  1.59253469E-03
  9.83905524E-03 -1.39982472E-02 -1.09045727E-02 -1.64535917E-02  3.25890688E-03
 -4.20486957E-03  7.54236500E-03  1.23521392E-02 -2.21054098E-01 -3.65935554E-01
 -2.83000495E-02  8.94023929E-02 -1.07114831E-01 -2.41763310E-01  1.03983877E-03
 -4.75242261E-02  4.11348912E-02  7.43376363E-03  2.38362137E-03 -2.71950160E-02
  5.01576831E-03 -1.11121952E-02 -2.15339600E-02  2.32149992E-01  3.83566653E-01
  3.72194448E-17  2.73822150E-03 -2.55861021E-02  5.33180029E-02 -1.22820848E-02
  4.70757441E-02  5.46271469E-02  3.63893492E-02 -2.25789763E-03  4.55047343E-02
 -8.77801132E-03  1.64145925E-04  7.88681139E-03  2.42810846E-03  3.34700398E-03
 -9.36958736E-04  1.26957400E-02 -1.04554108E-02 -1.76476392E-02  3.95098948E-02
  1.63297987E-02 -2.08785846E-01  2.55852707E-03  1.03248264E-01 -7.67555713E-02
  5.06016733E-03  4.27177444E-05 -1.84528493E-03 -1.40272938E-03  1.20670891E-03
 -3.52308289E-03  5.37198156E-03 -8.12569547E-03 -3.52282063E-02  4.21300600E-02
  2.51482110E-02 -2.03914084E-02 -1.11788956E-01 -1.93387214E-02  9.02055744E-02
 -2.17236036E-03  1.48673255E-02 -7.90327463E-03  3.02765747E-02  2.99868187E-02
  1.07056738E-02 -4.66093602E-03 -1.15258842E-03 -1.73339322E-02 -5.81813709E-02
  5.94872576E-02  2.86123368E-02  1.73260897E-17  5.58140764E-03 -1.03724468E-02
 -3.56202003E-02  4.70224536E-02 -3.67925224E-02 -2.99420048E-02  1.20061359E-02
  4.99413896E-04 -4.61810483E-02  4.05853843E-03  2.02739792E-04 -2.87905013E-03
 -1.89356782E-03  3.76149517E-03  6.08014529E-04  1.89299685E-02 -1.36325322E-02
 -2.45427159E-02 -1.37307503E-02 -4.51041392E-02 -1.91383817E-01  9.43591076E-03
  2.21987819E-02  1.37124736E-02 -5.44663877E-03 -2.93609334E-03  1.22888056E-02
  2.89246630E-03  5.02957678E-03 -6.83731686E-04  8.46702942E-03 -8.21084323E-02
 -4.84488310E-02  1.08573699E-01  3.76391628E-01  1.98978763E-01  5.20788492E-02
  7.43842795E-02  1.65050570E-01 -1.50458579E-02 -2.69159626E-03  1.77302146E-02
 -7.30460295E-03  1.10715609E-02 -1.90446475E-03  8.22285208E-03  2.41649703E-02
  2.81034064E-02  9.85746201E-02 -2.14238866E-01 -1.59939379E-01  3.12772769E-02
  1.20814903E-17 -8.39691666E-03  1.53905243E-02  3.86770189E-02 -1.08993020E-01
 -7.44672088E-02  1.10864971E-02  1.18162323E-01 -1.60756092E-01 -1.95755492E-01
 -3.80292497E-03  1.36048772E-04  5.84151213E-03 -1.45410914E-03 -1.36805625E-03
  4.05054641E-03  3.06849754E-02 -4.92286482E-02 -1.35898430E-01  6.49850128E-02
 -9.06126253E-03 -2.92810596E-01 -7.02006112E-02 -5.51522859E-02 -6.09968502E-02
 -4.50444109E-03  2.99579103E-04  9.55506914E-03 -3.30166423E-03 -1.10986666E-02
  4.00308311E-03 -1.23130799E-02 -8.45319015E-02  8.79482780E-02 -2.96603345E-01
 -1.10890872E-01  3.81302654E-01  1.73866872E-01 -1.08313981E-02 -8.79123497E-02
 -3.86197195E-02  1.98104348E-02  8.87140268E-03 -2.17314972E-02  4.99335332E-03
  8.18886975E-03  1.26827230E-02  4.85278076E-02 -1.41696079E-02  3.50502827E-01
 -9.23257630E-02 -2.64568163E-01 -1.07658537E-02  1.22575527E-01 -4.90792536E-17
 -3.74905189E-06 -4.43164328E-04  1.21085130E-03 -8.86666075E-03  1.21783122E-03
 -5.84188906E-03  4.75736987E-03 -6.64587220E-03  6.63781431E-04 -9.18899837E-05
 -2.03930815E-04  2.25811878E-04 -3.25898357E-04 -2.58265097E-04  3.16753405E-05
 -2.00164834E-03  3.78988724E-04 -1.15484280E-03  5.26992554E-03  4.21662860E-03
  3.07250572E-03 -5.97009864E-03  1.03939444E-03  9.19531074E-04  1.92682194E-04
 -1.98264228E-04  3.18408999E-05  6.68306717E-05  2.52434076E-05  2.93122119E-04
 -4.61444712E-04  8.30206079E-04  3.06754640E-03 -5.93419975E-03 -1.38529835E-02
  5.76896366E-03  1.28005995E-03 -1.70294137E-03 -7.21457192E-03 -4.24550369E-05
  2.81459250E-03 -2.73598510E-03 -1.37528485E-03 -7.25306142E-04  2.07916878E-03
 -4.20861598E-04  1.45861404E-03  4.97475605E-03 -1.72331558E-02 -3.09498510E-02
  2.12110908E-04  3.27231790E-03 -1.17133930E-02 -1.94223445E-02 -2.80470840E-20
  3.42328716E-04 -2.61668562E-03 -2.64587839E-03 -1.60440716E-03 -3.03656260E-03
 -7.65439432E-03  4.60100310E-03 -2.65230072E-03 -2.71263245E-03  3.83618741E-04
  9.19281523E-05 -3.14745193E-04 -5.47398739E-04  3.11687322E-04  1.31703993E-04
 -6.15417465E-04  7.34275548E-04 -2.61466363E-03  2.52252402E-04  4.64478688E-03
 -2.18499795E-02 -4.33683227E-03  5.17228606E-03  3.65176703E-03  5.16005951E-05
 -3.77423693E-04  7.40139921E-04  4.87434773E-04  6.41663383E-04  6.59017998E-05
 -4.19494031E-03 -3.30532217E-04 -3.20087106E-03  2.56795906E-02  3.26857302E-02
  2.88429642E-02  4.92834066E-04  1.06229587E-02  1.60480023E-02 -1.56440939E-03
  1.07455206E-03  7.03723276E-05 -1.06460550E-04  6.50946549E-04  6.28370227E-04
  1.08436158E-03  3.43232033E-03  8.84520032E-04 -3.54519059E-03 -3.32659979E-02
 -1.24503854E-02  1.52605366E-03 -8.28766680E-03 -2.05982984E-02  1.26513869E-03
  8.98773623E-20 -7.40780531E-04  9.45804034E-04  3.04238781E-03 -8.71509536E-03
  6.21326278E-03  6.81443663E-04 -3.01864151E-03  1.15744796E-03  1.45201111E-02
 -4.77973843E-04 -3.26223848E-04  3.36147424E-04 -2.60662960E-04 -2.73618361E-04
 -1.01798230E-05 -3.41760994E-03  3.66980720E-03 -1.88104169E-03  5.70239203E-03
  6.50442905E-03  1.82267385E-02  3.09126230E-04  1.08981503E-02  3.65421346E-03
 -9.61177334E-04  4.38057153E-04 -3.42528251E-05 -9.19547349E-05  5.53598329E-04
 -1.30799605E-04  6.89813474E-03 -4.44033848E-03 -1.67916251E-04  4.88679543E-03
  1.84660982E-02 -3.46159165E-02 -1.00672007E-02 -4.61938753E-03  1.18821469E-02
  1.92717234E-03  1.15135663E-03 -1.85692180E-03  3.57985862E-04  6.39744097E-04
  8.47075179E-04 -1.54959977E-03 -2.61681628E-03  6.62760779E-03 -1.91012758E-02
 -9.17863962E-03  1.15511970E-02  5.56228598E-03 -7.69064549E-03 -1.00483671E-02
 -1.43157836E-03 -1.05002224E-03  6.16790466E-20 -4.64024950E-04  6.87059167E-04
  4.58677303E-03 -2.22587543E-03  1.44710652E-03  5.86926041E-03  1.78662710E-03
  5.76106914E-04  4.61024313E-03 -4.29538428E-04  1.14521563E-04  1.61039036E-04
  2.39143950E-04 -4.14531988E-05  1.04221758E-04  1.00040550E-03 -1.58482734E-03
 -2.60082699E-03  5.54627500E-03  2.56470010E-03 -7.02691102E-03 -2.81013238E-03
  6.86093875E-03 -3.30743605E-03  4.12605241E-04  2.04478141E-04 -4.52346613E-04
 -5.85142296E-04 -2.62025923E-04 -6.97632880E-05 -9.30249780E-05  1.94587840E-03
  3.95123351E-03 -6.99497545E-03 -9.74795228E-03 -6.88312848E-03 -7.34009659E-03
 -3.30115761E-03 -4.25770590E-05  2.48270806E-04  9.09977357E-04 -1.09506601E-03
  1.34684526E-03  8.67912811E-04  2.98301428E-04 -2.58245382E-04 -1.70908230E-03
 -3.14538045E-04 -2.84352534E-03  4.18019114E-04  3.58598076E-03  1.46971443E-04
 -4.23000215E-04 -1.43314387E-03 -6.31616055E-04 -2.27615954E-04 -2.53637023E-04
 -7.09641313E-20  3.36001268E-04  9.04912721E-05 -9.68235628E-04  2.10847991E-03
 -1.70625686E-03 -2.69650106E-03 -2.71675430E-03  3.22156441E-03  1.66655342E-03
 -1.18712915E-05 -1.47181966E-04  3.71753607E-05  2.09614013E-04 -2.45400959E-05
 -5.27673809E-05  1.26734299E-03 -1.68000320E-03 -6.51627239E-03  9.03377423E-04
 -6.13020198E-03  7.87638193E-03 -2.25064778E-03  4.08943602E-04  1.26791777E-03
 -7.18047552E-04  2.17847379E-04  4.88558099E-04  4.67712512E-04  1.01883311E-04
 -2.59245972E-04  1.48210968E-03 -6.93983425E-04  1.32854938E-02  4.89870914E-03
  7.62045427E-03 -1.49198892E-02  7.28149912E-04 -1.48019396E-03  1.52572653E-03
  8.01258715E-04 -4.46688091E-04 -1.45454035E-04  2.21838727E-04 -9.05838028E-04
 -4.78172733E-04 -1.32211576E-04 -1.33561769E-03  2.09056310E-03 -1.82228013E-03
 -1.36257335E-03  2.97904221E-03  7.82146798E-04  5.17821460E-04 -9.87594432E-04
 -5.40944049E-04  8.76453838E-06  3.97051137E-05  2.40600869E-04 -8.76302324E-20
 -6.00195622E-04  1.14564095E-03  3.52235022E-03 -5.78171224E-03 -3.33533921E-03
  2.82131302E-03  8.44615299E-03 -9.04125135E-03 -1.01777929E-02 -1.86914155E-04
  2.00213822E-04  1.09510996E-04  1.98263695E-05 -8.70741160E-05  2.52898328E-04
  1.34314428E-03 -2.55930692E-03 -5.54087439E-03  2.70786163E-03  3.11921455E-03
 -1.43081643E-02 -7.22991177E-03 -5.29122586E-03 -5.80691310E-03  7.15081675E-04
 -4.55486647E-05 -3.15587754E-04 -1.83758577E-04 -7.16635948E-04  5.70124767E-04
 -6.07520418E-03  5.39097026E-03  6.91841025E-03 -1.16244515E-02 -2.53736929E-02
  2.50057907E-02  5.13393539E-03  8.23821747E-04 -1.23892273E-02 -1.85753493E-03
  1.78342611E-03 -9.45472934E-04  7.36837071E-06 -2.02583183E-04  9.68783208E-04
  8.53120696E-04  2.35963439E-03 -7.58430027E-03  1.25636171E-02  5.86535586E-03
 -7.20349795E-03 -6.02787365E-03  4.19848327E-03  5.63258701E-03  9.01529212E-04
  8.57397933E-04 -9.27630675E-05 -5.99510121E-05  1.77843554E-04 -2.02738255E-19
  5.62606227E-04 -1.33481413E-03 -5.04118231E-03 -3.11812799E-03  6.48890780E-03
  2.26357521E-02 -5.13224310E-03 -1.12751178E-02 -2.56777703E-03 -5.90453377E-04
  6.43846938E-05  5.40671243E-04 -6.51293133E-04  6.71132373E-04  2.56474323E-04
 -7.61285508E-05  4.15225965E-03  8.35074561E-03 -5.20926797E-04 -4.16269900E-03
 -2.28203206E-02  2.34694789E-02  5.47936877E-03 -2.78049674E-02  5.84806451E-04
 -5.72265897E-04  4.34085187E-04 -6.52512233E-04 -3.32535079E-04 -2.16694097E-06
  2.32361564E-03 -7.35460381E-03 -1.32632800E-02  5.78438736E-03  9.78846240E-03
  1.57891112E-03 -2.60500726E-03 -9.54987702E-03  2.06596323E-03 -4.17677119E-04
  3.48044111E-03 -2.49613398E-03  2.39001234E-03  8.95484420E-03  5.88423207E-03
  5.86380366E-04 -1.63177144E-03  1.43592103E-02 -3.23981564E-02 -5.36204211E-02
 -1.37982336E-03  1.18789094E-02 -2.71619021E-02 -4.84084411E-02 -4.17846751E-04
 -2.17271667E-03  1.75850680E-03  1.74090929E-03  2.31517920E-03 -6.23177046E-04
  3.20730425E-19  9.46893700E-05  6.63670710E-03  1.11617697E-02  7.76328459E-04
 -1.77673614E-02 -1.75458266E-02  1.38586343E-02  1.67252796E-02  2.83395347E-04
  2.09192145E-04 -2.61225105E-04 -2.48843868E-03  1.23533731E-03 -1.36592571E-03
 -2.27749101E-04  2.08076749E-03 -9.73505949E-03 -2.27228735E-02 -5.44352322E-04
  2.18004676E-02  3.31825799E-02 -4.00924334E-02 -1.57702606E-02  4.95162725E-02
 -1.38709783E-03  2.44678293E-03 -1.45730167E-03  4.38920491E-04  8.16037835E-05
  6.86643542E-04 -5.01349800E-03  1.26435785E-02  3.49086257E-02 -2.05140755E-02
 -2.38223675E-02 -3.30942584E-04  1.22017719E-02  1.59310165E-02  1.08013936E-02
  5.04163626E-04 -5.48049011E-03  4.09746034E-03 -5.54152051E-03 -1.84471958E-02
 -1.12992120E-02  2.11404712E-04  6.85983286E-03 -1.43737406E-02  6.36503744E-02
  8.41439699E-02 -1.31772318E-02 -1.17207029E-02  4.79190029E-02  8.04495038E-02
  1.85240619E-03  4.73771465E-03 -4.74542140E-04 -2.69590140E-03 -5.47393204E-03
 -1.80878594E-04  1.36989540E-03  1.09692078E-18  1.98871873E-02 -3.44395056E-02
 -6.66609185E-02 -1.88800159E-02  3.51667727E-02 -1.61659786E-01  1.23757158E-02
 -1.03195655E-01 -1.73910687E-02  3.94876103E-03 -4.47015655E-03  4.12053928E-03
 -4.20249688E-03  3.00655059E-03 -4.00044416E-03 -7.88607730E-03  3.24387552E-02
  4.73847222E-02 -9.86569129E-03 -9.96258422E-02 -1.61074330E-02 -3.07491443E-02
  7.83434265E-03  9.17321903E-03 -8.20633975E-04 -3.06917351E-03  7.81036930E-03
  1.99698973E-03  8.31864694E-03  3.29198918E-03  7.07221190E-03 -3.79728707E-02
 -7.03925399E-02  7.55604125E-02  1.03779513E-01  1.79613163E-01  3.52768920E-02
 -1.97288456E-02  1.73740126E-03  8.01756228E-03  1.31056133E-02 -1.33244864E-02
  4.03256064E-03  8.25430261E-03  3.07728341E-02  6.84924823E-03  2.10872005E-03
  5.76592708E-02 -1.17295566E-01 -4.06337831E-02 -1.10935538E-01  4.35307060E-02
 -7.70237946E-02  4.07715791E-02  7.75527756E-03  6.22512295E-03  3.58176714E-03
  6.44332758E-04  3.08105701E-03  1.07712056E-02 -6.16217717E-04  1.04242469E-02
  1.98510345E-17 -1.08556521E-02  8.96676814E-03  5.80791347E-02  7.58473066E-02
 -1.39386164E-02  1.23732885E-01  3.41985109E-02  1.51567003E-01  1.18678626E-01
 -3.18513599E-03  9.20940780E-04 -2.55139824E-03  3.88057439E-03  4.16936901E-03
 -3.93440261E-04 -8.13591617E-03  1.78671563E-03  2.76515912E-02 -3.01754257E-02
  2.47845452E-02  1.39608482E-01 -4.36780737E-02 -1.36395400E-03 -7.36236702E-03
  2.87903408E-04 -1.63851741E-03  4.73009917E-04  6.04018913E-03  7.30984420E-03
  2.63935582E-03 -1.05903273E-02  1.06194228E-01 -4.65600159E-03  7.33520413E-02
  3.23016348E-01 -2.60295160E-01 -1.43856015E-01  1.13665083E-01  1.31807384E-01
  1.17292939E-03  1.39961488E-02 -1.88126734E-02 -9.00076685E-03  3.40641483E-02
  5.46777224E-03 -6.10403231E-03 -1.73630813E-02  9.17744831E-02  8.15419498E-03
 -3.49478654E-01  1.34702615E-01  8.35833512E-02  1.76788785E-02 -3.11307304E-01
 -1.69951230E-02  3.64408895E-03 -1.30666332E-02  6.17488406E-03  8.47989684E-03
 -9.47406830E-03  2.15689516E-03 -2.57088552E-02  4.16698900E-02  9.95656168E-18
 -1.56805010E-02  3.60194272E-02  8.57812925E-03 -4.86336944E-02 -1.19625371E-02
  1.19616177E-01 -4.33408688E-02  1.52937512E-01  1.39255580E-01 -2.46867096E-03
 -7.55302009E-03  3.34095260E-03  2.16298158E-04  1.12008199E-03 -2.91656690E-03
 -2.43927237E-02 -7.21855385E-03  5.88180075E-02  3.45216463E-02 -4.29170165E-02
  4.21277241E-01 -1.27681908E-01 -1.06781129E-01  4.48097170E-02  9.84477135E-05
 -5.05236631E-03  3.67207075E-03 -2.22341416E-03 -9.85156508E-04  4.89407703E-03
 -4.84395538E-02  2.86494592E-01  1.44814878E-01 -1.23920680E-01 -2.41975456E-02
 -5.29726439E-01 -1.71077151E-01  1.25741272E-01 -1.26323192E-01 -1.60589565E-03
 -1.82330097E-03 -1.99897817E-02 -3.77510460E-02  1.04519884E-02 -2.10319593E-02
 -1.76931957E-02 -2.26095603E-02  5.92137767E-02  3.36318287E-01 -7.28664737E-02
  3.32308363E-01  3.73921390E-02  3.27684530E-01 -7.31030028E-02 -3.21281113E-02
  6.12426759E-03 -2.54981361E-02 -1.96244620E-03 -4.25664800E-03 -2.83006231E-02
  1.03359942E-02 -5.02220487E-02  6.36345220E-02  2.50124639E-01 -2.50853047E-17
 -5.19615514E-03 -1.49816124E-02  1.40328973E-02  3.11793284E-02 -2.30209154E-02
 -1.67809812E-01  1.28433416E-02  7.48750819E-02  3.28598867E-03  4.05499855E-03
  1.24177509E-03 -3.47703458E-03  2.63570356E-03 -3.28335989E-03 -8.14305788E-04
 -9.97232901E-03 -7.65299986E-03 -3.99518755E-02  1.58392510E-02 -1.74227796E-02
  1.52919893E-01 -1.26707931E-01 -5.10669952E-02  1.25243830E-01 -2.41977387E-03
  7.87356385E-04  7.02206792E-04  3.84115319E-03  3.08195464E-03 -6.32670627E-03
 -6.92666446E-03  4.60007083E-02  5.50387851E-02  1.20021572E-02  3.78710408E-02
 -3.41714455E-02 -1.52004037E-03  5.91969010E-02  9.37626107E-03  2.54828289E-03
 -2.69339212E-02  1.88417028E-02 -8.34307821E-03 -4.22374782E-02 -3.36901979E-02
 -5.55708402E-03 -2.70266533E-03 -1.70746242E-01  2.15833189E-01  4.20171200E-01
  2.18365170E-02 -1.28121518E-01  1.71654646E-01  3.32976136E-01  3.66489355E-03
  1.63621696E-02 -1.96722452E-02 -1.24397665E-02 -9.62176449E-03  9.87853584E-03
 -4.40308099E-03  1.50481157E-02  3.35186724E-02 -1.19244611E-01 -1.32692315E-01
 -2.90713097E-18  1.48392400E-02 -1.99934777E-02 -2.76297298E-02 -6.53428269E-04
  1.31661676E-02 -7.46481865E-02  1.47833814E-02 -7.91554491E-02 -2.70124344E-02
  1.36022905E-03 -2.03913772E-03  1.96216468E-03 -1.53281440E-03  2.72922045E-03
 -2.44196721E-03 -1.17721932E-03  1.93589291E-02  2.93722627E-02 -2.56867216E-02
 -5.06108979E-02 -4.75137980E-02  1.44802952E-04  3.60855172E-03 -8.08571529E-03
  6.51817156E-04 -6.78177336E-04  2.78157733E-03  1.72195539E-03  4.83849150E-03
  4.34722969E-03  4.38878517E-03 -3.39175434E-02 -5.39121292E-02  3.70464916E-02
  1.87381230E-02  1.36911721E-01  3.04914298E-02 -2.98899695E-02 -1.66492024E-02
  5.02168519E-03  1.28693900E-02 -1.14791191E-02  4.86716752E-03  8.43450503E-03
  2.53762874E-02  4.26271040E-03  8.06924603E-03  6.19137804E-02 -1.18690943E-01
 -7.11808098E-02 -7.72455153E-02  4.58913350E-02 -7.98847687E-02 -3.94006424E-03
  5.48494242E-03  7.85230778E-04  7.15547286E-03  2.08169343E-03  3.05279757E-03
  5.30394479E-03  7.60493499E-04  5.58955201E-03 -1.28896614E-02 -8.82539343E-03
 -1.19617080E-02 -2.75436207E-02 -1.18606758E-17 -1.58342678E-02  2.36671023E-02
  7.48673723E-02  5.04460482E-02 -3.56518277E-02  1.20379220E-01  3.80102849E-02
  9.10699054E-02  6.99224739E-02 -3.40753103E-03  1.92752841E-03 -3.28051650E-03
  3.73356318E-03  2.26883042E-03  8.91028527E-04 -6.42972618E-03  6.07612171E-03
  6.84800424E-03 -3.50583839E-02  7.11609913E-02  1.02693525E-01 -3.68372484E-02
 -7.66613022E-03 -3.71310587E-05  2.36500544E-03  1.83753599E-03 -4.87362841E-03
  3.85599213E-03  4.13840320E-03  5.97565982E-03 -2.40466291E-02  1.14118963E-01
  3.53750375E-02  3.59688421E-03  1.26610885E-01 -1.74849342E-01 -9.75822248E-02
  5.37500072E-02  3.93133939E-02  3.38806377E-03  1.56333720E-02 -2.44161060E-02
 -7.91163954E-03  2.44337967E-02  1.15344711E-02  1.04551245E-03 -2.34808890E-02
  1.20545564E-01 -7.41091542E-03 -3.38193909E-01  7.80249563E-02  9.73613630E-02
  7.50170950E-03 -2.73301177E-01 -1.44882510E-02 -9.93215699E-05 -2.22164156E-03
  6.72056957E-03  5.95236337E-03 -1.32363378E-02  3.33005400E-03 -2.46544935E-02
  4.28963354E-03  3.82253170E-02 -1.90935595E-02  8.38796994E-02 -1.29109310E-02
  1.72176257E-17 -4.05313644E-03  1.30357803E-02 -2.01936815E-02 -4.56210916E-02
  2.19892592E-02  7.48373133E-02 -5.18932938E-02  1.21506925E-01  1.29436631E-01
 -1.57320304E-03 -7.30062291E-03  4.25456300E-03 -1.07484413E-03  9.64861980E-04
 -3.39625655E-03 -2.51110789E-02 -8.95967317E-04  7.44266955E-02  2.23969551E-02
 -5.03192447E-02  3.36496836E-01 -8.04064262E-02 -8.17699348E-02  3.21658926E-02
  1.69728624E-03 -6.61033581E-03  4.57865307E-03 -1.57463662E-03  5.34130047E-04
  1.55318733E-03 -5.48554273E-02  2.58855162E-01  1.15611585E-01 -6.36004669E-02
  2.81681839E-02 -3.74143447E-01 -1.28531316E-01  1.09695662E-01 -6.88881982E-02
  3.48146045E-03 -9.56515939E-03 -1.43298626E-02 -2.62780275E-02  1.00187402E-02
 -1.72422606E-02 -3.98142517E-03 -4.38307139E-02  6.80987556E-02  2.85977446E-01
 -4.75068467E-02  2.11716945E-01  4.66803742E-02  2.62519159E-01 -5.43049509E-02
 -2.52533884E-02  8.64927699E-03 -1.99334392E-02 -1.69168684E-03 -3.22982020E-03
 -2.05843037E-02  7.11160228E-03 -4.11721269E-02  8.10024661E-02  7.62139978E-02
 -1.98155636E-02  9.77669669E-02  3.63531086E-02 -4.47240992E-02 -3.00105430E-17
  6.33896208E-05  2.30416128E-03 -1.60917606E-04 -4.02636979E-03 -1.55890499E-05
  1.79074466E-02 -2.91229585E-03  2.22392595E-03  3.86531405E-05 -5.31837784E-04
 -1.14407214E-04  2.21319789E-04 -1.41272375E-05  1.16134100E-04  1.13511262E-04
  3.96120774E-04 -1.47606993E-03  2.70321365E-04  7.67059930E-04  3.38095959E-03
 -8.86279442E-04  7.51282536E-03 -1.36058906E-03 -5.82531025E-03  1.22289793E-04
  3.84566978E-05 -3.73722785E-04 -3.23896144E-04 -7.98588514E-04  1.79583925E-04
 -9.75613417E-04  2.52492487E-03  4.90477814E-03 -7.85349521E-03 -2.08591435E-02
 -1.14128439E-02  4.97698083E-05 -1.14011348E-03 -6.25444652E-03 -4.37703419E-04
 -2.86848405E-04  4.05879081E-04 -2.55190375E-04  5.63348079E-04 -1.11063347E-03
 -5.68365154E-04  1.40135521E-03  7.17368061E-03  2.68303609E-03 -2.50579488E-03
  9.93996250E-03  4.42498185E-03  2.42689341E-03 -6.39311889E-03 -7.79441727E-04
 -9.27938085E-04  3.81090171E-04  5.65330423E-04 -6.11618503E-06 -1.01418927E-03
  6.71971611E-04 -1.96631748E-03 -3.04621906E-03  4.16862791E-03  6.31104053E-04
 -8.85857069E-04 -2.54870991E-03  1.48099457E-03  2.47335367E-03 -5.91932201E-20
  1.66915400E-03  9.27650736E-04 -2.79810212E-03 -2.82390015E-04  1.27422757E-03
  2.27541224E-03 -2.69612080E-03  1.29415327E-03  4.66803516E-03  1.13498999E-04
 -1.58927134E-04 -1.82605183E-04 -2.06550488E-04  1.58494757E-04 -1.27095706E-04
  6.98851273E-04 -5.12002628E-04 -4.36671106E-04 -2.49016983E-03  3.79022123E-03
  1.18927706E-03  2.32245134E-03  3.07832076E-03  3.48378617E-03 -4.75011084E-04
  4.63456571E-04  9.30500969E-05 -1.18828683E-05  4.40475168E-04  1.41155702E-04
 -3.73968242E-03  7.48846524E-03  5.58165954E-03 -3.72947069E-03  3.20048148E-02
 -4.30747390E-03  1.70330335E-04  3.39723476E-03  1.15746161E-02 -4.28437106E-04
 -1.11679491E-04 -3.04848031E-04 -1.73878831E-03  2.02350467E-03 -2.20661140E-04
  1.32519379E-03 -1.11724748E-03  2.28442390E-02  2.39903361E-02 -2.51733847E-02
 -9.34998168E-03  1.79401139E-02  1.28615097E-02 -1.63732185E-02 -9.52022390E-04
  1.83385171E-03  3.31112740E-04  4.90119820E-04 -2.68190500E-04 -1.03776043E-03
  1.80887378E-03 -3.21000812E-03 -7.01513514E-03  1.37991493E-02 -1.74029465E-02
 -8.80478707E-03 -4.26853179E-03  5.52335440E-03 -9.86325805E-03  3.21416172E-04
 -1.30135031E-19  1.15248593E-03  1.77100270E-03 -8.94737588E-05 -1.05663015E-04
 -9.33444194E-04  2.28064779E-03  3.70293887E-03 -8.12136959E-03 -4.53448711E-03
  8.83513100E-05  1.74266175E-04 -2.44029847E-04 -1.46228833E-04  2.00255221E-05
  1.37173819E-04  1.18211855E-04  9.89043210E-04  9.08468617E-04 -1.07661026E-03
  2.53066562E-03 -1.52265257E-02  3.03016084E-03  4.00487838E-03 -3.20990501E-03
 -6.36182985E-05  1.65844393E-04 -4.81597472E-05 -3.47771707E-04 -2.05047141E-04
  4.83637639E-04  5.27021119E-03 -1.65175969E-02 -1.03684999E-02  7.82014535E-03
 -1.19312843E-02  1.76153482E-02  3.88224595E-03 -7.78329745E-03 -1.28072175E-03
  5.85783153E-04  2.04469582E-03 -9.19298077E-04  1.77280002E-03 -1.12157501E-04
  2.91084120E-03  5.87748944E-04  1.77744215E-03 -5.53316569E-03 -4.22508187E-02
 -2.02061032E-02 -6.57931980E-03 -4.26928136E-03 -2.99550801E-02 -1.31318184E-02
  1.47125075E-03 -2.20426873E-03  1.80433764E-03  4.31283017E-04  6.63484549E-04
  6.41941766E-04 -8.45453400E-04  1.51879392E-03  4.52976644E-03 -6.84415055E-03
  1.56738614E-02  3.19680096E-03  2.90559797E-03  1.85895784E-03  1.01105292E-02
 -3.38956001E-04 -8.46662238E-04  2.92199748E-19  5.09565636E-04 -5.05724491E-04
 -1.67089242E-03 -3.64632966E-03  1.38596668E-03 -7.98485884E-03 -3.23931337E-03
 -5.83595386E-03 -6.92516958E-03  5.77049940E-05 -1.16081027E-04  4.05998760E-04
 -1.73943979E-04 -9.39046377E-05  9.97252600E-06 -4.76607021E-04  1.09512462E-03
  1.64080464E-03  1.81656926E-03 -3.05639940E-03 -4.02201215E-03  3.45318659E-03
 -1.82940962E-03  4.14044864E-03  3.16653514E-05 -3.05192921E-04  3.38441520E-04
 -2.89245842E-04 -2.03650751E-04 -1.70101063E-04 -1.05445097E-03 -1.72667676E-03
 -9.69120361E-04 -4.92516855E-03 -1.67901935E-02  1.53705306E-02  8.61104501E-03
 -4.77388107E-03 -9.51175932E-03  1.98499068E-04 -2.80033279E-03  2.32668249E-03
  2.30292361E-04 -2.46034811E-03 -1.61905017E-03  1.09222604E-03 -1.21891033E-03
 -5.71555461E-03  1.01072337E-02  2.85300167E-02 -9.65691051E-03 -4.99796952E-03
  7.06050153E-03  2.54306535E-02  8.48244309E-04  3.22436307E-04  4.50111777E-04
 -6.24218856E-04 -5.19782802E-04  4.85016459E-04  3.78378267E-04  6.37461981E-04
  4.66456501E-03 -1.91011180E-02 -2.75034638E-02 -1.02752975E-02  5.42453335E-03
 -1.26812317E-02 -2.71058968E-02 -2.27082412E-04  7.05287177E-04  7.16464945E-04
  2.27089629E-19 -2.83942460E-04 -2.67355189E-04  1.09583555E-03  1.96991401E-03
 -3.06556976E-04 -1.54830877E-03  2.78331025E-03 -7.23115538E-03 -5.89115022E-03
  1.39244827E-04  2.41138832E-04 -1.67298558E-04 -6.74094344E-05 -2.06768443E-04
  3.01783614E-04  2.94514142E-04  1.73065348E-03  2.49970072E-03  5.80684699E-04
  2.59860876E-03 -1.81023025E-02  7.32355420E-03  5.64606556E-03 -4.57263838E-03
  1.47265284E-05  1.14015442E-05  4.98486170E-05 -4.89993448E-04  1.41285290E-04
 -2.77390408E-04 -1.98056222E-03 -4.13594375E-03 -8.39199271E-03 -3.63398088E-03
  4.60461678E-03  2.91029093E-02  5.89898596E-03 -6.43482376E-03  7.56462962E-03
 -2.22262432E-04  2.91651594E-04  5.76916069E-05  1.40377395E-03  2.83161231E-04
  1.33835867E-03  3.66581057E-03 -5.25287354E-03 -4.06126055E-03 -4.44073125E-03
 -8.56367590E-03 -2.77218940E-02 -1.08983754E-03 -1.02838403E-02 -5.22146654E-03
  1.38099905E-03  4.06639429E-04  1.67326193E-03 -1.34466008E-04  4.73641176E-04
  6.76532152E-04 -3.44484157E-04  2.14761323E-03 -2.68635302E-03 -1.36673428E-03
  1.88202171E-02 -5.26470025E-03 -7.31248011E-04  6.78243996E-03  1.39514257E-02
 -5.90605729E-05 -5.80507836E-04  2.64775020E-04 -1.66070013E-03  1.82297431E-19
 -1.17287830E-05  6.82653191E-04 -2.08562481E-03 -7.51602543E-03  1.85215004E-03
  1.34961261E-03 -3.70809046E-03 -5.36770208E-03 -7.83843983E-04 -2.15202041E-04
 -3.36686910E-04  5.29973721E-04 -1.77088283E-04 -1.75495061E-04 -1.10258961E-04
 -3.70553690E-05  1.04551879E-04 -4.38061566E-05  1.56976542E-03 -1.44688422E-03
  4.10934772E-03  1.85981260E-03 -1.17528157E-03 -7.56995314E-04 -4.65233073E-05
  1.71859769E-04 -2.93532049E-05 -5.08057868E-04 -5.58806293E-04  4.35366157E-05
 -5.75911674E-03  1.24785644E-02  1.30139691E-02 -2.20532191E-02 -1.68412415E-02
 -1.05165290E-03  4.18964737E-03 -5.60756966E-03 -1.30792746E-02 -3.67291978E-04
  1.56645757E-04 -1.29318229E-03 -1.57176083E-03  6.18506725E-05  8.77098360E-05
  1.45207840E-03 -3.11696422E-03  1.29781683E-02  1.90868703E-02 -1.64332531E-02
 -7.69622161E-03  9.25384930E-03  1.21272693E-02 -7.82112397E-03 -8.48249824E-04
  7.25807402E-04  1.07334364E-03  3.39889893E-04  5.14881105E-06 -1.50912422E-03
  1.27374096E-03 -1.77502646E-03 -8.61052077E-03  8.08339297E-03  1.63622088E-03
 -8.06197235E-03 -5.54579775E-03  3.74086558E-03  1.14746384E-03  4.73456620E-04
  1.63035703E-03 -8.21149070E-04 -2.48150562E-04  2.36886547E-04 -4.59054607E-20
 -7.40241123E-03  1.97312930E-02  2.37472166E-02 -1.81896724E-02  4.84322260E-03
  8.43415621E-03  6.22643954E-02  1.07995376E-02  2.02211217E-02  1.73516258E-03
  1.65577306E-03 -1.83954168E-03 -1.17765582E-03  1.63554391E-03  3.84196082E-03
 -5.09771479E-03  1.20965958E-02 -3.33620814E-02 -1.47721052E-02  5.96360690E-02
 -2.67967707E-02 -8.48199276E-02 -7.36319113E-03  3.49865781E-02  4.34085463E-03
  5.66693378E-03 -6.05919647E-03  5.24327472E-03  8.21815428E-03  1.07016757E-02
 -5.09193087E-03  6.71918278E-03 -1.63280332E-02  1.43773500E-02  1.33578925E-02
  7.19656938E-02 -3.38064133E-02  2.53518533E-02  4.09541523E-03  1.73850403E-03
  1.17632886E-03 -2.62725305E-03 -1.82344582E-03 -2.86597887E-03  4.28579104E-04
 -1.30463826E-04 -1.98805018E-03  3.26644511E-03 -1.44390057E-02 -1.83294304E-02
  3.82967726E-03  6.40787053E-03 -1.01269193E-02 -1.03050733E-02 -6.07026210E-04
 -1.41730738E-03 -1.10998032E-03  1.51925839E-04 -2.82321682E-04  3.33568854E-04
 -5.01887340E-04  4.37455825E-04 -1.22281014E-02  2.63337948E-03 -2.12458244E-02
 -6.62400377E-05 -3.95371149E-03  6.00984483E-03 -1.06514559E-02 -1.46805042E-04
 -6.01902887E-04 -6.32022455E-04 -5.75117327E-04 -9.02443749E-05 -8.09538720E-04
 -5.50418838E-18  1.18326826E-02 -3.36781097E-02 -4.05281690E-02  3.62395322E-02
 -1.95797453E-02 -1.75657553E-02 -1.29532330E-01 -2.41057673E-02 -4.88952120E-02
 -3.52818407E-03 -3.60013686E-03  4.65276953E-03  2.57472879E-03 -4.30866811E-03
 -7.38303481E-03  8.75726354E-03 -1.93201335E-02  6.68458600E-02  4.11194553E-02
 -1.24513077E-01  5.97083936E-02  1.78054183E-01  2.38629605E-02 -7.12169965E-02
 -1.00510324E-02 -1.18210200E-02  1.32188699E-02 -1.10286499E-02 -1.88872216E-02
 -2.27835471E-02  1.14301810E-02 -2.05286351E-02  4.45052963E-02 -2.64119406E-02
 -3.41983266E-02 -1.50448175E-01  7.75349964E-02 -5.08912406E-02 -1.35421715E-02
 -3.84514238E-03 -2.89862905E-03  5.97141916E-03  2.37911945E-03  6.43164675E-03
 -1.14394765E-03  5.70846983E-04  6.14129913E-03  1.76071668E-02  3.56667620E-02
  3.82755899E-02 -4.16146358E-03  1.71865413E-03  2.64980464E-02  2.34528985E-02
  5.02753300E-04  3.16710875E-03  2.28014804E-03  6.31046565E-04 -2.39012566E-04
 -8.52295547E-04  4.33076868E-03 -6.25499605E-03  1.30038266E-02 -8.44258460E-03
  1.63876186E-02 -1.89563614E-02  2.18837474E-03 -1.60627041E-02  2.89828640E-03
  1.22856947E-03  1.31226445E-03  2.20596326E-03  8.32102836E-04  1.74817038E-03
  1.26315066E-03 -1.56396005E-03 -1.10033675E-17  5.07357194E-02 -6.79058871E-02
 -5.99524662E-02  1.07091225E-01  1.34561999E-01 -4.59579533E-01  1.43372011E-01
  1.49812573E-01  1.37080453E-01  8.55974779E-03 -3.72861704E-03  9.69417660E-03
 -2.63800989E-03 -1.60862287E-03 -9.31917137E-03  4.38152616E-02 -1.00213169E-01
  1.15227524E-01  1.32093040E-01 -2.23419085E-02 -9.71888658E-02 -2.34538240E-01
  6.21999577E-02  5.17435861E-02  1.59292007E-02 -2.15744611E-02  1.36775131E-02
  4.54591553E-03  1.09066905E-02 -3.54923415E-02 -7.11639243E-03 -8.43373211E-03
 -4.77382356E-02  7.36965166E-02  2.02614781E-02  2.65456584E-01 -8.18137699E-02
  7.83103358E-02  1.14761719E-01  4.58440353E-03 -1.16061208E-03 -5.35658335E-04
 -1.25228092E-02  3.01088784E-04 -3.95144230E-03  1.13013682E-02 -3.32852838E-02
  1.26170837E-01 -1.75078731E-02 -4.31254609E-02 -6.36635941E-02  9.26210953E-02
 -2.18501054E-02  1.24370862E-02  1.96230773E-03 -5.15550300E-03 -8.13708674E-03
  7.96810115E-03 -5.89276004E-03  6.91487065E-03  9.79968027E-03 -3.46582263E-02
  6.56811072E-02  4.04969801E-04 -9.22603407E-03 -6.25446263E-02  5.69417585E-02
 -1.90699900E-03  2.11221087E-02 -2.78593974E-03 -9.54300511E-03  5.23588721E-04
  2.67158710E-03  2.61029772E-03 -1.87118636E-03 -1.25983898E-03  5.10988979E-03
 -1.88490961E-17  2.77910039E-03 -6.49919164E-03 -6.39454130E-02 -5.78693817E-02
 -4.51860080E-02 -3.36840374E-02 -1.70340877E-01 -4.13121904E-02 -1.04091090E-01
 -2.02597198E-03 -6.43340542E-03  7.37857063E-03 -2.24434206E-03 -1.33987183E-02
 -1.95687625E-02  4.86536253E-02 -1.26627894E-01  1.39638977E-01  1.48925548E-01
  2.33057175E-02 -8.03834301E-02  2.30744231E-01  6.62330677E-02  7.96591808E-02
 -1.59935825E-02 -3.92699686E-03  1.98588882E-02 -1.10838947E-02 -2.24790836E-02
 -1.42484480E-02  1.74306538E-02 -3.12249520E-02  5.06158982E-02 -5.43765070E-02
 -6.65075096E-02 -2.46296115E-01  8.07842483E-02 -7.86171017E-02 -3.86719788E-02
 -6.53897053E-03  2.38240624E-03  2.12431095E-03  4.16775939E-03 -3.64481122E-03
 -2.91303580E-04 -9.23102301E-03  2.43467409E-02 -9.34886656E-02 -2.72123547E-02
  2.32524862E-02  4.05343731E-02 -7.85910404E-02 -1.18308855E-03  1.47453822E-02
  1.16736274E-03 -2.06362738E-03  4.29583809E-03 -3.89598881E-03  1.89910733E-03
 -2.63034490E-03 -2.61238250E-04  5.30706703E-03  1.89029768E-02 -2.39839459E-02
  8.33422063E-02  1.78881412E-03 -3.82284808E-03 -4.02580772E-02  6.53825451E-02
  3.14390713E-03  2.59900501E-03  3.88553944E-04  2.68276417E-03  3.57868340E-04
  3.69955205E-03  6.97874285E-03 -1.46458846E-02 -6.83223471E-03 -2.26316956E-17
  1.06171401E-02 -2.31910559E-02  5.90509294E-02  9.18798392E-02 -1.57089401E-01
  5.49272340E-02  1.16063819E-01 -1.68532019E-02 -2.64831174E-01  8.14312108E-03
  6.73489451E-03 -1.55654433E-02  2.70699076E-03 -2.74364823E-03 -2.95281593E-03
  4.89336225E-02 -1.44654844E-01  3.92666193E-02 -2.31562169E-02  6.11556376E-02
 -3.12774144E-01  7.21728976E-02 -1.66561170E-01  1.04477876E-01  2.94694677E-04
 -1.19126775E-04  1.07356627E-02  1.30923072E-02  1.14777740E-02  1.71284642E-02
  3.62625337E-04  3.09919011E-04  2.28181730E-02  2.58737369E-02  2.61354853E-02
  5.92959462E-04  7.82697708E-02  7.61548620E-02  2.29993298E-02 -6.55742666E-04
  2.70067367E-03 -6.29742888E-04 -3.01072980E-03 -5.70996559E-03  3.91604203E-03
  8.61796122E-03 -2.45325935E-02  6.09405427E-02 -1.60581192E-02 -5.14775862E-02
 -1.17453497E-02  2.70296399E-02 -1.97884344E-02 -3.52082425E-02  1.13681477E-03
 -2.77099355E-03  5.13543161E-04  1.31651045E-03 -2.75070375E-03  8.27161436E-04
  1.87702699E-03  3.08331304E-03 -2.34726633E-02 -3.89059566E-04 -2.19872234E-02
 -6.01247683E-02 -5.45014302E-03  3.08233105E-02 -2.20726286E-02  3.11611386E-03
  1.28775033E-03  1.93473527E-03 -9.55053653E-04  6.47595385E-05 -1.89753492E-03
 -4.51273221E-04  4.81402916E-03 -5.96808668E-04  2.04791557E-01 -4.99824664E-17
  5.80741500E-02 -1.53273668E-01 -2.15793930E-01  9.29668407E-02  1.07586764E-01
 -8.52249936E-02 -2.82486981E-01  2.14214219E-04 -4.30093172E-03 -5.65273487E-03
 -1.29455644E-02  1.89380930E-02  4.34998094E-03 -4.03660024E-03 -1.78046595E-02
 -1.93116929E-02  4.69291745E-03  1.39228851E-01 -8.78822056E-02 -4.86449304E-01
  1.29195281E-01  3.27683308E-01 -4.13194159E-02 -2.31234895E-01 -1.93455241E-02
 -1.82589191E-02  2.74732454E-02 -1.17506252E-02 -2.70585062E-02 -4.55582335E-02
  2.55669206E-02 -2.24678003E-02  3.59949199E-02 -8.99755526E-02 -7.50904481E-03
 -3.03374470E-01  1.07466646E-01 -1.07316008E-01  1.77277466E-02 -6.08248409E-03
 -7.35531716E-03  1.24175429E-02  1.37785857E-02  2.28678868E-02 -1.95143873E-03
 -3.19761579E-03  4.89359911E-03 -9.16221423E-02  8.76360608E-02  1.28445644E-01
 -2.17250560E-02 -7.38741870E-02  5.56541526E-02  7.31017123E-02  2.69988245E-03
  6.81534278E-03  1.15001881E-04 -5.00556457E-03  2.28924880E-03  1.18813593E-04
 -1.40119799E-02  2.50934395E-02  1.43205021E-01  2.88277241E-02  2.80118418E-01
  8.80848610E-02  6.74420547E-02  8.15335733E-03  1.90928734E-01 -6.51682273E-03
  1.70176239E-03 -4.70655951E-04  2.68092589E-03 -1.18611381E-02  2.60176173E-03
  1.81413387E-02 -4.25529122E-02  3.38943638E-02  5.38333503E-02  1.24587666E-01
  3.40607555E-18  4.62150634E-02 -7.56788926E-02 -7.73227587E-02  1.09505888E-01
  1.50847013E-01 -3.68252798E-01  1.13112077E-01  1.32013691E-01  1.34630971E-01
  9.31491979E-03 -2.82764156E-03  6.11490259E-03 -1.63167384E-03  3.62439857E-05
 -7.83856449E-03  3.15369343E-02 -8.05025050E-02  1.14043709E-01  6.23303525E-02
 -7.91500829E-02 -7.43699999E-02 -1.95242382E-01  1.52780467E-02  1.53160420E-02
  1.54124739E-02 -1.67317539E-02  9.42718136E-03  4.49792905E-03  1.24521880E-02
 -2.64696301E-02 -5.62189638E-03  3.00925869E-03 -7.83593767E-02  6.27885862E-02
  1.38252181E-02  2.21139800E-01 -8.77722159E-02  7.46572847E-02  8.97250881E-02
  3.63941877E-03 -1.43836793E-03  4.59125736E-05 -8.46770331E-03 -1.91311589E-03
 -5.08226260E-03 -4.96581698E-04 -1.51507053E-02  3.25937152E-02 -5.60702335E-02
 -2.64923164E-02 -1.54569058E-02  2.79834840E-02 -4.33080796E-02  8.81173247E-03
  2.37894315E-03 -7.50565682E-03 -8.46057713E-03  3.33609746E-03 -3.82531997E-03
  6.59208707E-03  9.37539539E-04 -1.58369138E-02  8.81299865E-02  1.32552502E-02
  5.92366428E-02 -1.15410484E-02  6.68289932E-02  1.40104066E-02  6.86036062E-02
 -4.19049372E-03 -7.82779420E-03 -1.92338678E-03  2.89921743E-03 -1.65170004E-03
 -2.66017624E-04 -4.13533208E-04  2.03463198E-03 -1.22469232E-02  1.41591426E-03
  4.43542257E-03 -2.83545475E-02 -4.60707704E-17 -8.95224560E-03  1.05862610E-02
 -8.47298203E-02 -1.66585610E-01  2.97659497E-02  2.37794569E-02 -1.14566587E-01
 -8.23822216E-02 -3.08748132E-02 -5.54026584E-03 -9.50350819E-03  1.32022923E-02
 -6.41445627E-03 -7.79577710E-03 -1.10641317E-02  2.12932207E-02 -6.01669886E-02
  4.07717517E-02  1.09935626E-01  5.32731684E-04 -5.44816353E-02  1.09512873E-01
  4.51253519E-02  2.62635526E-02 -1.28995253E-02 -4.09778185E-03  1.60527003E-02
 -9.98244334E-03 -1.47643751E-02 -7.30482795E-03  2.31262655E-02 -4.44893735E-02
  2.44408063E-02 -5.51888266E-02 -4.72399567E-02 -1.78666662E-01  2.14111020E-02
 -7.68429498E-02 -1.62007565E-02 -6.04741450E-03  5.95883667E-03  9.41947441E-04
  1.09681701E-02 -7.08412023E-03 -1.73985679E-03 -1.56251816E-02  3.26550026E-02
 -2.03007796E-01 -7.67282752E-02  3.89661856E-02  4.55741062E-02 -1.46645690E-01
 -4.32349172E-02  2.12299347E-02  4.05209411E-03 -5.21096382E-03  1.76262756E-03
 -6.42107656E-03  3.74762725E-03  6.97572260E-04 -1.53412173E-02  3.10022448E-02
  3.30126347E-02 -2.55842761E-02  1.28877121E-01  9.72735083E-02 -2.60614764E-03
 -2.95441148E-02  9.57428137E-02 -2.08123642E-03  1.06581857E-04 -3.05431913E-03
  2.57214543E-03 -3.74265680E-03  3.71024181E-03  2.29861973E-02 -4.90816260E-02
  1.96124220E-02 -4.15033734E-02 -1.19630750E-01 -9.76817169E-02  2.63707822E-02
 -7.01944340E-17  5.05843655E-03 -3.78820516E-03  7.22611443E-02  9.19782186E-02
 -1.54714232E-01  3.98862152E-02  9.22371096E-02  1.47444867E-02 -1.62639024E-01
  4.71454035E-03  5.82739450E-03 -1.19688028E-02  4.43783524E-03 -1.71930095E-03
  2.29834643E-04  4.68247921E-02 -9.84337187E-02 -1.46167378E-02  2.04219002E-02
  2.50076030E-02 -2.38215573E-01  4.47551128E-03 -4.30034091E-02  4.50393872E-02
 -4.06595873E-03  4.51161720E-03  6.62576698E-03  4.87106398E-03  5.99465752E-03
  7.64636550E-03  1.02384467E-02 -1.46399941E-02  5.93490274E-02  1.90010657E-02
 -6.38612349E-04 -3.85816345E-02  2.18311640E-03  8.37186844E-03  1.79263923E-02
 -3.17425908E-03  1.10651051E-02 -6.82990761E-03  6.15635217E-03 -6.56945334E-03
  3.38872044E-03  4.06580944E-03 -1.82985080E-02 -3.38186662E-02 -8.84732605E-02
 -1.07349910E-01 -4.68566509E-04 -3.01329695E-02 -5.96577644E-02 -7.45022498E-02
  5.53103782E-04 -6.78189282E-03  2.67285471E-03  1.19632412E-03  2.63265338E-04
 -1.10611009E-03 -7.68634728E-03  1.52241995E-02 -9.37566272E-02 -1.01650381E-02
  2.71193991E-02  2.88704441E-02 -7.04085246E-02 -7.49929462E-04  2.56528703E-02
  3.83990131E-03 -2.06214907E-03 -3.49893953E-03 -1.97520966E-04 -1.27705403E-03
 -1.45218729E-03  1.06523186E-02 -2.32959847E-02  6.78535597E-02  5.62785756E-02
  3.89013092E-02 -9.41913332E-02  7.37695553E-02  4.49717140E-02 -2.41564399E-17
  1.41432630E-04 -1.24250700E-03  3.59857816E-03 -1.99943912E-03  4.77420044E-03
 -2.58040734E-02  1.21307259E-02  5.72517731E-03  6.50678018E-03 -1.58490852E-04
 -2.74521972E-04  1.18191441E-03 -1.18753883E-04 -2.32703290E-04 -2.73925075E-04
  3.10677331E-03 -5.35911609E-03 -2.39445658E-03  1.14426549E-02  6.22079095E-03
 -9.53518754E-03 -1.94536014E-02  6.93429329E-03  7.24068901E-03  6.47375548E-04
 -1.02709571E-03  9.08558392E-04  7.23940071E-04  5.68135785E-04 -1.60595685E-03
  4.39428423E-04 -2.61759249E-03  1.24867429E-03  3.22435555E-03 -1.21714873E-03
  1.16289315E-02 -7.21602289E-03  1.71863189E-03  3.90148083E-03 -8.96918793E-05
  6.09233612E-04 -2.26153141E-04  7.31429018E-05 -7.99002051E-04 -3.17802169E-04
 -4.99373678E-04  8.72725625E-04 -3.30846164E-03 -5.81254381E-03  6.73208709E-04
  1.00690011E-03 -1.98734930E-03 -3.43478913E-03  3.21539896E-03  1.35342918E-04
 -6.31239506E-04 -4.11926018E-04  2.54873526E-04 -1.26487634E-05  4.76394069E-04
  2.75510395E-04 -7.98980372E-04 -5.71595485E-03 -2.76378288E-03 -3.91237034E-03
 -1.12090252E-04 -3.97549211E-03 -2.99884115E-03 -1.02570912E-03  1.88204263E-04
 -5.03036918E-04 -2.84224036E-04  9.61641681E-05  3.12803897E-04  2.01820240E-05
 -2.06200907E-04  6.23603755E-04 -2.72656884E-03  2.11927961E-03  7.44724105E-03
 -3.82507126E-03 -1.22025235E-03 -7.44328300E-04  9.25411292E-04 -8.17644900E-20
  1.26215928E-03 -1.96475141E-03 -1.66209651E-03  1.63943822E-02  6.43163601E-03
 -3.91494893E-03 -2.36707363E-03  9.35857147E-03  7.98661705E-03  6.59359875E-04
  1.15724023E-03 -1.52348043E-03  7.14535894E-04  7.78626549E-04  4.06303314E-04
 -2.28898324E-03  6.80628892E-03 -5.07156678E-03 -8.80921698E-03 -7.79084296E-03
  1.24024396E-02 -4.31776176E-03  1.29387650E-03 -5.29646561E-03  3.62243040E-04
  6.33358307E-04 -1.37171607E-03 -4.48579247E-05 -3.51914410E-04 -8.55898217E-04
 -3.64863283E-04 -5.04909720E-05 -1.53250696E-04 -1.01805193E-03 -2.17475420E-04
  2.70362204E-03 -1.09475713E-03  1.12517743E-03 -1.54633691E-03  1.21036610E-04
 -2.60986253E-04  7.33839117E-05 -6.87585629E-05  4.57234353E-04 -2.32191351E-04
  1.56431933E-04  2.55232901E-04  4.47187103E-03  1.78367101E-03 -3.02811181E-03
  1.37799357E-03  3.22012117E-03  1.12799321E-03 -2.53488818E-03 -1.95904037E-04
  1.01288760E-05 -9.78276213E-05  1.23757346E-04 -1.38923579E-04 -2.09067493E-04
  1.56426038E-04 -4.32352478E-04 -5.20256154E-04  2.81469270E-03 -1.31104368E-03
 -1.31517413E-03  1.57585869E-04  2.01022618E-03 -8.03458951E-04 -8.58071432E-05
  7.04995018E-05  9.98019389E-05 -2.41206048E-04  1.32043163E-04 -1.32534903E-04
  2.65194139E-04 -7.89738269E-04  3.50786048E-03  8.58715011E-03  3.53831362E-02
  5.96370891E-03  4.50048996E-03  2.27552028E-03  1.90210604E-02  8.38793663E-05
 -1.92077432E-19 -7.17824303E-03  1.30212732E-02  9.15377065E-03 -2.10067127E-02
 -1.91661201E-02  3.36896044E-02  7.15587902E-03 -1.65544168E-02 -1.56883601E-02
  1.78051060E-05  6.20015883E-05 -1.19002058E-03 -1.05942935E-03 -1.68816162E-04
  1.01282156E-03  1.48099315E-03 -1.60824204E-03 -6.40728598E-04  8.56695069E-03
  3.27833821E-02 -8.96905706E-03  5.28836104E-03 -2.74718522E-03  1.07115342E-02
 -9.56216697E-05  8.85290307E-04 -8.19751196E-04 -6.59874521E-04  7.81611344E-04
  4.26160978E-03 -6.06662843E-04  5.69768508E-04 -1.10278460E-03  6.08371297E-03
  5.50120549E-04  4.44532864E-03  4.80045779E-03  3.85330948E-03 -1.43932220E-03
  3.87551534E-04  1.82738448E-04 -4.02897177E-04 -1.12222851E-03 -7.71010277E-04
  6.14941189E-04  2.46750044E-04  4.46779084E-04  1.42587646E-02 -2.57635132E-03
 -5.67153095E-03  1.98377705E-04  9.48771632E-03 -2.48028263E-03 -5.30595851E-03
 -8.97089833E-05  7.15557547E-05  5.24727996E-04  4.67144399E-04 -3.04403153E-04
 -1.15640680E-04  9.48775020E-04 -9.70864893E-04 -5.63077465E-03  1.35647305E-03
 -1.26322004E-02 -7.00161455E-03 -2.06833864E-03  2.92314737E-03 -1.07530969E-02
  4.69958448E-04  1.99840054E-04  3.49170971E-04 -3.43464648E-04  4.86362181E-04
 -2.35968581E-04  2.06324927E-04 -5.48211031E-04  3.09951667E-03 -1.61220653E-02
 -3.81456835E-02 -5.08306296E-03  1.38336300E-03 -7.91750379E-03 -1.95635304E-02
 -1.43033858E-04  4.97778272E-04  6.50614178E-19 -9.24124726E-04  8.73578981E-04
 -4.18041442E-03 -6.65968890E-03 -7.63274289E-03  3.67669448E-03 -9.82532775E-03
 -4.66531771E-03 -1.08928664E-02  1.48264524E-05 -1.97166459E-04 -1.87058990E-04
 -3.78923995E-04 -6.15524959E-04 -1.18049090E-03  5.50504991E-03 -1.11737171E-02
  8.57800966E-03  1.17160973E-02  1.01807157E-02 -9.04275081E-03  1.62991835E-02
  4.53823789E-03  8.10554626E-03 -1.27411207E-03  9.52352020E-05  1.18240090E-03
 -8.92098723E-04 -1.59264475E-03 -4.98831579E-04  2.17259139E-03 -3.79770775E-03
  4.49206236E-03 -1.44373231E-03 -1.83304627E-03 -1.68546562E-02  6.82588065E-03
 -4.90991291E-03 -7.01537273E-04 -2.08689384E-04  1.67549043E-04  8.74869510E-05
  4.42364747E-04  5.23111104E-05  2.95791890E-04 -5.66475037E-04  1.00706775E-03
 -1.38874608E-03 -3.48078779E-04  5.44709568E-03  1.48354765E-03 -1.97651435E-03
  4.62805077E-04  2.92969747E-03  1.12049258E-04  5.05633529E-05  1.64051871E-04
 -3.23890369E-05  3.71970675E-05  5.99599158E-06 -4.08632993E-04  1.15538720E-03
  9.51759333E-04 -1.31991197E-03  6.27147178E-03  1.28331879E-03 -4.20240994E-04
 -1.81157671E-03  4.07384973E-03  1.34648368E-04  1.73435955E-04  4.89700350E-05
  5.74588023E-05 -1.74047355E-04  1.44733983E-04  1.40729500E-03 -3.15308964E-03
  3.39838979E-03 -5.38680102E-03  4.33341700E-03 -8.36426938E-03  4.22142878E-03
  9.23759368E-05  6.17269277E-03 -1.48012767E-04 -8.55969938E-04  1.75842898E-03
  6.21796650E-20  3.04196289E-03 -5.64192082E-03  3.02417351E-03  9.65560567E-03
 -2.42896475E-03 -8.49149456E-03  5.76866328E-03  3.70028930E-03 -1.06752424E-02
  3.50399270E-04  4.89054572E-04 -3.98562957E-04  3.05935981E-04 -2.51058370E-04
 -3.82569960E-04 -3.70970647E-05 -8.66665759E-04  4.82105999E-03 -4.97039477E-04
 -5.99655979E-03 -9.43021777E-03  4.34296061E-03 -6.31891580E-03  2.61895169E-03
 -1.93457666E-04  1.38014861E-04  4.63531610E-04  9.88894325E-04  6.93493603E-04
 -3.25482644E-04 -5.40508350E-04  1.06614181E-03 -3.18144257E-03 -7.51217986E-05
 -1.43745845E-03 -9.59797274E-04  2.35669095E-03  1.85105973E-03  1.11719761E-03
  6.35160150E-06  1.63387816E-04 -9.60139588E-05 -9.14636432E-05 -2.06070779E-04
  2.67180127E-05  2.34635287E-04 -9.12979751E-04 -3.29374708E-03 -3.34488626E-03
 -1.77011090E-03  7.07362041E-05 -2.84407617E-03 -2.27637257E-03 -5.41435325E-04
  2.22037491E-04 -4.84567657E-04 -1.30644605E-04 -1.45120936E-04  8.62697835E-05
  1.02770368E-04 -3.03093723E-04  5.96658926E-04  1.81278443E-03  7.45308878E-04
  2.98796068E-03 -5.67874994E-04  1.03334897E-03  1.20998006E-03  2.77144227E-03
  6.59906192E-05  5.19912111E-06 -9.99528027E-05  4.33454830E-06 -1.39272648E-04
  7.32476781E-05 -3.23005380E-04  8.28657071E-04  7.42296492E-03  1.23095291E-02
  5.45332992E-03 -3.76843935E-03  6.10868268E-03  6.24730911E-03  7.70654830E-04
  3.04409397E-05 -1.93359061E-03  1.57574529E-03 -5.72032155E-05  3.96460939E-21
  5.09193413E-04 -2.47931468E-03 -7.97837609E-03 -9.72584005E-03  1.49837532E-02
 -1.22726183E-02 -7.76472284E-03  1.34275206E-03  1.74945031E-02 -8.19496771E-04
  5.60452283E-05  1.38543703E-03 -2.64543558E-04  3.85554660E-04  4.79560022E-04
 -1.10598662E-02  2.61812754E-02 -2.21937238E-02 -3.97742166E-03 -8.03963031E-03
  3.11689621E-02 -1.20496877E-02  8.24944617E-03 -8.62253812E-03  1.20506742E-04
  3.53444073E-04 -1.80634828E-03  6.62756931E-04 -1.33659964E-04 -1.38821478E-03
  8.93058458E-04 -6.86278250E-04  1.68272428E-03 -4.15447636E-03  9.69335842E-04
 -4.46134253E-03 -5.75366102E-03 -4.48449953E-03  9.03629585E-04  2.77093851E-04
  1.60903222E-04 -1.47972389E-04  4.67172389E-04  4.94599238E-04 -4.60047523E-04
 -3.17559260E-04  4.79094912E-04 -5.58117966E-03  4.05125563E-03  2.48844821E-03
  2.42452922E-04 -2.82834128E-03  3.25571032E-03  1.88031268E-03 -2.18689179E-04
  2.30528395E-04 -2.17250429E-04 -1.34081711E-04  2.33522076E-04 -1.05662640E-04
 -5.15482236E-04  7.87801708E-04 -1.11713580E-03  9.35189959E-05  1.06625201E-03
  5.90946145E-03 -2.15168029E-03 -3.10752578E-03  1.48634643E-03 -2.40547922E-04
 -1.46215225E-04 -1.15629706E-04 -9.45238192E-06  5.47354957E-05 -6.16791831E-05
 -1.52631230E-03  3.31224748E-03  1.00102104E-02  2.21948784E-02 -2.32236765E-02
  1.62470118E-02  5.70294981E-03  9.41293428E-03 -1.02565948E-02  1.21450375E-03
  2.09800162E-03 -4.27799461E-03  1.74560484E-03 -4.94396753E-04 -4.69725532E-19
  4.92015678E-02 -1.06670773E-01 -1.45530971E-01 -2.06170522E-01  6.02381291E-02
 -7.67858294E-02 -1.01266026E-01 -1.31791757E-01 -1.79941370E-02 -9.23687949E-03
 -1.48496443E-02  1.91948093E-02 -7.28149188E-03 -8.46722782E-03 -2.60220786E-02
  4.12984687E-02 -1.00154678E-01  7.75373961E-02 -1.20574832E-01  1.67095536E-02
 -1.94270563E-01  1.85158598E-01 -6.21838449E-02  4.99056134E-02 -2.16272501E-03
  3.90913921E-03  1.28527395E-03  2.69142606E-03 -6.71669703E-03 -7.19645462E-03
  3.61655587E-03  3.86040149E-03 -9.50758542E-04 -1.51103159E-02 -2.58179865E-02
 -8.48167612E-02  5.32260297E-02 -9.67539519E-02  2.33356205E-02  5.99306484E-04
 -4.78141552E-03  4.51346692E-03  2.45421981E-03 -4.05653213E-04  1.33333543E-03
  6.96377985E-03 -6.72890259E-03  1.02920472E-02  3.19903638E-03  2.68185428E-02
 -8.19917953E-02  9.26501330E-03 -3.17522796E-03  3.60083473E-02  4.48792929E-03
  3.34257360E-03  4.17335645E-03 -4.59068411E-04 -1.22104119E-03  1.04943492E-03
  5.63610310E-03 -1.14932794E-02  3.30184994E-02 -3.49684263E-02  2.87694197E-02
 -2.81913289E-02  7.40416782E-03 -4.20203343E-02  4.14274609E-02  2.47946540E-03
  1.28732572E-03 -4.51224053E-04  2.01740612E-03 -8.98193171E-04  3.56053875E-03
  2.30099197E-03 -8.29346803E-03  1.36484417E-02  4.25892260E-02 -7.57202534E-02
  3.17342627E-02  8.14873945E-03  1.08561431E-01 -8.26031429E-02  2.40669033E-03
 -7.51905638E-03  4.53708366E-03  3.67453602E-03 -5.32958984E-03  8.99174103E-03
 -3.75526898E-17 -3.10019295E-03 -2.17105803E-02 -1.53187253E-01 -2.03390539E-01
  2.02814602E-01  3.92689269E-02 -1.16175379E-01 -1.32287646E-01  5.64746254E-02
 -1.25488315E-02 -1.92971982E-02  2.75814553E-02 -5.39215566E-03 -8.07750281E-03
 -2.97991320E-02  4.77680721E-02 -1.31292737E-01  1.00743228E-01 -1.18503847E-01
 -9.35998513E-02 -1.84518044E-01  2.13941222E-01 -6.83516043E-02 -1.83925027E-02
 -1.09070431E-02 -2.64546515E-03  1.71143651E-02  7.13735981E-04 -1.14033757E-02
 -9.93152265E-03 -8.34004581E-04  2.51327882E-02  7.51002732E-02 -2.10153412E-02
  1.20188036E-04 -1.86926172E-01  5.76337853E-02 -9.26813893E-02  3.48631260E-02
 -7.09728177E-03  5.55926925E-03 -2.05457657E-03  3.31787415E-03  7.96740533E-03
  3.87823115E-03  7.46700852E-03 -9.32078255E-03  3.11421116E-02  3.18782040E-02
 -5.67337098E-02 -5.98970493E-02  2.03256499E-02  1.61771433E-02 -3.44597872E-02
 -1.29374049E-05  4.43763372E-03  5.26059497E-03  1.67428404E-03 -7.02887989E-04
 -3.81636247E-03  3.32166314E-03 -2.88735416E-03 -9.37165230E-02  1.03765813E-01
  2.15302947E-01 -7.88728801E-03 -8.65666041E-02  4.57711536E-02  1.84626259E-01
  9.51148477E-03  2.78040444E-03 -6.31070731E-03 -2.82359130E-03 -9.09682418E-03
  3.03075518E-04  3.28463787E-02 -7.13002451E-02  9.52995515E-02 -3.21460604E-02
 -4.44878011E-02 -9.10669330E-02  7.76665612E-02  6.71634288E-02 -5.00656720E-02
  6.94195279E-03 -9.10614049E-03  9.09226678E-03 -6.64718038E-04 -5.23656532E-03
  3.74687872E-03 -2.89110083E-02  4.62161941E-17 -1.41439338E-01  2.87745096E-01
  3.17524676E-03 -2.62253194E-01  6.52120303E-01  2.54252359E-01  1.61513829E-03
 -8.76272336E-02  3.86236115E-01 -2.31740205E-02 -2.68816696E-02  5.71649100E-02
 -1.37199544E-02 -4.33115475E-03  1.05910832E-02 -4.18225924E-02  7.41838691E-02
 -6.05108644E-02  9.54015356E-02 -6.56724210E-02  2.67277317E-01 -1.01345997E-01
  3.95331133E-02 -6.11668610E-02 -1.14929321E-02 -2.00538473E-02  3.02339196E-02
 -7.22961612E-04 -9.69061755E-03  1.51656887E-02  1.75397846E-02 -4.30152693E-02
  7.18347762E-02 -9.96833488E-03  6.62871778E-02 -8.62537928E-02  3.14192948E-02
  6.65556378E-02 -1.89030021E-03 -3.56253515E-03  2.86681319E-03  2.81659205E-03
  3.05910365E-04 -1.40159776E-03 -4.84044942E-03 -6.95808726E-03  1.48268395E-02
 -6.31345418E-02  3.38364613E-02  5.92322165E-03  6.79441042E-02 -5.84426607E-02
  2.63240523E-02 -8.63628343E-03 -1.94524516E-03  2.46432677E-03 -2.84141384E-03
 -1.33105267E-03  6.32209158E-04 -7.75141942E-06 -5.95727163E-03  1.60952732E-02
 -4.64734789E-02  1.91586033E-02 -2.77668167E-02  3.07376466E-02 -2.89039807E-02
  3.10584204E-02 -4.14371448E-02 -1.64711173E-03  4.40331293E-04  1.62674272E-03
 -2.32607870E-03  2.54117886E-03 -3.69027820E-03  1.58390687E-02 -2.80606375E-02
 -6.67148682E-02 -7.57449282E-02  9.16540820E-02 -1.71594455E-01 -6.87849516E-02
 -1.16686687E-01  9.13469743E-02 -4.64429896E-03  7.55494774E-03  9.91549401E-03
 -1.68359311E-03  1.52054107E-03 -8.05777889E-03 -2.09917639E-01 -3.82578254E-01
 -3.83896714E-17 -3.65257825E-02  1.18865963E-01  4.76509433E-02 -5.02801641E-01
  4.58889068E-01  1.42665471E-01  3.86007450E-02 -2.35588657E-01  2.69293295E-01
 -2.72214792E-02 -2.84052739E-02  5.68866106E-02 -2.11741833E-02 -9.83201124E-03
  1.82936873E-02 -5.66606733E-02  1.15200675E-01 -1.13912480E-01  3.05840335E-01
 -1.91661946E-01  2.45984689E-01 -1.12556886E-01  1.16179912E-01 -1.18055245E-01
 -2.52068786E-02 -2.94851772E-02  4.96431837E-02 -7.91998355E-03 -1.24091866E-02
  1.47433197E-02  3.45622196E-02 -1.00342249E-01  1.82457792E-01 -8.88222776E-02
  4.96194436E-02 -1.10917601E-01  7.74110629E-02  4.07454132E-02 -1.97341775E-02
 -1.14306720E-02  1.75710194E-02 -2.18268196E-03 -8.64316423E-03  1.16341028E-04
  5.91451565E-04 -3.74585960E-03  1.98700416E-02 -4.62905446E-02  2.10160577E-02
 -2.09722558E-01  2.45029767E-02 -5.16646963E-02 -3.13727587E-03 -1.46948116E-01
 -1.45020081E-03  1.24586152E-04  8.00537930E-03  2.78655919E-03  1.75496970E-03
 -7.00984424E-03 -1.95211297E-03  1.03112101E-02 -7.56217722E-02  1.09640813E-01
  7.41783223E-02 -5.91088596E-04 -5.14288916E-02  1.02165269E-01  4.10435284E-02
 -3.71376899E-04  5.02250056E-03  8.38212838E-04 -8.39930112E-03 -5.16159078E-04
 -3.77430476E-03  5.76858580E-02 -1.20000544E-01 -1.06883157E-01 -2.06711858E-01
 -7.65565945E-03 -3.22211812E-01 -7.82357695E-02 -1.79374782E-01  4.55942473E-02
 -8.28169262E-03  1.49302501E-02  1.46772078E-02 -8.98847466E-03 -6.23249346E-03
 -4.48506716E-03 -3.82220092E-01 -4.59511332E-01  2.65531216E-02  4.45130846E-16
  5.26409222E-02 -1.08533273E-01  2.22105297E-01 -2.06770461E-02  8.90728974E-02
 -1.11653141E-01  1.54776317E-01 -2.08987530E-02  6.83107448E-04 -1.05048891E-02
  1.79904830E-03  7.84509187E-03  1.48573831E-02  4.43755997E-04 -2.78018232E-03
  3.12935744E-02 -5.88755462E-02  1.80118462E-02 -8.25766968E-02 -3.79700959E-03
 -1.94599303E-01 -5.74404338E-02 -7.56717529E-02 -1.15503463E-02  5.74176579E-03
  2.99764254E-04  1.20741021E-03 -2.94232312E-03  7.84080769E-03 -3.38530682E-03
 -5.83578302E-03 -5.26729163E-03 -1.99409859E-02  1.89534586E-02 -5.96869917E-02
  1.61837282E-01 -3.24543363E-02 -2.23602761E-02 -9.85493958E-03  1.11634349E-03
  8.49983087E-04 -3.26029945E-04  1.51848403E-03 -8.61023315E-04  6.01193230E-03
  2.97442884E-03 -2.18813515E-03  5.29566872E-02 -4.68223929E-02  8.25968278E-03
 -4.98338811E-02  4.44131857E-02 -3.91549035E-02  1.88228034E-02  2.00566715E-03
 -2.32451121E-03  4.12822273E-03  3.17818137E-03 -6.27539845E-04  1.86802353E-03
 -5.20124989E-04  5.21129441E-04 -1.91119935E-02  4.14905172E-03 -4.92802967E-03
  3.37670224E-03 -7.89270128E-03  1.35852669E-02 -9.24588469E-03 -2.40929129E-04
 -1.96649025E-03 -7.25743495E-04  2.03987199E-04 -1.19729963E-06  8.77911618E-04
 -3.38208412E-03  1.09479742E-02 -3.19852115E-02  1.13325948E-02 -1.44967589E-02
 -9.24752936E-03 -3.58560755E-02  9.38628110E-03 -4.77607503E-03  2.33881520E-03
 -2.94674837E-03 -4.59725814E-04 -1.21291545E-04  1.22906679E-03  6.30933345E-04
  3.87396353E-02  5.04649524E-02  9.84670473E-02  2.00635114E-01 -2.33160393E-17
  1.89491674E-02 -6.12193864E-02  2.08277014E-01  5.51476682E-02  1.33817303E-01
 -5.64822741E-02  1.24088662E-01 -2.51073018E-03  3.26175260E-02 -1.14950336E-02
  1.26164026E-03  1.00517493E-02  1.87115750E-02  1.01930944E-03 -5.06241563E-03
  4.03861663E-02 -8.60758330E-02  9.98383723E-03 -9.84772768E-02 -8.85614215E-02
 -1.84323013E-01 -4.21258501E-02 -8.82963832E-02 -6.22983777E-02  1.18448094E-02
 -8.51087587E-03  4.67321527E-03  5.60264884E-03  4.48740948E-03 -2.75620797E-03
 -7.88039323E-03  4.91872810E-03  5.00626293E-03  2.27120262E-02 -1.37515117E-01
  1.09920564E-01 -2.99079662E-02  7.58320492E-03 -6.58708780E-02 -3.07731748E-03
  7.37149075E-03 -2.96693657E-03  6.11760262E-03  1.10142955E-03  8.38743441E-03
 -1.01200792E-02  1.70210496E-02  2.63896384E-02 -1.04094272E-01 -1.21787622E-02
  4.42724021E-02  1.64013023E-02 -5.71168888E-02 -8.10583106E-03 -1.76396870E-03
 -7.71564269E-03  4.87020733E-03  2.66856591E-03  1.55011781E-03 -4.86167282E-04
  2.67797048E-03 -4.14983639E-03 -7.01078930E-02 -2.02339520E-03  3.78163956E-02
 -1.51065898E-02 -3.81974811E-02  1.37347366E-02  2.17323959E-02  4.46699015E-03
 -1.21400617E-03 -2.30929806E-03  1.55440562E-03 -1.48704065E-03  3.63603004E-03
 -3.71992613E-02  8.46411438E-02 -2.30511657E-01  1.12182722E-01 -5.17336805E-02
  1.08790204E-01 -2.05090808E-01  8.05276042E-02 -2.39047320E-02 -8.62531108E-03
 -3.16545662E-03  3.29487611E-03  7.00092302E-03 -3.19020080E-03  2.66889970E-04
  7.42217719E-02  1.06071194E-01  1.79049972E-01  2.24628619E-01 -3.54279140E-02
  3.84068657E-17 -6.37783771E-02  1.56697690E-01  8.22760832E-02 -7.00151270E-02
 -1.58913760E-01  2.88273623E-01  9.82992819E-02 -6.99149522E-02 -5.90793864E-02
  7.87388077E-03  4.98465748E-03 -2.17964371E-02 -3.33602422E-03  1.91548351E-03
  1.14883138E-02 -3.50967360E-03  7.43522738E-03 -1.33393672E-02  5.93510389E-02
  3.78117772E-02  3.72788386E-03 -7.75281302E-02 -4.15749581E-02  1.94176969E-02
 -9.23929938E-03 -1.33662959E-02  2.22887641E-02 -1.42372509E-02 -2.33184600E-03
  3.05868607E-02  1.26131235E-02 -5.02292189E-02  3.73236571E-02  8.95284506E-02
  5.18409217E-02  5.21343674E-02  2.83985297E-02  8.89072084E-02  5.14994656E-03
  2.67293879E-04 -8.88252525E-06  4.71857504E-03 -1.87933335E-05 -6.18464669E-03
  1.38369142E-03 -8.90611411E-03  2.21599738E-02  1.63291950E-02 -6.05012506E-02
 -2.38793710E-04  5.39946647E-02 -1.38126272E-03 -4.64564073E-02 -1.81861607E-02
  1.45391009E-03  1.19762349E-05  4.30662757E-04  1.86449370E-03 -4.17830833E-03
  3.67348747E-03 -3.22174098E-03  1.71040897E-02 -6.00510868E-02 -2.01974138E-04
 -5.13813762E-02 -1.95165575E-02 -1.92946273E-02  4.23086297E-02 -5.46279065E-02
  2.72279128E-03  1.76892852E-03  2.61162187E-03 -2.14344813E-03  1.05006765E-03
 -8.88143528E-04  5.99081728E-02 -1.31041238E-01 -1.09679594E-01 -1.13523559E-01
  7.73370431E-02 -3.57141182E-01 -9.09545695E-02 -8.52683816E-02  3.35325670E-02
 -4.61421755E-03  5.87035357E-04  2.43467751E-02 -1.27879054E-03 -4.13648303E-03
 -8.33473770E-03  2.04162610E-02 -7.11031794E-02 -1.41414668E-01 -2.83542860E-01
  2.05680514E-02 -1.61087900E-02  9.29988536E-18 -8.91775686E-02  2.04875732E-01
  1.59652568E-01 -3.49782527E-01 -1.70217297E-01  3.25835880E-01  1.55978769E-01
 -2.30192768E-01 -7.50558836E-02  1.89699076E-05 -5.20884553E-03 -7.33896879E-03
 -1.51163298E-02 -7.02173160E-03  1.84348862E-02 -5.93401651E-03  2.07173836E-02
  2.79457642E-02  3.36217669E-01  1.74616218E-01  7.08756940E-03 -7.37782636E-02
  6.19700253E-02  6.34450408E-02 -8.95667151E-03 -1.98698773E-02  2.85646909E-02
 -1.99239447E-02 -1.57874163E-04  4.34174151E-02  3.02606092E-02 -1.14154664E-01
 -1.71613503E-02  1.27130401E-01  4.69329120E-02  1.31442276E-01  6.06815639E-02
  1.10305969E-01 -3.29285126E-03  1.51472445E-03  9.21119194E-03  1.36375031E-03
 -1.45221380E-02 -1.21684896E-02  9.35656879E-03 -2.21870326E-02  5.63183712E-02
  5.07197138E-02 -1.85260727E-01 -9.88860231E-02  8.04722382E-02  1.72145152E-02
 -1.37846037E-01 -8.92451561E-02  4.46417579E-03 -8.08418870E-03  6.48572373E-03
  4.14325812E-03 -3.99851812E-03  4.71670157E-03  3.72298323E-03  3.97293559E-03
  1.18337110E-02  6.54998943E-02  6.18782497E-02 -6.84858767E-02  3.90801910E-02
  1.13693941E-01  2.28869579E-02  1.96808265E-03  1.77681422E-03  3.18321350E-03
 -8.50178608E-03 -3.29560601E-03  1.34392119E-03  4.72208859E-02 -1.05757289E-01
 -3.11441993E-01 -3.04848042E-01 -1.06921210E-01 -2.95579649E-01 -2.32471813E-01
 -1.91010812E-01 -7.04082261E-02 -2.00012775E-02  1.19619141E-02  2.61985211E-02
 -1.42897286E-02 -1.17714024E-02  9.97989521E-03 -1.14227574E-01 -2.02355676E-01
 -1.17230784E-01 -2.41896645E-01 -4.59152984E-02 -5.43237389E-02 -2.63459042E-02
  5.75239119E-17 -1.59997257E-03 -4.79700045E-03 -1.43675691E-03  2.24482247E-02
  8.31927962E-03  4.82346351E-02  1.77687144E-02  3.23236411E-02  3.56349004E-02
 -4.91805042E-04  5.16559920E-04 -1.71364944E-03 -1.34479944E-04  6.62372292E-04
  5.40175818E-04  1.82540573E-03  9.90122038E-04  8.57770794E-03 -1.87834011E-04
  1.36285425E-02 -4.03815294E-02  2.08397746E-02  3.26186346E-02 -3.32174018E-02
 -1.17686867E-03 -9.35406112E-04  1.56551078E-03  1.05792533E-03  2.63939689E-03
 -1.91794551E-03  9.18938191E-03 -2.95109872E-02 -4.34551072E-02  8.16040690E-02
  1.84824763E-01  7.70731719E-03 -2.66665779E-02  3.33841083E-02  1.34653251E-01
  5.45373782E-04  5.93171509E-03 -1.76843481E-03  5.83500368E-03  1.38494179E-02
  5.21002131E-03  5.56155592E-04  1.07440359E-03  5.93417974E-03 -8.01885360E-02
 -1.34680092E-01 -2.02602873E-02  1.46952944E-02 -8.35012041E-02 -1.34844475E-01
  1.37029518E-03 -1.23332824E-03  7.30796035E-04  2.38982335E-03  3.33749285E-03
  2.04988207E-03  3.48530209E-03 -1.33026927E-02  3.75367811E-02 -1.03407855E-02
  1.10366948E-01  3.03770922E-02  1.95793597E-02  2.54387829E-02  1.19215181E-01
 -3.44371995E-03 -1.41975093E-02  5.70516086E-03  1.48927703E-04 -6.42086210E-03
 -4.27488507E-03 -2.97569163E-03 -4.08162080E-03  2.28024880E-03  6.80379862E-03
 -5.52234193E-03  6.05824756E-02  2.63854464E-02  3.55110792E-02 -6.46556859E-03
 -1.19226749E-03 -1.62632061E-03 -3.58500404E-03  8.08879323E-04  5.75729091E-04
 -1.10799416E-03 -5.15455437E-04 -3.27732576E-02 -8.36282604E-03 -3.30274894E-02
  6.20048188E-03  1.82188708E-02  2.54167400E-03  1.23163025E-02 -1.75268488E-17
  1.69038869E-02 -3.09470980E-02 -1.05477536E-01 -7.61319594E-02  9.99408532E-02
 -5.02309669E-03 -3.88222349E-02 -2.91254945E-02  6.52037042E-02 -4.17472730E-04
 -7.63905836E-03  8.48991599E-03 -6.32113447E-03  1.41379311E-03 -3.27311309E-03
  4.17259656E-07 -2.36511837E-03  5.80819305E-02  4.13953684E-02 -1.00297075E-01
 -3.78318325E-02  4.04760304E-02  3.58172033E-02 -6.07440392E-02 -1.98758062E-03
 -8.59753961E-03  1.20604068E-02 -3.00315510E-03  6.81596214E-04 -5.11975238E-03
  1.71278769E-02 -4.26653248E-02 -5.94596358E-02  8.66094563E-02  1.49189309E-01
  9.12587468E-03 -1.52723795E-02  2.70332721E-02  1.03125301E-01 -6.60395837E-04
  2.82861876E-03  3.41420650E-03  6.55573311E-03  1.49175527E-02  3.90509975E-03
  3.22432489E-04  2.56380907E-04 -7.54285076E-03 -6.68265433E-02 -4.89612885E-02
 -1.07135892E-02  6.67853404E-06 -6.06166186E-02 -5.91608897E-02  2.17955295E-03
 -1.26612913E-03 -1.36362296E-03  7.51071514E-04  1.61825166E-03  4.53500283E-03
 -8.90419035E-03  1.86739573E-02  5.47588866E-02 -4.01858197E-03  2.71679408E-02
  4.62043524E-02  3.59078906E-02  1.05037820E-02  3.25662775E-02 -3.75571573E-03
 -1.01115648E-02  6.21161498E-03 -5.95098514E-04 -2.07036394E-03 -4.94480162E-03
  1.08402380E-02 -3.10516017E-02 -5.34699613E-02 -6.04263548E-02  1.99187934E-02
 -2.46061087E-02 -1.93056504E-02 -6.31850001E-04  1.29784054E-02 -2.31142288E-03
 -3.97382756E-05  2.57661105E-03 -2.62440220E-03 -3.24106272E-04 -2.86425630E-03
 -9.62298422E-02 -1.00082376E-01  8.23147477E-02  6.89056372E-02  2.27276638E-02
  3.40011538E-02  8.68843842E-02  9.95845503E-02  3.18046506E-03  4.58625287E-18
 -1.44867591E-02  2.33191690E-02  6.09827980E-02 -1.14156057E-02 -9.97806546E-02
  1.49049253E-01  1.12224254E-01 -6.62249044E-02 -1.38160470E-01  4.22697188E-03
  2.57564979E-03 -1.09941583E-02 -2.13416779E-03 -8.25762289E-05  3.24819660E-03
  2.58237276E-02 -5.86318113E-02  2.79088347E-02 -1.08588738E-02  8.78946914E-02
 -1.37057863E-01 -1.86696220E-03 -1.41538248E-01  3.25238440E-02  6.64900613E-03
 -7.63884857E-03  1.70380498E-03  4.67701985E-04  1.85117968E-02  3.07653754E-02
 -1.32336244E-02  2.65471863E-02 -4.70769082E-02  4.19899300E-02  2.16412543E-02
  9.55975663E-02  1.65501453E-02  7.92900189E-02  1.65087707E-02  9.04765932E-04
  1.03921077E-04 -7.49574164E-04 -5.64999008E-03 -5.38115022E-03  3.47422769E-03
  3.26833848E-03 -7.58508655E-03  4.73984850E-02 -2.13212715E-02 -2.79301589E-02
 -1.81431025E-03  3.11193061E-02 -2.36253487E-02 -2.51104174E-02  3.89896337E-04
 -6.96666256E-04  9.98031809E-04  3.25651148E-04 -1.40507514E-03  1.43965378E-03
  2.31587064E-03 -7.24117616E-04  7.85187523E-04  1.12901229E-02 -5.06449334E-02
 -4.32976822E-02  1.57927033E-02  3.42955254E-02 -4.68437581E-02  1.41053218E-03
  4.58028679E-04  1.71083311E-03 -1.06027708E-03  6.57168272E-04 -1.22095477E-03
  9.23314987E-02 -1.90153647E-01 -5.41307931E-02  1.54569061E-01 -5.41396685E-01
 -2.62284712E-01 -7.09817979E-02  8.37825798E-02 -3.16940019E-01  5.91402034E-03
 -9.17072828E-03 -3.78087028E-03 -4.21842284E-03 -2.65280886E-02  4.68980148E-02
  2.64060438E-02 -1.49880116E-02 -5.93674554E-02 -5.64114455E-02  6.35304800E-03
  3.97106353E-02 -1.22715231E-01 -9.92356962E-02  2.49015693E-03 -3.73931731E-02
  4.78446448E-17 -4.79234629E-02  9.41509381E-02  6.23288234E-02 -1.77333133E-01
 -6.56608224E-02  2.24039481E-01  1.12311238E-01 -1.35170720E-01 -9.20407084E-02
  2.87578849E-03 -1.00698478E-03 -8.33755670E-03 -9.47933547E-03 -1.24015337E-03
  5.57891233E-03  3.10332274E-02 -6.76256426E-02  4.09058019E-02  5.62722099E-02
  2.47265920E-01 -1.11839872E-01 -2.81994003E-02 -9.26406981E-02  9.74729400E-02
  7.45666898E-03 -1.04136861E-05 -2.60848045E-03 -2.64009711E-03  1.40940318E-02
  4.03301235E-02 -1.47135531E-02  2.19598231E-02 -6.00670422E-02  1.71863296E-02
 -2.03803698E-02  1.43829099E-01  2.45023298E-02  7.83875048E-02 -2.92294404E-02
  2.01907416E-03 -1.23454761E-03 -1.07875686E-03 -1.50498106E-02 -1.28842789E-02
  2.88403735E-03 -1.64292326E-04  4.74499834E-03  6.21836949E-02 -1.44333595E-02
 -2.59516871E-02  5.98085922E-03  4.15542338E-02 -2.08699004E-02 -2.13139047E-02
  1.14751979E-03 -7.39370495E-04  2.04763619E-03  8.27137007E-04 -1.74434623E-03
  8.10196931E-04  7.50571930E-03 -1.01418529E-02  1.97195140E-02  4.28709384E-02
 -6.19158708E-02 -7.62317373E-02  3.54749862E-02  6.53018349E-02 -5.15992472E-02
  1.30964565E-03  4.99724885E-03  1.18377243E-03 -3.04369462E-03  1.98673610E-03
  1.13244504E-03  5.70264563E-03 -5.22966732E-03 -7.78161725E-02 -1.12690529E-01
 -4.37231808E-01 -8.71548525E-02 -9.13976164E-02 -8.41054731E-02 -2.61202794E-01
 -5.53967660E-03  1.92480796E-03  4.37199024E-03 -1.50606164E-02 -2.28141167E-02
  3.98115713E-02 -5.46086968E-02 -1.08473982E-01 -3.42212751E-02 -8.84953043E-02
  2.83505528E-03  2.26486706E-02 -2.08436023E-01 -1.72836339E-01  8.44579106E-03
 -4.61574433E-02 -1.32679484E-02 -4.28645158E-17 -2.48399967E-04  2.18589889E-03
 -1.64517077E-02 -1.12457206E-02  1.00615719E-01 -4.40303049E-02  2.69708457E-02
  2.38818173E-02  1.62002311E-01 -1.86706418E-03 -8.93248385E-05  4.25532458E-03
 -1.28284764E-03  6.23414850E-03  7.35156930E-03 -3.97000855E-02  1.13883475E-01
 -8.86773163E-02 -4.09909131E-02 -3.70899307E-02  1.46467702E-01 -1.43850176E-01
  5.14194240E-02 -9.11770246E-02  7.15898776E-03  2.57192496E-03 -1.38770064E-02
  3.85761375E-04  7.08614010E-03 -3.87143369E-03 -5.74301433E-03  7.76672330E-03
 -2.17904042E-02  1.34128983E-02  2.86261909E-02  1.17310929E-01 -7.35494857E-02
  2.46685413E-03  3.18581538E-02  3.20662093E-03 -1.23255797E-03 -8.24647170E-04
 -1.58367596E-03  3.66438839E-03 -2.48146430E-03  4.52145879E-03 -6.96260260E-03
  2.61353198E-02  2.71053106E-02 -1.04945323E-03 -3.30716947E-02  3.16592715E-02
  9.91819536E-03  4.53389467E-03 -5.34543302E-04  2.50020904E-03 -2.28885897E-03
  2.24786528E-03 -2.57164896E-04  1.36491094E-03  9.39058930E-04 -8.67839363E-03
  4.80609574E-03  8.62682891E-03 -2.55162311E-02  1.88071730E-02  4.62964171E-03
 -1.65393417E-03 -1.59502929E-02 -2.90056486E-03 -3.04497283E-03 -6.49546395E-04
 -4.77883262E-04  5.74646627E-04 -1.27062765E-03 -4.42883980E-02  9.16326297E-02
  7.14006779E-02 -1.02703550E-01 -1.90796930E-01  1.83749764E-01  4.40432921E-02
 -7.20801309E-02 -1.09388768E-01  6.29979386E-03  2.36475362E-02 -3.29450772E-02
 -4.42057798E-03 -7.06364961E-03  1.25914123E-02 -2.26903558E-02 -4.08787270E-02
  2.12388997E-02 -6.42025128E-02  5.67737432E-03  4.98380057E-02 -8.32846917E-03
 -1.66862023E-01  4.15491001E-03 -2.79631038E-03 -2.20014761E-01 -3.23055502E-01
 -8.85486571E-18 -1.70517014E-02  3.50570531E-02  1.67267044E-02 -7.40960794E-02
 -6.39557039E-04  4.58749896E-02  5.33536390E-02 -4.44148687E-03  9.42177646E-02
 -1.48526819E-03  5.58457045E-03 -4.88225394E-03 -2.48473672E-03  5.78018434E-03
  1.07365858E-02 -4.26829219E-02  1.18398926E-01 -1.83466681E-01 -3.80259858E-02
  1.23151708E-01  7.97956090E-02 -1.93219722E-01  5.34256381E-02 -1.71386919E-02
  6.60689290E-03  1.26709188E-02 -2.41448303E-02  1.69670179E-04  9.59428098E-03
  1.15644232E-02  7.58140479E-04  5.19816440E-03 -1.47644601E-02 -1.18697379E-02
 -4.83265097E-02  4.97574675E-02 -1.29012015E-01 -4.22780197E-02 -1.20528872E-02
  2.93210075E-03  1.32175863E-02 -1.39174899E-02  1.00278965E-02 -1.12848073E-02
  1.01712895E-03 -1.28244774E-02  1.98614219E-02 -1.50309651E-01 -1.64180621E-01
 -1.18444187E-01  4.30015146E-02 -8.79291825E-02 -1.04106250E-01 -8.44087486E-02
  9.93801882E-05 -1.11123521E-02  2.83898075E-03 -1.62640660E-03  5.19823917E-03
 -1.82834428E-03 -1.75320848E-02  2.81444172E-02 -6.15729182E-02 -2.61392640E-02
  4.31567262E-02  1.42297150E-01 -6.04977438E-02 -2.87584410E-02  4.42494874E-02
 -2.33484106E-03 -4.01315018E-03 -8.67581332E-03  1.47571245E-03 -2.42894614E-03
  1.36841544E-03 -1.07008812E-03  1.55750170E-04  1.35875282E-01  9.88595188E-03
 -2.70339164E-01  6.97367368E-02  1.05462454E-01 -2.06171687E-02 -1.56019441E-01
  1.20480525E-02  1.79705915E-02 -3.53133132E-02 -1.43138778E-03 -7.06169272E-03
  1.86420306E-02 -2.49218283E-02 -4.54322815E-02 -3.86989846E-02 -1.50551046E-01
  7.56081766E-03  3.42392939E-02 -1.26234241E-01 -2.68549842E-01 -2.17594225E-02
 -4.43092315E-02 -3.15263723E-01 -2.97637807E-01  4.47706654E-02 -3.01796428E-17
  1.75974403E-18 -1.61851100E-03  2.35780799E-17  7.41630090E-03 -6.69816812E-04
  9.86310850E-17  3.06593284E-03  2.66012307E-03 -2.30564966E-02  1.80775342E-17
  2.11583810E-03  9.65841636E-03 -2.53661567E-01 -4.83355676E-03 -5.35734216E-17
  3.70878864E-03 -1.59834454E-02  7.07450053E-02  5.39159425E-02  5.91068965E-02
  7.52412002E-17 -4.15231116E-05  4.34798856E-03  8.14008329E-02 -2.22074234E-02
  1.73534357E-01 -2.44334678E-02 -5.97035199E-17 -6.34309371E-03  2.42453565E-02
 -5.69984211E-02 -5.18308119E-02 -3.22834635E-02  2.68003211E-02 -1.01582498E-02
  5.84613425E-18  2.66168138E-03 -7.93777530E-04 -1.87180058E-01  8.37907476E-03
 -2.99386867E-02 -5.01884419E-02 -1.19687096E-01  4.47380952E-02  1.40319606E-17
  5.80220259E-05 -2.84174320E-04 -1.98638556E-02  6.36836572E-03  7.67481731E-03
  6.32835191E-04 -2.88877860E-03  3.11177288E-03 -6.98916406E-04 -8.71210488E-19
 -3.57788261E-04  6.94740059E-06 -5.01712104E-03  1.02757104E-03 -9.17172706E-03
 -3.57638639E-04 -2.24846637E-03  2.14195408E-03 -3.10567583E-03  1.25091921E-03
  4.06090235E-19 -4.69414733E-04  2.32515155E-03  1.88841984E-02 -1.10831905E-02
 -3.81237969E-03  2.37480560E-03  2.46987079E-03 -5.98018551E-03 -3.85333521E-04
 -1.54193952E-03  1.29507321E-03 -3.46252903E-19  2.12764229E-04  6.09212853E-04
  4.30930304E-03 -4.28470242E-03 -1.67531777E-02 -4.13784671E-03 -1.02295814E-04
  2.74578610E-03 -4.37751097E-03  4.35965109E-04  8.61321492E-04 -1.43747649E-03
  1.89138826E-19 -1.73539746E-04 -1.01503745E-03  1.72968630E-02 -2.14818945E-02
  3.43220038E-02  1.16917427E-03  1.13049571E-02 -1.16880827E-02  1.45359202E-02
 -3.07884155E-03 -7.41628564E-04  3.76364617E-03  6.11540371E-04  6.00725480E-20
 -2.32422026E-04  4.37113939E-04 -1.94079233E-02 -1.24961310E-02 -7.71378689E-03
  2.54179932E-03 -9.88160491E-03 -5.08887172E-03 -3.44995194E-03  1.63320522E-03
 -1.14420651E-03 -6.35636085E-04 -2.14721408E-03  8.88960052E-04  1.11238614E-19
 -1.17183669E-02  2.10141998E-02  5.95740116E-02 -5.71080447E-02 -2.11488174E-02
 -2.23149919E-02  4.33019413E-02  7.45886788E-03  8.19955738E-03 -8.73975613E-03
  3.93165867E-03  7.40630425E-03  2.46442608E-03 -3.29712388E-03  6.98027529E-03
 -4.51320798E-18  2.24331109E-02 -3.56384334E-02 -1.12652275E-01  1.14706520E-01
  5.67127208E-02  3.07212778E-02 -7.60912925E-02 -4.89138694E-03 -1.02021204E-03
  1.95146326E-02 -7.50407559E-03 -1.39787290E-02 -6.99702325E-03  5.20412611E-03
 -1.41679554E-02  9.05305833E-04  9.02247666E-19 -1.75483206E-02  4.29876146E-02
  7.06988604E-02 -1.52691301E-01 -1.67484188E-01 -1.10911484E-01  4.07071377E-02
 -1.09028142E-02 -9.17942897E-02 -1.10636894E-02  1.32381105E-02  4.59933308E-03
  6.14003777E-03  9.95641965E-03  9.45543180E-03 -5.82217456E-03 -9.60030768E-04
  2.33560690E-17  6.44833546E-02 -1.14808851E-01 -1.90289441E-01  2.44125775E-01
  1.61624823E-01 -1.53185270E-01 -1.59744097E-01  1.48209674E-01  9.06023872E-02
  2.79000192E-02  3.29150161E-03 -2.21741306E-02 -4.69689562E-03  3.26608367E-03
 -1.19572732E-02 -3.51680738E-03 -1.31044718E-02  1.63463970E-02 -6.02778668E-17
  6.52056871E-02 -1.52211226E-01 -3.50714161E-02  1.89704493E-01  1.23383386E-01
 -1.72919257E-01  3.67859425E-02  8.33985242E-02  5.56899249E-02  3.41959688E-03
 -9.85616166E-03  1.35286024E-02 -4.64092842E-03  1.92996190E-02 -2.34176934E-03
  9.43770337E-03 -1.69816110E-02 -3.40919871E-01 -1.34886170E-02  5.41182900E-17
 -2.85627172E-02  3.48040664E-02 -3.76934556E-01  1.16519367E-01 -1.61124203E-01
  1.20275016E-01 -1.88519415E-01 -2.69638249E-02 -1.20807558E-01  2.87713762E-02
 -6.22053636E-03 -1.96553188E-02 -1.15625549E-02  1.43292733E-02 -1.16208133E-02
  2.24359544E-03  9.21849369E-03 -1.25817996E-02 -1.03341563E-01  9.36455448E-02
  9.77792792E-17 -7.50135847E-03  9.88019791E-03 -5.25645136E-02 -9.79670311E-03
 -1.44289512E-01 -1.31359905E-02 -2.84853661E-02 -3.78584901E-02 -6.86685963E-02
  3.48771194E-03  6.77210752E-03 -8.37524007E-03  4.07073009E-03  5.89641916E-03
  4.76241815E-03  5.42075288E-03 -1.29094293E-02  4.07481630E-02 -7.17758469E-02
  1.87173454E-01 -5.23999757E-02 -4.74650461E-17  1.17643078E-02 -5.50315036E-02
 -1.77550077E-01  1.15707030E-01  1.65255364E-02 -4.02621814E-02 -9.27035658E-02
  5.04014321E-02  2.46714770E-02  2.19154887E-02 -2.41141119E-03 -1.76724675E-02
 -9.34161542E-03  3.53488536E-03 -4.16032607E-03 -9.39525271E-04  2.61139258E-02
  2.75314781E-02 -2.74799188E-02  3.86603693E-02  4.76320848E-02  3.41413450E-02
 -5.10852531E-17  2.48627717E-02 -3.56503555E-02 -9.49675753E-02  3.67320109E-02
  1.72343251E-02 -3.62054680E-02 -3.45415453E-02  2.54480876E-02 -1.55281010E-02
  3.74555462E-03 -6.07299644E-03  4.54288820E-03 -5.67805400E-03  1.05755904E-02
 -2.05526836E-03  1.96283333E-02 -3.47388738E-02 -1.96898859E-01 -3.57838701E-02
  4.08196830E-02 -1.64622491E-02 -6.64156168E-02  4.38920448E-03  2.71261670E-18
  5.56796220E-03 -1.05216081E-02  1.25411664E-02  1.08726028E-02  8.60083484E-03
 -2.57775460E-02  9.21541512E-03  2.14819574E-02  2.94449852E-03 -1.33923566E-03
 -3.89406807E-04  2.69936942E-03  3.31705330E-04  1.06859646E-03 -5.98970393E-04
  2.89698050E-03 -9.08186279E-03  1.86104059E-02 -8.26788413E-03 -1.15193506E-02
 -5.72729324E-03 -1.23050389E-02 -8.32992184E-03  2.25368101E-03 -1.13258111E-18
  3.57064608E-03 -6.29962575E-03  6.16487398E-03 -9.26418901E-03  8.55044287E-03
  1.50180537E-03  6.20255679E-03 -1.37848151E-02  6.51613745E-03 -3.42434065E-04
 -5.52356788E-04  2.17570742E-04 -4.63675258E-04  4.78262649E-04  5.42504560E-04
  7.74894869E-04  1.38517650E-04 -8.89500724E-04  1.72121380E-03  3.82953579E-03
 -1.02745415E-02 -3.76590538E-04 -6.30034716E-04 -5.96703416E-03  1.65067143E-03
 -5.61515204E-19 -4.62807535E-03  1.18195883E-02 -4.15224348E-03 -9.65244638E-03
 -1.32216715E-02  1.47360192E-02 -9.64209419E-03 -5.63024268E-03 -6.40195844E-03
  1.51565120E-04  1.35622718E-03 -1.80203124E-03  6.69200457E-04 -2.08308364E-03
  5.24862614E-04 -3.37340952E-03  7.33152169E-03 -8.79310751E-03  1.05147258E-02
  3.12358127E-03  1.69620131E-02  1.31200024E-02  1.04866236E-02  4.75813649E-03
 -2.15126097E-03  1.11189436E-03 -5.73681809E-19 -1.17754645E-02  2.33946640E-02
 -8.40994379E-03 -1.97721895E-02 -2.54989417E-02  3.13053545E-02 -4.44774210E-04
 -4.82758180E-03 -1.21876637E-02  8.30508342E-04 -4.20576151E-04 -1.40996595E-03
 -1.66163183E-03 -7.22530633E-04  1.08666060E-03 -2.08740607E-03  6.48465834E-03
 -2.02061745E-03  1.14384566E-02  2.70366192E-02  1.21632426E-02 -3.83901440E-03
  2.73922180E-03  1.27783462E-02 -2.37297391E-05  1.02651251E-03 -1.17882361E-03
 -2.63535912E-19 -3.26126008E-03  6.84861164E-03  1.36850793E-03 -1.30472397E-02
  1.03704143E-02  4.56756145E-04  1.57887811E-03 -9.09833934E-04  2.05685766E-03
 -9.86881055E-04 -1.04904621E-03  2.31659126E-03 -3.08864567E-04  1.50655112E-04
  1.17156978E-04 -1.93210587E-03  1.29034822E-03 -7.71495758E-03  2.46858832E-02
 -3.06241483E-02  1.52773365E-02  7.19230143E-03  4.68792981E-03 -5.30978285E-03
 -4.67002987E-03 -1.68365108E-04  4.51158089E-03 -6.75870021E-04 -2.22911460E-19
  4.76446191E-03 -9.06010100E-03 -4.71852885E-03  7.19697986E-03  1.51594577E-03
 -1.43633261E-02 -8.78035577E-04  5.01470753E-03  3.36432755E-03  9.96612593E-04
 -7.29748451E-04 -1.77100427E-04 -6.99010750E-04  1.02910087E-04 -1.25922286E-04
  2.23901380E-03 -6.27671618E-03  1.41100518E-02  1.91733802E-02  8.09814177E-03
  7.70024125E-04 -9.96722567E-04  3.11873657E-03  3.09199888E-03  1.99895952E-03
 -1.31156928E-03 -1.75610755E-04 -2.89573456E-03  1.61941154E-03 -5.17242088E-20
 -1.06950278E-02  1.89224670E-02 -9.25679639E-03 -1.49802628E-02 -1.30977996E-02
  4.82695644E-02 -3.98464397E-03 -1.75365142E-02  2.97085970E-03  2.57349392E-03
 -2.82549692E-04 -5.77025678E-03 -1.78797022E-03 -5.55439356E-03  7.55947640E-05
 -1.01427441E-02  2.95616824E-02  4.64117109E-02 -1.32011060E-02  3.79029813E-02
 -8.46320108E-03  8.08265663E-03  4.61061165E-03  6.21410748E-02  1.15849029E-02
  2.27626820E-03 -1.23240251E-02 -1.24108103E-03 -1.21147978E-02  8.31450346E-03
 -6.95458731E-18  2.71003788E-02 -5.77659727E-02 -2.69561102E-02  6.34545177E-02
  2.06274174E-02 -1.34993303E-01  1.22583672E-02  6.62467103E-02  3.60212236E-03
 -4.04935321E-03 -3.81216799E-03  1.26251711E-02  2.90024926E-03  1.05765521E-02
 -2.48350050E-03  2.06862876E-02 -5.79238846E-02 -7.68808469E-02  2.02392829E-02
 -1.55364696E-01 -9.39287277E-03 -6.99724453E-02 -1.12559059E-02 -1.24148433E-01
 -2.40700261E-02 -4.82882520E-03  2.84058829E-02  2.47459845E-03  2.63601486E-02
 -2.08321476E-02 -1.68025328E-03 -2.10449432E-18 -3.44116099E-02  5.56337204E-02
 -1.15942725E-02 -5.49662929E-02 -4.00742066E-02  2.77920888E-01 -6.25569891E-03
 -1.14107334E-01  2.23976163E-02  5.31150349E-03  1.56676897E-03 -1.64617793E-02
 -4.97932158E-03 -1.54594541E-02  4.98761376E-03 -2.90263933E-02  9.15490974E-02
  3.83051323E-02  1.19220615E-02  1.66843093E-02  3.87613245E-02  3.07500143E-02
  4.23215072E-02 -1.99525820E-01  1.49110408E-02  1.15926824E-02 -2.33512247E-02
 -2.01751457E-03 -1.88033882E-02  2.15590363E-02 -5.43934305E-03  3.23966495E-02
 -2.72283960E-18  1.60153942E-02 -5.15818797E-02 -3.86812537E-02  3.54938642E-02
  2.16990409E-04 -1.42309443E-03  7.81862219E-02  3.54300042E-02 -5.24525034E-02
  7.95882345E-03 -5.49550615E-03 -2.62641583E-03 -7.88895156E-03  2.46993371E-03
 -3.15033400E-03 -3.02969991E-02  7.84787088E-02  2.21084205E-01 -6.42895939E-02
  2.60073800E-02  1.70147721E-01  2.75265290E-02 -2.14277978E-01  8.24185397E-03
  2.57897022E-03 -4.01900689E-03  4.71987181E-03 -4.36361946E-03  8.46200389E-03
  2.71561567E-03 -9.14128678E-03  1.36723017E-02 -4.81899094E-02 -6.99995731E-17
  2.37984043E-02 -5.49060724E-02 -1.37073381E-01  1.06230784E-01 -2.49391792E-02
 -6.35941938E-02 -3.36907852E-02 -1.28366400E-02 -3.67682532E-02  2.29996728E-02
  2.62162061E-03 -1.99928710E-02 -1.46190147E-02  2.20969188E-03 -2.20042239E-03
 -7.31925179E-02  1.23107247E-01  5.31837927E-01 -1.42514783E-01  1.71192837E-01
  4.30523080E-01  3.92022496E-01 -2.45345581E-01  1.05462796E-01  3.52949300E-02
 -2.54557864E-02 -1.78787836E-02 -6.92384075E-03 -3.04351978E-03  8.44394358E-03
 -5.90544482E-03  8.88773382E-03 -5.97914977E-01  1.84585266E-01 -2.87909659E-17
  2.57981263E-02 -3.45731062E-02  3.48154620E-01 -9.56811288E-02  2.45245402E-01
 -1.52473129E-01  1.75486629E-01  4.87331582E-02  1.01658081E-01 -3.19548549E-02
 -2.16081932E-04  3.80023884E-02  1.11615039E-02  2.97948497E-03 -3.53465726E-03
  5.47668634E-03 -4.56593783E-02 -1.00571472E-01  1.58886469E-01 -1.66567561E-01
 -2.07761754E-02 -9.66854172E-02  2.08096841E-02 -2.15062358E-02 -3.70626021E-02
 -9.48346303E-03  4.58035595E-02  2.52927586E-05  2.72376576E-02 -2.12628800E-02
  3.12213337E-03 -4.39592004E-02  3.43311553E-02 -2.23036590E-01 -1.03037538E-01
  1.38226627E-16 -3.91618886E-02  7.35587652E-02  1.29167216E-02 -3.79688964E-02
 -1.03770534E-01  1.71490563E-01 -1.19979531E-02 -7.98792169E-02 -4.83600329E-02
 -3.33316218E-04  6.35202803E-03 -8.07609474E-03  3.75403648E-03 -3.24171767E-03
  3.97567563E-03 -1.99346342E-03  6.99068056E-03 -7.81355514E-02  3.36547795E-03
  1.09189105E-01 -8.26238424E-02 -4.93190071E-03  4.68843205E-02 -1.87014649E-02
  6.95748096E-03  1.17930891E-02 -1.70986260E-02 -1.97849156E-03 -2.09211058E-02
  1.07216014E-02  1.76152795E-02  3.69589778E-03  1.17601983E-01 -8.77692086E-02
 -1.80408101E-01 -5.49929113E-02  8.24275385E-18  8.94912490E-03  2.67200058E-02
 -3.92865520E-02  3.60721221E-02 -5.67175219E-02  8.15155563E-03  9.19377195E-03
  8.05766002E-02 -5.79016846E-02  3.95880816E-03  1.88011324E-04 -1.89248790E-03
 -2.60409450E-03  4.19618410E-03 -1.54299648E-03 -8.97985456E-03 -3.69695039E-02
  4.73140416E-02 -1.97100564E-02  5.31228996E-02  8.34698882E-02 -2.47547293E-02
 -8.94794307E-02  5.24793854E-02 -1.99838145E-03  1.22288703E-03  3.27579514E-03
 -4.52724490E-04  6.83169319E-03 -6.75645345E-04  2.74733969E-03  5.83848153E-03
  8.35009370E-03 -5.55187544E-02 -1.58954351E-01  6.42642847E-02  7.95591691E-02
  3.00660937E-18  7.39574970E-03 -2.91720422E-02 -7.46836708E-02  3.18951855E-02
  1.59105389E-02 -5.63717960E-03 -1.01117568E-02 -5.02865452E-02 -1.10686852E-02
  1.01869075E-02 -8.73760913E-04 -8.13781473E-03 -5.98491453E-03  6.70923453E-04
 -2.47607189E-03  1.38664860E-02  2.23607089E-02  2.65163889E-01 -6.11885747E-02
  6.92717934E-02  1.06864490E-01  1.98791672E-01 -1.17345313E-01  3.55671122E-02
  1.79857397E-02 -1.08233514E-02 -7.39048530E-03 -4.43250363E-03 -5.83555900E-03
  5.86517337E-03 -3.05852213E-02  3.69016669E-02 -1.98053338E-01  8.06813558E-02
 -2.32110488E-02  6.94034472E-02  8.44857855E-02  7.97069464E-02 -2.03578020E-17
  9.82022499E-04 -2.66246542E-03 -1.65433486E-03  5.12887554E-04  1.88309389E-03
  2.79964511E-03 -3.46742293E-03 -3.91438072E-03 -9.31040258E-04  2.87497829E-04
 -1.50735284E-04  2.33794386E-04 -3.84614731E-04  5.14731372E-04 -2.87603422E-04
 -4.46299658E-03  1.00727133E-02  1.58150647E-02 -6.29434558E-03  7.53806252E-03
  1.51286292E-02  1.38789881E-02 -6.30967211E-03  4.34115384E-03  7.56329620E-04
 -9.11368480E-05 -1.23724338E-03 -1.48285574E-03 -4.96594559E-04  3.90646899E-04
 -3.52102027E-03  9.14986191E-03 -8.94084033E-03 -3.17416536E-02 -4.12475160E-02
  1.05808483E-02  1.18171020E-02 -7.62597760E-03 -1.58226627E-02  4.13827841E-19
  9.51850066E-04 -5.40359938E-03 -8.44053316E-03  1.16941004E-02  8.56864079E-03
  4.17273461E-03 -5.87531583E-03  3.43974543E-03  1.40255717E-02  1.17434765E-03
 -6.89997876E-04 -6.62042684E-04 -9.32270083E-04 -8.60942558E-04 -9.25723937E-05
 -5.86006583E-03  1.49865690E-02  2.61005812E-02 -1.12196020E-03 -1.22441432E-02
  1.05240509E-02  1.93549148E-02 -4.47319294E-03 -5.00825222E-03  1.15683049E-03
 -8.53517521E-04  1.94163988E-04 -8.82275094E-04  5.52033526E-04 -6.86814498E-04
  2.85668890E-04 -2.88984538E-03 -2.55885445E-02  1.54556112E-02  3.68561892E-02
  8.61866157E-03 -6.50829855E-04  1.32188209E-02  1.44009490E-02  2.86856613E-03
 -5.21785808E-20 -4.66701904E-03  1.00222494E-02  1.18780248E-02 -1.39233178E-02
 -1.17817979E-02  3.22347945E-03  8.12550747E-03 -3.95986699E-03 -1.49156238E-02
 -9.08614335E-04  8.87380569E-04 -3.23600896E-04  9.98149547E-04 -3.52369232E-04
  3.11464519E-04  8.60507759E-03 -1.87879487E-02 -3.00351367E-02  8.64127278E-03
  1.13945527E-02 -2.56633094E-02 -2.42206377E-02  1.01856685E-02  1.10267900E-02
 -1.67250427E-04  1.23550456E-03 -8.49578539E-04  1.46221716E-03 -2.23188813E-03
  1.74403275E-03  3.30309275E-03 -6.94182481E-03  3.65388559E-02  5.87117981E-03
 -1.47064873E-02 -1.96571460E-02 -6.88440111E-03 -7.82426697E-03 -3.56349177E-03
 -2.48800722E-03  1.89073606E-03  3.21568343E-19  9.47661154E-04 -3.41314141E-03
 -4.01716676E-03  5.28881761E-03 -1.91701652E-03 -1.10237158E-02 -4.70068533E-04
  6.87108318E-03 -1.58346004E-03  6.47384111E-04 -6.19491690E-04 -7.10913356E-04
 -6.54854881E-04 -6.90591610E-04 -1.04826340E-04 -2.89034857E-03  4.23546930E-03
  2.02832809E-02 -6.02889342E-03 -8.00229787E-03  1.18592724E-02  1.37078780E-02
 -3.69342938E-03  6.35983466E-03  5.84742988E-05 -1.18442088E-03  3.59706753E-04
  1.39173073E-03  1.81909863E-03  6.23596583E-04  5.56593291E-03 -1.52814068E-02
 -1.64300081E-02  4.29755471E-02  5.31767335E-02 -1.47869548E-03 -2.66670673E-03
  1.62666576E-02  2.75726412E-02  5.12101297E-03  1.16017090E-04 -2.65050524E-03
  2.14907528E-19 -2.38946787E-03  5.03839516E-03  4.42012881E-03 -9.43636464E-03
 -1.30830719E-02  2.00617811E-02  5.88958634E-03 -1.65916583E-02 -9.38854826E-03
 -1.28067523E-03  6.68621886E-04  4.92837384E-04  1.40329600E-03  8.56554771E-04
  2.37735107E-04  1.50738916E-02 -2.79244031E-02 -3.58493338E-02  5.94578619E-03
  6.11758702E-04 -7.11666733E-02 -1.73792062E-02 -3.42196181E-04 -5.72476593E-03
 -3.84790085E-04  1.90376226E-03  8.71258318E-04  2.65889133E-04 -1.73564717E-03
  3.58488532E-04  3.72668961E-03 -1.24107106E-02  2.59686282E-02 -4.18877514E-02
 -9.91749541E-03 -7.66579053E-03 -3.94512175E-03 -7.21092283E-03 -1.44711689E-02
 -6.93576501E-03  8.27818400E-04  4.44971778E-03  2.00363218E-03 -2.87608874E-19
 -1.66940621E-03  1.37322858E-03  7.98524687E-03 -7.10824683E-03  7.36968794E-04
  1.18459855E-02  1.58683762E-03 -7.82981922E-03  6.87062556E-03 -5.37828508E-04
 -8.52451575E-05  5.71270486E-04 -3.77550326E-04 -1.51016412E-04  3.24790694E-04
 -4.24502611E-03  1.13733615E-02  1.62980552E-02  8.90261490E-03  1.11819767E-02
 -2.01538886E-03  1.27382708E-02 -3.28854734E-03  5.40164772E-03  9.29811771E-04
 -6.20197458E-04  1.74745004E-04 -1.91290606E-03  3.49846259E-04 -1.40054146E-04
 -1.42686830E-03  2.02100358E-03 -2.42997493E-02 -3.27820762E-02 -1.70539195E-02
  1.66822458E-02  3.85011722E-03 -6.00456835E-04 -1.07678063E-02  2.65902704E-04
 -1.93891841E-03  1.58726000E-03 -3.35158400E-03  3.43953103E-03  9.54412078E-19
  8.30075000E-04 -5.43079663E-03  8.16382012E-03 -2.99823111E-03  9.32283689E-03
  2.95135156E-03  4.00744100E-03 -5.76815319E-03  1.08270941E-02 -1.10980108E-03
  1.51280035E-05  7.14603057E-04 -1.49529351E-04  3.80611563E-04 -4.25121402E-04
 -9.20295079E-04  3.25327022E-04  3.95082625E-04  3.49616759E-03  1.15648471E-03
  1.82650181E-02  8.47590541E-03 -1.01295811E-03 -2.15352099E-02 -1.19941908E-03
 -5.41037227E-04  1.25796958E-03  2.53802912E-05  2.03234494E-03 -1.46363840E-03
 -1.13026353E-02  1.22602340E-02 -2.83092043E-03 -3.38158825E-02  3.13144679E-02
 -1.68757139E-02 -2.63305464E-04  9.61859304E-03  1.58792646E-02 -1.85292265E-03
  6.91734521E-03 -2.11029399E-03 -9.97157594E-03  6.02658276E-03 -4.68800967E-03
 -8.23967288E-19 -4.11525126E-03  1.21081797E-02 -1.39957054E-03 -1.30577893E-03
 -1.28887311E-02 -1.49318857E-02 -1.08541289E-03 -7.41672199E-03 -1.19507190E-02
  1.25826926E-03  1.37576987E-03 -1.11490078E-03  1.03373128E-03 -9.05465814E-04
  1.46131207E-03  5.81989137E-03 -2.64038701E-03  6.28855764E-03  9.37985859E-03
 -1.92677609E-03 -9.35911620E-03  1.00347489E-02  1.50847691E-02  3.83829106E-02
  4.65788582E-03 -1.83476511E-03 -4.10903824E-03 -6.21394560E-04 -5.55985079E-03
  3.96757838E-03  1.52694738E-02 -1.43374673E-02  1.94333448E-03  7.29226022E-02
 -7.68271672E-02  3.78200060E-02  3.52990948E-02 -3.10056228E-02 -3.84551691E-02
  3.86431817E-03 -1.05468638E-02  4.95640603E-03  2.15600414E-02 -1.35885818E-02
  8.82778522E-03  4.74485594E-04 -2.34954208E-17 -3.57826725E-02  5.93369856E-02
  1.28968782E-01 -1.35115936E-01 -9.73143794E-03  3.88241574E-01  1.29849436E-01
 -1.93406887E-01 -1.49183031E-02 -1.79351574E-02  4.18964133E-03  1.61790303E-02
  8.99646807E-03  3.23477299E-03  4.44809189E-03  4.89164855E-03  4.25910754E-02
 -9.39234036E-02  1.01176279E-02 -5.63496852E-05 -3.57778919E-01 -2.35686608E-01
 -6.97403952E-02 -2.78295815E-01  1.15198646E-02  1.79634543E-02 -8.79022843E-03
 -2.12726788E-02 -2.25079988E-02  9.97071087E-03 -4.27896839E-02  1.22656684E-01
  5.60289030E-02 -4.56718224E-01 -7.22052644E-01  2.66096235E-01 -1.55804722E-01
 -2.40930555E-01 -3.81339803E-01 -5.16062061E-02 -1.19031373E-02  4.12605103E-02
  2.35232549E-02  2.73507559E-02 -1.61756515E-02  7.46953326E-03 -1.27512076E-02
  3.38198898E-17 -1.19315916E-02  3.13870926E-02  2.18541399E-02 -3.16393228E-02
 -8.35317424E-02  8.88794021E-02  5.32686662E-02 -1.11277491E-01 -8.18096228E-02
 -5.20372325E-03  8.06861804E-03 -8.64264684E-04  7.77595613E-03  4.72244551E-03
  3.53325657E-03  4.58104439E-02 -1.11466822E-01 -2.07574053E-01  4.86482827E-02
 -7.63224087E-02 -1.94159509E-01 -8.77708682E-02  6.18832134E-02 -2.23559600E-01
 -2.44819745E-03  2.80487309E-03  1.27308810E-03  6.21614116E-03 -1.43811812E-02
  4.51927656E-03  7.71525890E-02 -1.64831018E-01 -2.54121877E-02  1.37866226E-01
 -1.69607023E-01 -2.14188747E-01 -9.91174473E-02 -1.06891408E-01 -6.82518623E-02
 -2.70262015E-02  3.40794986E-02  5.65648998E-03  4.93069909E-02 -4.51242120E-02
 -4.83979233E-03 -5.02669078E-03  1.70222166E-02 -2.78666093E-01  5.64837643E-17
 -1.43067809E-02  4.45810383E-02  9.30087552E-02 -1.08892102E-01 -1.41568667E-01
 -3.34350890E-02  1.62807020E-01 -4.99709689E-02 -2.46879156E-01 -7.74423738E-03
  3.27846519E-03  3.00853013E-03  9.70333386E-03  2.92731518E-03  2.94494032E-03
  8.46307234E-02 -1.82130425E-01 -3.33322054E-01  1.10360825E-01 -6.97686476E-02
 -3.79157404E-01 -3.25804592E-01  6.62396761E-04  4.44328088E-02 -7.75438268E-03
  9.52266445E-03  8.38385780E-03  4.48868368E-03 -1.59493358E-02  1.37839466E-02
 -3.78663073E-02  7.54653052E-02  4.30341434E-01 -3.01267353E-01 -2.09872157E-01
 -5.14430892E-02 -9.35938715E-02 -1.20124264E-01 -1.41894221E-01 -4.39926566E-02
  4.14691390E-02 -2.32219769E-02  5.62342598E-03 -2.33359499E-02 -3.33841947E-04
 -6.33331827E-03  3.88085781E-02 -6.39344646E-01  4.87197690E-02  6.44002677E-17
  1.13233446E-03  3.80151583E-02 -1.33466075E-01  5.34511355E-02 -1.17658372E-01
  1.44315887E-02 -3.47854721E-02  1.00584802E-01 -9.40399408E-02  1.08831503E-02
 -1.26611263E-03 -8.90703692E-03 -3.88402455E-03  2.55747436E-03  7.58720477E-04
 -9.74380250E-03 -2.27834809E-02 -3.98008454E-02 -7.89387019E-02  3.82732642E-02
  8.68860441E-03 -1.01330881E-01 -6.52589395E-02  1.09229834E-01  6.95768391E-04
  1.08837671E-02 -8.61607341E-03 -9.76741707E-05 -1.38960687E-03  5.32034715E-03
  2.65353512E-02  1.99878533E-02  1.43000807E-01  5.58575012E-03 -8.87922322E-02
  1.15977292E-01  5.11558714E-02 -4.63645713E-02 -4.63522510E-02  1.03452206E-02
 -1.70303226E-02 -1.16186583E-03  1.49083671E-02 -8.82948032E-03  1.43345646E-02
  7.46941721E-04 -2.61005676E-04  5.49402112E-02 -2.84046143E-02  1.24981436E-02
  2.97032347E-17 -1.85092737E-02  2.71305178E-02  1.01454306E-01 -9.74769919E-02
  2.96281205E-02  2.40347089E-01  9.57227490E-02 -1.35473001E-01  8.91155445E-03
 -1.43903691E-02  1.96092211E-03  1.49676485E-02  6.40962905E-03  3.06919068E-03
  2.25007609E-03  1.82931936E-03  3.07140029E-02 -5.56576254E-02  1.14964469E-02
 -3.04881566E-02 -2.29502354E-01 -1.50106375E-01 -5.52092991E-02 -2.00550623E-01
  5.95159584E-03  9.43207767E-03 -1.62819899E-03 -1.52409644E-02 -1.30076544E-02
  4.06942419E-03 -3.27053576E-02  8.66880734E-02  2.06360024E-02 -3.31184844E-01
 -5.01755367E-01  1.88888161E-01 -9.20018260E-02 -1.64313766E-01 -2.65080141E-01
 -3.49009909E-02 -9.30760415E-03  2.89168705E-02  1.45383051E-02  2.01440745E-02
 -1.10708347E-02  5.54622624E-03 -1.14457846E-02  7.59936784E-03  2.21217533E-01
  3.95858802E-01 -5.90556953E-02 -5.66093376E-17 -8.62319539E-03  2.56468818E-02
 -7.25236271E-03 -1.73711357E-02 -8.35241096E-02  6.11922426E-02  3.56128237E-02
 -4.94879047E-02 -7.71106602E-02 -2.41449394E-03  4.36395060E-03 -1.22120281E-03
  4.92214320E-03  3.88073009E-03  2.51923647E-03  3.26918113E-02 -8.69988563E-02
 -1.87689333E-01  2.48561747E-02 -5.60810388E-02 -1.54347823E-01 -1.25510686E-01
  3.33599966E-02 -1.40624065E-01 -3.34605699E-03  5.67521632E-03  8.53453952E-04
  5.46848038E-03 -8.06255051E-03  3.38495113E-03  4.62095411E-02 -8.24325605E-02
  7.03631858E-02  6.13331406E-02 -1.13284167E-01 -1.16306427E-01 -7.99152119E-02
 -7.24216272E-02 -5.08567272E-02 -2.03900744E-02  2.46885721E-02 -3.84441548E-04
  3.18247622E-02 -2.80530221E-02 -3.08320344E-03 -1.35609469E-03  8.47482735E-03
 -2.19777435E-01 -2.51975677E-03 -2.52060912E-02  1.91587366E-02 -1.64760150E-01
 -3.30683084E-17 -1.59623946E-02  3.73041615E-02  1.16703327E-01 -1.07068790E-01
 -8.56164244E-02 -2.56813236E-02  1.24961553E-01 -5.67834277E-02 -1.58750373E-01
 -1.04184775E-02  3.70332185E-03  5.30144251E-03  9.72765040E-03  6.06932595E-04
  3.19653499E-03  6.18384084E-02 -1.34487157E-01 -3.11108368E-01  1.14192621E-01
 -7.22643164E-02 -3.05085589E-01 -2.48766348E-01  6.01678931E-02  8.03713952E-03
 -1.03987590E-02  7.72625277E-03  8.15675144E-03  6.11908206E-03 -1.28407392E-02
  9.08580796E-03 -9.88155198E-03  1.13779329E-02  3.44333789E-01 -1.70131860E-01
 -1.16542039E-01 -1.07318456E-01 -8.44739612E-02 -9.78981535E-02 -8.09305999E-02
 -3.64839214E-02  3.48115417E-02 -1.42952127E-02  1.52085198E-02 -2.35836365E-02
 -4.74664404E-03 -2.32442108E-03  2.71895043E-02 -5.40444676E-01  1.63171601E-02
 -8.77831615E-03  1.99450205E-03 -3.49726317E-01  8.82084099E-03  4.69198956E-17
  2.12352984E-04 -2.53248023E-03  3.68549309E-03  3.07352607E-04  3.87095820E-03
 -9.85590990E-03 -9.00974984E-04 -6.55715368E-04  1.95322292E-03 -2.12669293E-05
  4.80554509E-05 -7.52490381E-06  1.69349031E-05 -1.64362402E-04 -1.19027287E-04
  8.68742909E-04  1.77540779E-03  7.80886072E-03  4.97452793E-04  2.78727383E-03
  4.13062350E-03  1.03653338E-02  3.15778225E-03  8.09573767E-03  1.65086136E-04
 -7.63705100E-04  2.67795050E-05  1.07488008E-05  1.29041557E-04 -2.16572051E-04
 -6.00464597E-03  6.25901963E-03 -4.77480094E-03  6.61135868E-04  4.74155575E-03
 -2.57946913E-03  2.24390079E-03  4.24912582E-03  3.37755522E-03  2.61543387E-04
  3.20932748E-04 -9.58379866E-04 -1.63491815E-03  6.26367714E-04 -1.00106553E-04
  7.07397374E-04 -8.24186970E-04 -7.65489769E-04 -1.32375055E-03 -1.26879489E-02
 -2.30193028E-03 -3.88799508E-05 -9.87398701E-04 -8.99548557E-03 -1.18324478E-19
 -1.13106128E-03 -4.74622553E-04  3.89263457E-03 -2.85727691E-03 -5.19432537E-03
  3.81125031E-03  6.74223887E-03 -1.03317603E-02 -4.80120086E-03 -3.05465858E-05
  3.97546645E-04 -2.79293859E-04  2.01409750E-04  1.09044102E-04  2.79089383E-04
  2.32854129E-03 -2.47523643E-03  3.56048273E-03  8.03915906E-03 -1.79839507E-03
 -1.08312612E-03  2.75806782E-04 -1.65491700E-03 -1.44119971E-02  1.39128915E-03
 -1.12053793E-03 -1.49953749E-04  1.37044556E-05 -5.94994584E-04  8.88145107E-04
  8.30396116E-04 -4.27907905E-03 -1.60852524E-02  5.51327923E-03 -1.58010448E-02
 -7.07100818E-04 -4.26897194E-03 -5.64980173E-04 -9.20797900E-03 -5.76933479E-04
  1.69672369E-03 -1.89428772E-04  6.96422914E-04 -1.66093756E-03  8.83462933E-04
  9.54828811E-05  8.14415756E-04  6.11549714E-04 -2.01611586E-04 -6.38482246E-03
  2.00646534E-03 -6.88100013E-04  1.31229756E-05 -3.77154242E-03 -1.37909313E-04
  1.00484816E-18 -9.48320969E-04  2.33431221E-04  8.72158292E-03 -4.12816190E-03
  9.11662688E-03  3.53145859E-03 -1.22537103E-03 -3.67109989E-03  1.27646042E-02
 -7.86655291E-04 -1.36157891E-04  7.20904006E-04  2.10133798E-04 -5.56374440E-04
  4.91378777E-05  1.63004563E-03  3.50415002E-03 -8.65575397E-04  1.02968364E-02
 -1.27640110E-03 -2.87543944E-03  1.21176895E-03  1.05919864E-02 -5.15579368E-03
  7.07562759E-06 -4.20406660E-04  3.69457628E-04 -2.65755490E-04  4.93753081E-04
 -3.77424226E-04 -1.66228806E-03 -1.01720194E-03 -5.29388363E-03  3.81770104E-03
  1.41468229E-02 -7.11709094E-05 -5.73339949E-03  2.48857360E-03  6.01307715E-03
 -2.81351244E-04 -1.60343806E-04  6.64355284E-04  1.40288206E-03  4.69507056E-04
 -9.14500959E-04  9.01490651E-06 -1.80881540E-03 -8.87559563E-03 -3.14426023E-03
 -8.79255151E-04 -5.21997725E-04 -7.71765570E-03 -2.21443656E-03 -2.08336390E-04
 -1.27925495E-04 -4.26089315E-04 -6.22647068E-20 -1.59503413E-03  2.36364900E-03
  5.56370054E-03 -7.25783935E-03  1.15769386E-03  1.92654737E-02  4.68638726E-03
 -1.01242373E-02  2.13069346E-03 -6.36683996E-04  1.82589191E-05  3.93997689E-04
  1.58509254E-04 -3.12264011E-04  2.28655666E-04 -1.51974836E-03  5.76010164E-03
 -1.51271929E-03  1.19102178E-03 -2.76421311E-04 -1.27380159E-02 -6.75813457E-03
 -8.36743134E-04 -1.25589374E-02  5.57629274E-04  9.28404463E-04 -7.10432272E-04
 -9.92167296E-04 -1.17603078E-03  7.19215376E-04 -4.14553327E-04  2.66724187E-03
  8.06079114E-04 -1.85913531E-02 -1.30557614E-02  8.78777748E-03 -8.23240955E-03
 -8.37409017E-03 -8.84685249E-03 -1.63607761E-03  3.33658095E-04  5.96455572E-04
  5.39858030E-04  1.07758893E-03  9.27556462E-05 -1.01276002E-03  1.78135930E-03
 -2.58763987E-03  4.24524237E-04  1.19671463E-02 -4.82487139E-04 -1.40057400E-03
  5.48818513E-04  1.01140401E-02  1.87845835E-04 -3.76307794E-04  5.71860510E-04
 -2.11290658E-19  1.07068149E-03 -1.55421328E-03 -2.64914930E-03  5.13584395E-03
 -8.79654278E-05 -9.02373141E-03 -4.68702339E-03  4.84267921E-03  2.84163379E-03
  2.29753217E-04 -8.96918152E-05 -1.39281838E-04  7.05229547E-05  1.58083443E-04
 -6.41711686E-05  1.45609566E-03 -4.09422163E-03 -1.50248754E-03  1.45906414E-03
 -1.47071753E-03  5.44711014E-04  3.95438567E-03  3.87876860E-03  5.51514782E-03
 -2.25953578E-05 -5.34371081E-04  3.45420849E-04  5.17685814E-04  8.90046434E-04
 -4.64247135E-04  2.43034108E-04 -2.33076773E-03  4.84815229E-04  9.16439929E-03
  8.60306024E-03 -3.38119012E-03  2.74280031E-03  6.20807447E-03  4.23235640E-03
  6.51541690E-04 -1.23922467E-04 -1.67181235E-04  6.87462136E-05 -5.76364838E-04
 -4.30508787E-04 -5.02953991E-05 -4.52056236E-04 -1.91709328E-04 -5.69189113E-03
 -1.45365704E-02  2.79210677E-03 -1.00901238E-03 -3.52232260E-03 -1.06785090E-02
 -3.75304866E-04 -3.30868359E-04  1.81670987E-05 -1.27803720E-04 -4.74605017E-20
 -1.63769414E-04  1.15212954E-04  3.86322714E-03 -2.95032657E-03 -1.13008336E-03
 -3.80476971E-03  5.38628754E-03 -8.45979012E-04 -6.75741716E-03  1.29386425E-05
  7.33961851E-05 -9.61561304E-05  1.14816830E-04 -6.83458417E-05 -7.09288577E-05
  9.49383453E-04 -2.59447025E-03  1.44604709E-03  5.65120906E-04  3.45351068E-03
 -2.98914942E-03 -3.54907314E-03 -6.22789352E-03  9.78357829E-03  7.13436636E-04
 -2.04308452E-04 -1.69173369E-04  1.10535487E-05 -7.11761696E-04  6.99980353E-04
 -6.94511103E-03  1.20535661E-02  1.39707563E-02 -1.44803809E-02 -1.20323677E-02
  7.10283186E-03  4.07409291E-03  1.39316071E-03 -7.96933792E-03 -4.31674139E-04
 -1.27474820E-04 -9.07471859E-04 -2.55789493E-03  5.70683846E-04  2.07798632E-04
  2.83287172E-04  1.16614355E-03  5.68461811E-03  9.67606975E-03  1.64167179E-03
 -7.24051213E-04  6.01336000E-03  6.58747699E-03  1.36351682E-03 -7.26589743E-06
  7.19260079E-04  4.90379787E-05  1.75602179E-04  1.20532256E-04 -7.61973297E-19
 -1.86210584E-03  4.70124799E-03  8.82094946E-03 -6.78812384E-03 -3.38830948E-03
  1.34613522E-02  1.37202051E-02  1.41935037E-03 -5.69381656E-03 -3.99762376E-04
  7.57822590E-05  7.85112757E-05  3.78100120E-04  1.03260874E-03  4.96440623E-04
  3.96122095E-03 -8.97406224E-03 -2.67597155E-02  2.03857825E-03  1.16155413E-02
 -5.47959429E-03 -3.93670270E-02 -1.42387116E-02 -9.38319139E-03 -7.10998602E-05
  2.33557383E-03  7.12555585E-04  1.40951814E-03  7.03650794E-04  4.65927837E-04
 -6.49467846E-04  1.09892851E-02  1.23858625E-02 -2.45822857E-02 -2.60441114E-03
  1.77422262E-02 -4.38030205E-03  2.02337220E-02 -1.68468944E-02 -7.65018584E-03
 -6.47204938E-04  4.94858730E-03 -6.64591954E-03 -1.86462717E-03 -4.43447602E-03
 -7.44924537E-03  1.42714384E-02  4.31165026E-02  6.76742066E-02  9.23328720E-04
  3.22339914E-02  3.17519934E-02  4.47518076E-02 -2.38627237E-03 -4.30004407E-03
  1.98946143E-03 -6.37927383E-04 -9.77426469E-04 -1.10622640E-03 -1.64813198E-03
  2.49754152E-18  4.24998544E-03 -5.24176973E-03 -2.60870157E-02  3.13064900E-03
  8.46895220E-03 -1.60482360E-02 -3.24739038E-02 -1.53421267E-03  1.13889833E-02
  1.21318131E-03 -5.79312726E-04 -2.97474252E-04 -2.10751243E-03 -2.72376116E-03
 -1.67467737E-03 -1.33889054E-02  2.22935822E-02  7.04905664E-02 -3.39330163E-03
 -9.04365833E-03  7.55663809E-03  7.08508116E-02  2.37508574E-02  2.02445047E-02
  2.55776952E-03 -4.94056379E-03 -2.35194202E-03 -2.76587065E-03 -2.29778891E-03
  5.64242249E-04  2.54728142E-03 -2.15821774E-02 -3.80120312E-02  5.42721993E-02
 -2.30355619E-02 -2.69781115E-02 -1.37175539E-02 -3.42778581E-02  3.70239850E-04
  1.92749329E-02 -2.23787886E-03 -9.90618870E-03  1.41179729E-02  2.04093413E-03
  8.81023217E-03  1.49723299E-02 -3.84073317E-02 -8.99393154E-02 -1.52223331E-01
  2.07497100E-02 -4.06026816E-02 -6.52738684E-02 -8.94580012E-02  2.30962460E-02
  7.08081278E-03 -8.08983093E-03 -1.82845128E-03  1.43208477E-03  1.34072794E-03
  4.34810024E-03 -3.18258718E-03 -6.10560040E-18 -6.76895650E-03  5.27953754E-02
  4.20243789E-02 -4.56823342E-02 -9.24751115E-03 -1.41444329E-01 -1.26550589E-01
 -1.43145656E-02 -1.72994867E-02 -8.19062497E-03  1.45259589E-02  3.51166588E-03
  1.00513326E-02  7.95257201E-03  3.53100516E-04  3.67427448E-02 -1.22943996E-01
 -1.25741757E-01 -1.14611222E-02  2.11210390E-01 -7.09192534E-02  1.66134240E-01
  1.62292553E-01  3.09384804E-01  2.38517425E-03 -2.42090369E-03 -1.57199800E-02
 -3.33073385E-03 -2.42755463E-02 -4.97525934E-03  4.09967171E-02 -8.74467268E-02
  3.20270048E-02 -3.63459991E-01 -4.81513245E-01 -2.97184010E-01  1.72610033E-01
 -2.21018797E-01 -1.35950898E-01 -1.64109397E-02 -1.84246654E-02  3.68984710E-02
 -2.17502520E-03  2.23622594E-02 -3.59357335E-02 -8.64644631E-04  1.75971906E-02
 -6.18291790E-02  2.56094971E-01  2.83398204E-01 -1.04756441E-01 -8.60098117E-02
  1.87456163E-01  3.20487919E-01  1.02564732E-02 -3.43410625E-03  2.85057760E-03
 -1.69214610E-03  6.36735296E-03  1.43431288E-03  2.27451201E-03 -3.18562215E-02
 -3.24775875E-17 -1.56267462E-02  1.86979135E-02  6.07311614E-02 -7.16005419E-02
 -6.12728976E-02  1.87512454E-01  1.04956227E-01 -1.38846009E-01 -9.53496161E-03
 -9.62510196E-03  8.43342437E-04  8.99571976E-03  3.75420129E-03  2.58665161E-03
  3.30336745E-03  4.23187312E-02 -3.97041336E-02 -1.74529471E-01  6.93258048E-02
 -4.33381431E-02 -4.63202114E-01 -1.18808967E-01 -7.84991127E-02 -6.47812781E-02
  1.27476548E-05  7.89684015E-03  1.47734446E-02 -8.21056354E-03 -7.28374099E-03
 -4.24051125E-03  1.85398019E-02 -6.75477071E-02  7.65962738E-03 -2.42511220E-01
 -1.48349244E-01  6.47582461E-02 -5.00958881E-02  1.72419762E-02 -1.16669547E-01
 -4.52625984E-02  5.66908669E-03  2.68901748E-02  7.60182422E-03 -6.55363823E-03
 -1.74511739E-02 -2.80352123E-02  6.74484997E-02 -7.83372075E-02  1.94679417E-01
  4.33604186E-03  8.79906209E-02 -4.92699348E-02  1.38024557E-01  3.65116554E-02
 -7.86195810E-03  2.65337257E-03  1.81165198E-03 -9.55523211E-03  7.59138372E-03
 -3.48425653E-03 -1.05628162E-02  6.20345471E-02 -7.91879542E-02  8.74446071E-17
 -1.79891744E-02  6.71310165E-03 -4.72617004E-03 -1.01351232E-01 -1.29586557E-01
  3.31705343E-01  4.45139253E-02 -2.63659706E-01 -1.81362222E-02 -9.37304593E-03
  7.28360079E-03 -1.96806018E-03  8.68170859E-04  7.16407922E-03  6.23265218E-03
  8.79756312E-02 -7.65489150E-02 -2.83923329E-01 -4.89880288E-02  1.20026323E-01
 -9.21041035E-01  1.60664522E-01 -6.19690462E-02  7.39778034E-03  5.72858861E-04
  1.70357900E-02  9.99418926E-03 -8.87579946E-03 -1.01734804E-02  7.79197972E-04
  3.58453835E-02 -1.69621620E-01  1.18631909E-01 -1.24619726E-01  1.36055864E-01
 -2.53436193E-02 -2.01200151E-02 -5.44024946E-02 -1.01942857E-04 -1.80203753E-02
  2.53295023E-02 -8.13885835E-04  5.72614910E-02 -3.86605747E-03  9.47053064E-03
  1.61563577E-02 -3.74098631E-02 -3.26831053E-01 -1.82603627E-01 -2.24224948E-01
 -1.08738311E-01 -2.44253223E-01 -1.71879891E-01 -1.37051437E-01  5.25131268E-03
 -1.01901333E-02  3.01876302E-03 -8.02575433E-03  1.53937440E-02  2.28322821E-03
 -3.36082787E-02  1.35239200E-01 -3.30854248E-01 -1.17536869E-01 -7.52678158E-17
  1.36387377E-02 -5.60118792E-02 -6.08533318E-02  8.77681149E-02  4.18861866E-02
 -1.31149332E-01 -8.30588710E-02  1.00794180E-02  3.86199046E-02  4.93456585E-03
 -1.80286857E-03 -1.71519960E-03 -1.56853442E-03 -3.67863295E-03 -3.23676260E-03
 -2.77753540E-04  3.92637952E-02  1.41427505E-01 -1.33579223E-02 -1.23799808E-01
 -1.00597199E-02  2.26589356E-01  8.15191647E-02  4.48971366E-02  8.78965212E-04
 -1.23949488E-02  8.68815753E-04 -4.36151959E-03 -3.71006745E-03 -7.30443437E-03
  2.80845391E-02 -1.20733648E-01 -1.57434563E-01  1.58243278E-01  1.70481415E-01
 -1.51680044E-01 -1.38514940E-02 -2.70392001E-02  1.35078368E-01  2.83198495E-02
  8.18047732E-03 -1.69738691E-02  2.33770294E-02  2.20518650E-03  1.45527584E-02
  1.59868590E-02 -1.99945400E-02 -3.13469228E-01 -3.95382971E-01 -4.50140789E-02
 -2.14883029E-02 -2.18552814E-01 -2.52101351E-01 -4.93420407E-02  1.65858083E-02
 -1.72182697E-02 -6.07756077E-03 -6.26721023E-03  7.98018621E-03  1.62990910E-02
  7.62112347E-03 -1.95861770E-02 -2.82129937E-02  2.42624120E-02 -1.20627574E-01
  8.61360460E-17 -3.22492554E-03  4.24416519E-02  4.22280598E-02 -3.83339269E-02
 -7.64688817E-03 -9.07289791E-02 -7.46768502E-02  3.24932254E-03 -1.87485007E-02
 -6.69836843E-03  9.94457812E-03  3.95432314E-03  7.13222158E-03  6.32240736E-03
 -1.19210699E-04  2.71001659E-02 -9.60475206E-02 -9.03925053E-02 -1.24114420E-04
  1.56907288E-01 -3.64267628E-02  8.44930785E-02  9.67823100E-02  2.11947888E-01
  3.53686412E-04 -1.05073809E-03 -9.35357955E-03 -2.30186455E-03 -1.42912985E-02
 -3.18680198E-03  2.47651084E-02 -4.53014652E-02  3.99146668E-02 -2.94322425E-01
 -3.86753273E-01 -1.78397671E-01  1.27322691E-01 -1.55340469E-01 -1.32064692E-01
 -1.33714537E-02 -1.62047723E-02  2.90678225E-02 -6.85942163E-03  1.83066120E-02
 -2.71875295E-02 -4.37457876E-04  1.13219992E-02  1.51589781E-02  2.44347079E-01
  2.31396507E-01 -7.04892551E-02 -1.91506834E-02  1.75757005E-01  2.55557474E-01
  4.77020559E-03 -8.04529653E-04  1.98126198E-03  9.73101122E-04  2.36642470E-03
 -1.34763461E-03  9.48239132E-04 -2.48114430E-02  3.12262137E-02  7.48701676E-02
  1.88466656E-01  1.03143007E-02  9.44649307E-18 -1.81214426E-02  2.64914023E-02
  9.59453154E-02 -4.37206780E-02 -3.08228222E-02  1.47673042E-01  8.67912924E-02
 -9.49250923E-02  7.88781883E-04 -1.08548203E-02  2.04004772E-03  9.38884828E-03
  6.08617930E-03  8.24577246E-04  2.34212073E-03  2.51920361E-02 -3.35442020E-02
 -1.31742809E-01  8.40630333E-02 -5.97851219E-02 -3.58707363E-01 -6.94659889E-02
 -2.95150852E-02 -5.49003041E-02 -2.61945613E-03  5.20249518E-03  1.40905109E-02
 -6.71662681E-03 -5.98021217E-03 -4.39087918E-03  2.58120284E-02 -6.49243039E-02
  3.58212127E-02 -2.10565521E-01 -1.51743301E-01  3.06582558E-02 -2.45583437E-02
 -1.96212521E-02 -1.07479362E-01 -3.09131298E-02  3.16575950E-03  2.07314793E-02
  9.73865118E-03 -2.15961859E-03 -1.26460217E-02 -1.26602977E-02  2.26023602E-02
 -9.73197993E-02  1.15709821E-01  1.92216537E-02  2.69108791E-02 -7.12670700E-02
  8.19744659E-02  4.82354223E-02 -3.46605359E-03 -1.28840062E-03  2.65001585E-03
 -6.36912738E-03  5.91934236E-03 -2.92715002E-03 -1.12934610E-02  5.33718352E-02
 -3.15139643E-02 -2.69274425E-02  5.21360106E-02  2.26844650E-02 -3.48668424E-02
 -5.96217857E-19 -1.51930451E-02  4.68527750E-03 -5.64154796E-03 -8.38617223E-02
 -1.03384553E-01  2.53708584E-01  3.73158508E-02 -1.94509259E-01 -1.35318057E-02
 -7.88923844E-03  4.96510545E-03 -8.31100448E-04  1.09640169E-03  5.43775694E-03
  5.44832218E-03  7.10703204E-02 -6.33579292E-02 -2.75158976E-01 -3.53198837E-02
  7.40590888E-02 -7.17878350E-01  5.77774069E-02 -3.45877326E-02 -1.25883144E-02
 -2.72265001E-03  1.60127824E-02  7.95854321E-03 -6.21379611E-03 -6.88157294E-03
 -4.60212207E-05  3.93789081E-02 -1.48581938E-01  1.00767605E-01 -1.20451001E-01
  1.34091811E-01 -3.59665364E-02 -5.35491975E-02 -5.70927117E-02  1.34930276E-02
 -1.94900339E-02  2.46388869E-02 -1.30311755E-03  4.95672211E-02 -9.21712463E-03
  5.01481339E-03  1.09209741E-02 -2.42765767E-02 -3.70311931E-01 -1.58889420E-01
 -2.11023436E-01 -8.19850343E-02 -2.63786302E-01 -1.45199576E-01 -1.33017426E-01
  5.56310653E-03 -9.24339159E-03  3.59029951E-03 -1.02237121E-02  1.38157455E-02
  5.36591500E-04 -3.22257988E-02  1.23291001E-01 -2.48962935E-01 -9.21984045E-02
  1.13102843E-02  1.52701421E-01 -1.58412127E-01 -5.13927838E-02 -4.40874401E-17
  1.25753284E-03 -2.98913059E-03 -7.90687189E-03 -1.61597383E-03  8.60073432E-04
  8.38170111E-03  6.30251660E-03  1.28852204E-03 -2.49961697E-05  3.88449615E-04
 -9.22797593E-04  1.50441660E-04 -6.96767791E-04  1.05339307E-04 -5.91934431E-05
 -2.35051984E-03  3.91545015E-03  5.32881866E-04 -2.39610116E-03 -7.47360833E-03
  3.57128726E-04 -1.65934319E-02 -1.47135951E-02 -1.49201895E-02 -2.69487417E-04
  2.65976469E-04  1.21623920E-03  2.44547976E-04  1.55337892E-03  4.83254882E-05
 -4.85994380E-06  2.58905054E-03  1.10082326E-03  1.18047120E-02  5.48685104E-03
  2.06206468E-02 -7.89898806E-03  1.01329807E-02 -3.19376144E-03  4.91078091E-04
  4.08487838E-04 -9.31603982E-04 -3.59576850E-06 -9.03817348E-04  1.52675826E-03
 -1.53151318E-03 -1.69251897E-04  7.61437359E-03 -1.40667756E-02 -5.45232852E-03
  1.08531817E-02  7.22654192E-03 -8.35633958E-03 -8.91722255E-03 -8.39536178E-04
 -4.11393497E-04 -1.15953208E-05  3.50614912E-04 -4.54621635E-04 -1.48863721E-04
 -1.92052269E-03  5.85822389E-03  9.00129083E-03 -6.50536487E-03 -2.21154072E-02
  3.27569776E-03  7.74381040E-03 -1.95935697E-03 -1.36476065E-02  2.26132867E-20
 -4.36378848E-04  4.11007549E-03  3.88802872E-04 -8.68421835E-03 -6.27157125E-04
  8.98175644E-03 -1.50197244E-03 -6.24051854E-03  1.42021097E-03 -5.28316449E-04
  2.43622056E-05  5.02331167E-04  6.19122838E-05 -6.16164335E-05  1.64794120E-04
 -2.06329531E-04 -1.64834575E-03 -8.98211259E-03  6.97315238E-03  5.90429135E-04
 -1.04223335E-02 -6.25463598E-03  5.41822943E-03 -3.91700833E-03  2.53637015E-04
  2.20806381E-04 -8.95199901E-05 -5.46855646E-04 -7.28329314E-04  2.15877911E-04
 -1.20683410E-03  4.57438058E-03  5.00315020E-03 -1.37756150E-02 -1.13264468E-02
  1.66854006E-04 -3.97319326E-03 -6.17033095E-03 -7.78150696E-03 -1.62963752E-03
  1.48170273E-04  4.21297435E-04  1.41402582E-03 -9.58137278E-04 -1.13754057E-03
 -7.80253679E-04 -7.30308882E-04 -1.09528899E-02  1.42920511E-02 -1.01128907E-02
 -6.21252545E-03 -8.09302004E-03  8.33877618E-03 -2.55907720E-03 -7.31472013E-05
  2.73660456E-04  7.31653305E-04 -3.86144669E-04  3.89595602E-04 -1.22512240E-03
 -2.21862613E-03  3.83850416E-03 -3.55209759E-03 -1.26862278E-02  2.90514438E-04
  9.97416577E-03 -4.77942882E-03 -8.03633513E-03  9.53279581E-04 -1.95408031E-04
 -7.27198238E-20 -5.62007912E-04  3.68350706E-03  5.44166567E-04 -3.61957458E-03
 -1.03242129E-03 -5.24634426E-03 -2.11459308E-03  3.68762927E-03 -2.34102995E-03
  2.91110608E-04  2.82412023E-04 -4.49396853E-04 -1.66422062E-04 -5.49153010E-05
 -9.10317157E-05 -2.19966827E-03 -1.79517378E-03  7.29174329E-03 -4.34752488E-04
  1.67825614E-02  2.18866389E-02 -2.78964312E-03 -1.30346905E-03  1.20264803E-02
  1.33581532E-03 -5.67975649E-04 -1.41965374E-03  4.28976789E-04 -6.30259064E-05
  9.83470865E-04 -2.42866184E-03  9.56574333E-03 -5.23230151E-03  3.21141372E-03
 -6.89053751E-03  4.34977461E-03  3.87547949E-03  3.55426935E-03 -1.57401124E-03
  6.46877987E-04 -2.64786367E-03  1.44537259E-03 -1.55605510E-03 -1.35522751E-04
 -1.41255184E-03 -1.26263250E-03  1.37369375E-03  1.46801180E-02  2.33981549E-02
  2.95704642E-02  1.08078352E-03  9.82903848E-03  1.66706154E-02  2.17086911E-02
 -6.90045995E-05  1.38229530E-03 -8.68728929E-04  2.73293660E-05 -6.75404125E-04
  3.55463044E-04 -5.45473067E-04 -1.98718247E-04  1.72140750E-02 -1.22371700E-02
 -1.78290699E-03 -9.95782226E-04  1.20106561E-02 -6.85591899E-03 -2.57328845E-03
 -9.42404395E-04  3.94901069E-05  1.67820258E-19  1.22233869E-03 -1.34189697E-03
 -3.68294625E-03  1.05122097E-03  2.08042307E-03 -1.20694716E-02 -5.68994186E-03
  6.45198549E-03 -6.40318844E-04  6.43222413E-05  9.17787241E-06 -1.03382013E-06
  1.73460888E-08  1.86995306E-04 -1.78461483E-04  3.77214690E-04 -2.20337508E-03
 -1.02788063E-03 -2.35500654E-03  7.56714184E-04  1.36088047E-02  9.30243700E-04
  6.95695942E-03  2.54995059E-03 -8.38494559E-04 -1.93717531E-04 -9.41039524E-05
  3.55062545E-04  6.02861244E-04 -3.65939705E-04 -7.93894197E-04  1.32065389E-03
  2.36206337E-03  5.62028749E-03  8.49598688E-03 -5.77103044E-03 -4.64009434E-05
 -6.67062037E-03  6.59768624E-03  1.52639237E-03  3.44809050E-04 -1.32946497E-03
  1.48643558E-03  1.86768296E-04  6.60034181E-04  2.24890658E-03 -4.52904544E-03
 -2.25154118E-02 -9.13775081E-03 -3.77522204E-03 -1.11348000E-02 -1.57050318E-02
 -8.39253004E-03 -2.06552204E-03  9.68213674E-04 -2.77467374E-04  9.21797375E-05
 -2.98066052E-04  2.39584343E-04 -8.05394049E-05 -1.53996439E-03  8.12570685E-04
  9.10033961E-03 -4.79235607E-03  1.50981749E-02  1.68712326E-02  4.95825264E-03
 -3.68398212E-03  1.01992443E-02 -1.03421672E-03 -1.05058578E-03 -1.33094248E-03
 -1.15153965E-20 -1.91753976E-04  2.75331627E-03  2.51522881E-03 -9.63695918E-04
  3.56152769E-03 -7.77100871E-03  4.37400445E-04  1.03989054E-02 -1.08269628E-03
 -1.82029932E-04 -3.57543256E-04  3.44549806E-04  2.62932822E-04 -4.80505461E-04
 -1.88907815E-04 -1.31700933E-03 -5.88760918E-04 -8.94560518E-03  2.69690022E-03
 -7.58554367E-03  2.91031206E-02 -2.19700567E-02  5.68154050E-03 -4.04510768E-03
 -1.19261278E-03  5.24177899E-04 -2.92361702E-04  9.20156779E-04  1.50049542E-04
  2.46936308E-04  2.17336986E-03 -7.77446961E-05  1.41030261E-02  2.80997011E-04
  2.21075067E-03 -7.17051365E-03 -3.54218822E-03 -1.52053897E-03  2.22841544E-03
 -3.66337410E-04  1.45988159E-04 -1.65547618E-04 -1.38025856E-03 -1.12925985E-03
 -8.21322116E-04 -3.42073243E-04  1.79738098E-03 -1.84856902E-03  6.34501891E-03
  4.24783163E-03  4.80905208E-03 -1.66340503E-04  6.10991921E-03  1.66116468E-03
 -1.69497162E-04  4.74762008E-04  5.40865448E-05  1.51467099E-04 -6.68722783E-04
 -3.19422843E-04  1.44389645E-03 -6.62180717E-03  2.69468407E-03  1.25414436E-03
 -1.02470268E-02 -1.52246568E-03 -2.39786952E-03 -2.96839212E-03 -5.87869842E-03
 -1.06581946E-03 -1.00745927E-04  2.41731786E-04  8.36930726E-04  2.14305986E-19
 -6.39884310E-04  1.75610459E-03  4.87033551E-03 -1.51403179E-03  1.77814960E-03
 -8.32961605E-04 -3.34278287E-04  1.56897497E-03  1.09133896E-03 -4.61652567E-04
  2.26005505E-04  1.44762970E-04  3.14432124E-04  1.84685456E-05  1.00311271E-04
  1.32558082E-03 -2.40105588E-03 -1.00273448E-02  3.24175336E-04  3.04545421E-03
 -5.68158420E-03 -5.28065489E-04  5.70996292E-03  5.67956924E-03 -8.78102352E-04
  4.49707401E-04  7.24984738E-05  2.57260795E-04  7.81673187E-05 -6.19880336E-05
  7.29901191E-03 -1.36620662E-02  3.63834095E-04 -4.12635984E-03  1.28937493E-03
 -1.23615908E-02 -6.97476303E-04 -5.99840652E-03  2.64379853E-03 -1.17456106E-04
  7.92447561E-04  4.55970152E-04  9.07329187E-04 -5.85446105E-04 -3.19515896E-04
  1.16860011E-03 -2.19364391E-03 -2.21199579E-02 -1.80730679E-02  1.13617171E-03
 -3.66291191E-04 -1.58610878E-02 -1.11194528E-02  2.96745691E-04  7.32641006E-04
 -1.30303734E-03  2.65875649E-05 -4.65078871E-04  3.17926980E-04  5.68084844E-04
 -1.13708238E-03  1.55487406E-03 -1.55988130E-03  5.68578666E-03 -1.27564131E-02
  8.59388216E-03 -2.28874730E-03 -1.97076898E-04 -7.63539824E-03 -3.95242468E-04
 -3.35989862E-04  6.19281087E-06 -9.11012999E-04  9.00209970E-04 -5.40073881E-19
  1.03958573E-02 -2.42221458E-02  1.22876929E-02  2.73981604E-02  1.76556622E-02
 -2.24221366E-02 -5.44095358E-03 -3.43128624E-02  6.08530441E-03 -1.10327549E-03
  2.47420760E-03 -3.87252796E-05  4.41948321E-03 -5.77171356E-04 -7.43637727E-05
  3.73366753E-03 -1.27640699E-03  2.47628745E-02  1.98340393E-02 -4.60495473E-02
  1.46630870E-03  5.07641425E-02  1.54395263E-02 -5.40322904E-02 -3.70983408E-03
 -2.93130613E-03  4.35371012E-03 -5.48503663E-03 -9.38939508E-03 -7.97531453E-03
  5.54496745E-03 -1.50479545E-02  1.74572376E-02 -1.45705883E-02  4.45371390E-03
 -4.40130372E-02  1.63506739E-02 -1.59636528E-02  4.21003910E-03 -1.31666265E-03
 -1.07573846E-03  1.26732444E-03  4.25914294E-04  2.95958376E-03  1.00466625E-04
  9.96694706E-04  4.72023398E-04  7.71352965E-04  1.11360377E-02 -1.17003715E-02
 -1.27461914E-02 -4.72089511E-03  7.99669570E-03 -3.17120308E-03  7.58929478E-05
  2.12272467E-03  3.85565373E-04  8.77413896E-05  8.09536904E-04 -2.31437451E-04
  1.43901946E-03 -2.12037666E-03  2.08245988E-02 -9.64252557E-04  1.75995869E-02
 -7.86114691E-03  1.26563240E-02 -1.10055700E-03  9.56331358E-03 -5.44613165E-04
  1.96070202E-04  1.71943975E-03 -2.63469976E-04 -6.31493353E-04  3.36670916E-04
 -2.60381008E-18 -2.36891529E-02  5.73548613E-02 -2.42827277E-02 -7.18015178E-02
 -3.76328220E-02  6.63307306E-02  1.54010031E-02  6.12806234E-02 -1.36376234E-02
  1.18989688E-03 -4.59482188E-03  4.15618283E-04 -9.68616892E-03  1.10670922E-03
  5.59153424E-04 -7.13612550E-03  2.10152822E-03 -5.14133710E-02 -4.35431781E-02
  1.12253361E-01 -3.77327061E-03 -1.06285873E-01 -3.38970242E-02  1.10929439E-01
  8.28264637E-03  6.85710402E-03 -9.38025776E-03  1.11688465E-02  2.00475181E-02
  1.80879804E-02 -1.48764837E-02  3.87508926E-02 -2.78304967E-02 -1.01822577E-03
 -2.76927068E-02  1.01998351E-01 -2.88535021E-02  1.54138712E-02 -1.67084097E-02
  3.92546449E-03  3.70036338E-03 -5.86940317E-03 -3.35885721E-03 -5.84224677E-03
  2.64276302E-03  2.51155625E-03 -5.90236742E-03  2.47564202E-02 -1.51618688E-02
 -2.87504649E-02 -6.44713902E-03  3.09053882E-02 -1.80921966E-02 -2.40600366E-02
  7.61014261E-04 -3.60466668E-03  2.96574272E-03  1.30178932E-03 -1.44586275E-03
 -2.27645478E-03 -5.70018705E-03  7.14656114E-03 -1.31245633E-02  1.44190123E-02
  8.34643983E-03  3.34709365E-02 -8.75990163E-03  1.52214911E-02  1.33990990E-02
 -1.44471371E-03  5.67260193E-04 -5.46293712E-03  6.16686155E-04 -8.80413536E-04
  1.43317307E-04  2.56923594E-03 -1.85556878E-17 -1.22760164E-02 -1.91614691E-02
  1.06351487E-01 -3.44985382E-02 -2.37705836E-02  2.35994392E-01  1.09392398E-01
 -3.50319509E-01 -2.91067085E-02 -1.00795512E-02  1.35230910E-03 -5.35917930E-03
  1.18095439E-02 -2.93661937E-03  5.42837511E-03 -3.21091419E-02  1.34615921E-01
 -1.00996092E-01 -1.45464901E-01 -1.08257871E-01 -1.70405732E-01  1.46228300E-01
 -5.31136057E-02 -2.83350929E-01 -2.83867460E-03  2.01280574E-02 -1.38905261E-02
 -3.12271316E-03 -2.90870776E-02  1.64924696E-02  2.17947717E-02 -4.99789222E-02
  4.88906992E-02  5.59302703E-02  2.14857458E-01 -7.44683895E-02 -3.82241281E-02
 -8.54628778E-02  1.38630223E-01 -3.54168492E-03  8.47995497E-03 -1.16206004E-03
  2.15135675E-02  7.97687220E-03  1.94330372E-02 -1.17088219E-03  4.76521303E-02
 -5.19650963E-02 -1.87351402E-02  6.65940668E-02 -1.58727995E-01 -2.88612065E-02
 -4.50152697E-02  3.62315660E-02  6.44202008E-03  2.92995506E-02  1.24881994E-02
 -1.04587285E-03  8.83621137E-03  1.00038947E-02 -1.58857348E-02  5.50903205E-02
 -6.30915618E-02 -3.03251218E-02 -6.54483924E-02  9.38898844E-02 -4.98417739E-02
  1.24296365E-02 -8.38543411E-02  2.35239250E-03  1.34213178E-03  1.08623723E-02
 -3.20429563E-03 -1.02900489E-02 -4.33449034E-03 -4.41830223E-03  9.79561928E-04
 -1.13744281E-17 -2.80462101E-02  6.62300072E-02 -2.52539447E-02 -3.95283217E-02
 -5.39289792E-02  9.48740893E-02 -1.57210182E-03  7.31086169E-02 -3.88899863E-02
  2.08775159E-03 -7.95282424E-03  1.91185077E-03 -1.35920983E-02 -6.00857964E-04
 -5.52114206E-04 -4.38159078E-02  9.08296638E-02 -1.00356222E-01 -1.31985008E-01
  5.12917700E-02  1.52972693E-01 -1.34342653E-01 -6.38405321E-02  9.18108100E-02
  1.10374562E-02 -2.93746187E-03 -1.15290362E-02  1.32687995E-02  2.75855347E-02
  1.59257663E-02 -1.89809480E-02  5.42985536E-02 -3.41371642E-02  3.33454620E-02
  3.24067517E-03  1.21938168E-01 -9.20250629E-03  4.65783599E-02  3.79342382E-02
  1.33138522E-02  2.86315303E-03 -1.04748674E-02 -6.43038936E-03 -3.65484702E-03
  9.97723747E-03  7.36353185E-03 -2.22579573E-02  1.06686137E-01 -3.87001966E-02
 -8.61466223E-02 -1.87286957E-02  8.08537040E-02 -4.03203200E-02 -7.01991922E-02
 -2.31715902E-04 -5.40015364E-03  1.33161673E-03  3.95006321E-03 -4.75053520E-03
 -5.12061861E-03 -1.56189892E-03  1.12903545E-03 -5.16752545E-02  3.67523773E-02
 -7.34407028E-02  8.97976264E-03 -2.48429760E-02  3.94752617E-02 -6.93164384E-02
 -1.48745271E-03  2.81801966E-03 -3.98975204E-03 -1.87139019E-03 -3.51631377E-04
 -2.92433120E-03 -3.30486517E-03  1.26257724E-02 -1.62267264E-02  2.71565743E-17
 -1.59386873E-02  3.09694293E-02 -2.81845053E-04 -4.55807730E-02  3.45993294E-02
  1.64863584E-01 -3.01748389E-02 -7.70205858E-02  1.23249103E-02 -4.73350891E-03
  7.97935052E-04  4.91661751E-03  2.27799023E-04  8.53159743E-04  3.55477132E-03
 -2.02382171E-02  1.05623367E-01  3.56832217E-02 -3.42735701E-02 -4.09133119E-02
 -6.47724856E-02 -2.82010060E-02  7.90133779E-02 -1.08639541E-01 -9.58029722E-04
 -3.79894260E-03 -1.03987107E-04 -9.37866482E-03 -2.07875872E-02 -9.76526791E-03
 -8.00855802E-04 -2.46066680E-02 -4.20912790E-02 -5.44623578E-02  1.64398990E-02
 -1.94223987E-02 -1.09122572E-01 -3.20693180E-02 -1.61779599E-02 -2.46211694E-03
 -4.36773122E-04  1.85454247E-04  1.89043567E-02  2.62167251E-03 -2.96090073E-03
 -1.75845418E-02  4.56009736E-02 -2.34402284E-01 -5.50580444E-02  3.94353359E-02
  5.99228918E-02 -1.54917253E-01 -2.43558378E-02  2.76496301E-02  2.59480266E-03
  2.61562017E-03 -3.98133108E-04 -6.99309363E-03  1.03461908E-02  7.86166389E-04
 -8.31887190E-03  2.89476862E-02  2.26102998E-02 -4.78302557E-02  4.24703734E-02
  5.69770323E-02  1.57365328E-02 -6.25869102E-02  4.15985782E-02 -2.13164223E-03
  7.71441600E-06  7.52042826E-03  1.90314243E-03 -1.16789071E-03  2.65159466E-03
  5.01619441E-03 -2.25309816E-02 -1.85704599E-01 -3.12578120E-03  8.13705475E-18
 -3.71716969E-02  6.67890916E-02 -7.40399934E-02 -1.02133795E-01 -1.12370100E-01
  1.24615653E-02 -2.56140741E-04  1.31723096E-01 -3.19028959E-02  9.00771659E-03
 -6.36351553E-03 -4.47311282E-03 -1.79019139E-02  6.88190045E-03  4.61636354E-03
  3.27218355E-02 -6.39007363E-02 -6.08091285E-02  4.23987491E-03  2.75166759E-01
 -1.15421198E-01 -2.27025748E-01 -7.38236498E-04  2.27146940E-01  2.15035953E-02
  2.57602486E-03 -1.49713054E-02  1.57926444E-02  3.73503462E-02  2.13452171E-02
 -2.34483712E-02  7.47108028E-02 -1.38638594E-01  2.43757403E-01  1.72834465E-03
  1.99414219E-01 -1.69973261E-01  1.22610265E-01 -1.48900939E-02 -4.89874521E-03
  2.12775786E-04  4.36850498E-03  1.18612562E-02 -2.98866791E-02 -1.57944522E-02
 -2.24466704E-02  1.19974658E-02 -1.56231903E-01 -1.31809623E-01  2.97036999E-01
  2.00879215E-01 -8.89647618E-02 -4.50609328E-02  1.60150142E-01 -9.42703307E-04
 -1.28134516E-02 -1.70992349E-02 -7.06635699E-03 -6.86901149E-03  1.16180133E-02
  5.73239102E-03 -1.00179390E-02 -3.04020565E-01 -6.87351882E-02 -3.33650344E-01
 -1.83767389E-02 -1.91752511E-01 -8.14746170E-02 -2.25099363E-01  1.83530175E-02
 -9.15991149E-03 -3.40679143E-03  3.98580536E-03  1.91451189E-02 -2.75813266E-03
 -2.28241691E-02  5.27115896E-02 -1.39062013E-01  2.09218348E-02  1.44147721E-02
 -2.75843780E-17 -8.63249347E-03 -1.87079690E-02  7.83701125E-02 -2.29190022E-02
 -3.09283349E-02  2.10662552E-01  8.46500994E-02 -2.87963736E-01 -2.14709495E-02
 -4.43503417E-03  1.78600692E-03 -9.36465068E-03  7.58100049E-03 -2.60310980E-03
  5.63755292E-03 -2.66940743E-02  1.15954204E-01 -7.07035351E-02 -1.10081825E-01
 -5.24308624E-02 -1.33725464E-01  1.33445438E-01 -3.65422535E-02 -2.27491218E-01
 -7.78228970E-04  1.79849216E-02 -1.50357528E-02 -3.12746686E-03 -2.32914658E-02
  1.76714813E-02  1.30436318E-02 -3.49426367E-02  5.07734678E-02  1.05835399E-01
  2.69204182E-01 -6.40076108E-02 -3.86370645E-02 -3.50137876E-02  1.47377368E-01
  6.39384165E-04  7.85576427E-03 -6.18737608E-03  1.49031062E-02  2.58915479E-03
  1.71634016E-02  3.99274707E-03  2.98071418E-02  7.92902459E-03 -2.07488217E-02
  1.80392387E-03 -1.20628099E-01  1.40989133E-02 -4.10925859E-02 -2.44967240E-02
  2.99251651E-03  2.60977775E-02  8.38579956E-03  3.97800188E-04  5.65031516E-03
  8.31915045E-03 -1.67438538E-03  2.52188885E-02 -1.14226684E-01 -2.58452465E-02
 -1.16281438E-01  1.10891051E-02 -7.36969074E-02 -2.15369604E-03 -1.19059982E-01
  7.36343706E-03  3.75160414E-04  1.20295562E-02 -4.46631763E-03 -6.79817051E-03
 -6.22130797E-03 -1.01573246E-02  1.58037007E-02  1.47853624E-02  1.91134227E-02
 -3.46438922E-02  1.22393550E-01 -3.71543136E-17 -2.05530319E-02  3.41789919E-02
 -3.00725792E-02 -2.25364579E-03 -6.32736789E-02  4.22984331E-02 -7.85795152E-03
  5.24383761E-02 -2.72970352E-02  4.89709571E-03 -3.62824996E-03 -3.64896589E-03
 -8.13269833E-03 -5.56561670E-04  1.33971684E-03 -1.87087477E-02  4.40541206E-02
 -8.96267948E-04 -7.82256116E-02  7.11352271E-02  9.54199122E-02 -5.52274121E-02
 -3.31841347E-02  6.61683371E-02  1.11593417E-02 -2.04512288E-03 -1.08228977E-02
  8.64038222E-03  1.64350607E-02  1.08139526E-02 -1.81752781E-02  6.34518660E-02
 -2.48585008E-02  6.46682316E-02 -5.21113863E-02  1.04655665E-01 -7.23584615E-03
  5.62370025E-02 -1.46251065E-02  9.22874595E-03  3.83053817E-03 -1.20601278E-02
 -1.14275075E-02 -2.48597715E-03  9.71391546E-03  7.54778019E-03 -2.66433957E-02
  1.81647399E-01 -7.89728678E-02 -1.29301671E-01  2.08423845E-02  1.29848582E-01
 -4.59820943E-02 -1.06304585E-01 -4.74376325E-03 -6.92476291E-03  3.66076227E-03
  6.95200501E-03 -4.37493523E-03 -5.27662781E-03  1.75012195E-02 -3.46563350E-02
 -1.35744076E-01  7.13795235E-02 -1.18536197E-01 -1.03318131E-01 -7.14763170E-02
  4.93094532E-02 -8.26310955E-02  8.54168342E-03  2.78323964E-03 -1.38113658E-03
 -4.04191146E-03  5.54339094E-03 -3.50619604E-03 -1.41322864E-02  3.35477458E-02
 -5.23728515E-02  1.30686305E-02 -1.67142838E-02  3.08177983E-02 -4.96807705E-02
  1.49169020E-18 -1.40643780E-02  1.25265570E-02  2.33850133E-04 -2.69007096E-02
  3.35135049E-02  9.56355745E-02 -8.53389153E-03 -6.72913302E-02  2.22644419E-02
 -3.61817280E-03  2.98768180E-04  3.59099179E-03  2.10412993E-03  9.17959338E-04
  1.88344084E-03 -7.85544859E-03  3.92138864E-02  2.53193527E-02 -6.35543678E-03
 -4.22639059E-02 -1.39298159E-01 -5.56021562E-02  4.77755146E-02 -8.84270907E-02
  7.10153891E-03 -5.73227105E-03 -4.59790699E-04 -6.26024690E-03 -1.05468025E-02
 -3.78937894E-03  1.27418458E-02 -3.66946883E-02 -1.44543473E-01 -3.22410393E-02
 -9.39444593E-03  2.17674125E-02 -1.52585740E-01 -2.45374826E-02 -2.19024973E-02
 -8.72382449E-03  5.11608492E-03  3.82293960E-03  2.93360022E-02 -9.74946141E-03
 -5.44051881E-03 -3.85106593E-02  8.37758101E-02 -4.61962562E-01 -2.08243747E-01
  8.65272487E-02  1.31057086E-01 -3.11152099E-01 -1.20956366E-01  5.65816598E-02
  8.03756640E-03 -1.03502704E-02 -2.45660800E-03 -1.61155604E-02  1.28854311E-02
  6.18235547E-03 -2.40826055E-02  5.49303071E-02  8.51116624E-02 -1.19039329E-01
 -5.71036272E-03  1.63630338E-01  4.55768334E-02 -9.87028840E-02 -4.24626868E-03
 -6.97668461E-03 -5.89235268E-03  5.09687839E-03  6.28055812E-03 -6.10081378E-04
  5.80486626E-03 -1.10929206E-02  1.40431132E-02 -2.68659659E-01  5.02907716E-02
 -7.43556643E-02  6.72346984E-02 -1.13071971E-01  4.45314272E-02  4.09945465E-17
  1.15681688E-03 -2.03158653E-03  1.02527907E-02 -4.15999927E-03 -3.17478615E-05
  6.37983864E-03  7.61143835E-03 -1.99062837E-02 -1.19543603E-03 -9.84331678E-04
  2.30946218E-04  2.83089822E-05  8.33082069E-04 -1.35987211E-04  2.23732874E-04
 -2.77011239E-03  7.48433969E-03  1.17651729E-03 -1.05261957E-02  4.02250127E-04
  3.67878198E-04  1.20630382E-02 -6.65398400E-03 -1.02782326E-02 -3.03246629E-04
  4.91530776E-04 -4.90299009E-04 -2.85899980E-04 -1.17216708E-03  4.90402643E-04
 -1.92572636E-03  2.85535842E-03 -5.34847849E-04 -9.25731649E-03 -4.16599599E-04
  2.58237581E-03  5.50616915E-03 -5.34139717E-03  1.74989607E-03  2.76601030E-04
 -1.99623696E-04 -3.12736867E-04 -7.85527947E-04  1.98966537E-03  1.82396237E-03
  2.63362192E-03 -1.48064846E-03  1.14854208E-02  6.94390251E-03 -1.11573403E-02
 -1.84326000E-02  8.39365767E-03  1.75448402E-03 -5.13795676E-03  1.08782020E-04
  1.61229835E-03  1.56377056E-03  2.72615435E-04  6.13181863E-04 -3.34007645E-04
  3.41238720E-04 -6.19969775E-04  1.16394544E-02  8.42658423E-03  8.97539938E-03
 -3.03143676E-03  8.46469502E-03  9.76169467E-03  4.71871834E-03 -5.43404712E-04
  7.63823881E-04  4.83873319E-04 -4.43046506E-04 -9.52311163E-04 -9.69663502E-05
  5.36275425E-05 -2.80171958E-04 -2.77841675E-03  3.00151001E-03  8.22889268E-03
  8.52045684E-03 -5.08113649E-03  3.44838293E-03  1.09823349E-02 -6.34395473E-19
  1.64146516E-03 -3.06308954E-03 -3.51845780E-03  9.16412102E-03  6.89195015E-03
 -4.95444174E-03 -2.51220931E-03  3.66511708E-03  4.11632017E-03  8.59536898E-04
 -2.24749234E-04 -5.23295129E-04  3.90818116E-05 -1.37705536E-04 -7.26080367E-04
  8.30147012E-04 -4.49814968E-03  2.73809124E-03  8.98190223E-03 -5.49433576E-03
  9.81641316E-04  2.23462576E-04  8.75921443E-04 -2.31088987E-03  1.18597743E-03
 -5.38416616E-04 -1.81510604E-04 -3.93415142E-04 -3.69943622E-04  1.40052868E-04
 -4.95161469E-04  4.31589127E-03  5.71547310E-04 -1.98770704E-03 -8.85442690E-04
  2.57778149E-03 -2.57538903E-05  3.34278158E-03 -2.73583918E-03 -1.74296798E-04
  4.31887789E-04 -7.07953490E-04 -6.28918387E-04 -1.42874841E-04  6.05963457E-05
  1.40996024E-03 -3.38994544E-03  3.66393846E-03  8.55644199E-04 -1.52718348E-02
 -1.58218341E-03  2.56819345E-03  3.47788087E-04 -1.12884680E-02 -2.41111899E-04
 -3.01669379E-04  3.04382124E-04  5.39286156E-05  9.84748885E-06 -6.15718083E-04
  3.27394423E-04 -7.58561699E-04  2.19665111E-03 -5.14984620E-04  1.39882810E-05
 -2.53646575E-03  2.10832418E-03  7.44301438E-05  4.11854329E-04  3.64934576E-05
 -2.00249913E-05 -1.50800794E-04  1.39224179E-04 -7.23691920E-05  6.98518186E-05
 -1.49690119E-03  3.55232158E-03 -1.50733949E-02  2.45249537E-03 -7.31151756E-03
  5.54380777E-03 -1.56202373E-02  1.59956041E-03 -4.81666343E-03 -6.91989588E-04
  1.18818287E-19 -6.18267111E-04  3.49995197E-03 -2.07870017E-03 -2.26689524E-03
  1.78670982E-03  7.79470781E-03 -2.92807403E-03  3.09675899E-03 -2.39599435E-05
 -3.89831578E-04  2.10258978E-04  5.03541869E-04  1.25403691E-04 -3.23656173E-04
  1.50075937E-04 -1.82246203E-03  3.75089047E-03 -7.65159054E-04  8.86135482E-05
 -1.01315445E-02  3.67221035E-03  1.81666562E-05  3.50248824E-03 -4.66625420E-03
 -1.62150409E-03  5.57672562E-04  8.45555350E-04 -1.03903709E-04 -1.01135140E-03
 -5.51455847E-04  2.09159712E-03 -6.85145800E-03  1.05914217E-02 -1.26743740E-02
 -3.09771113E-03 -1.17598464E-02  3.75681155E-03 -7.18370802E-03 -2.59230634E-03
  1.79193686E-04  3.34218172E-04 -2.76627047E-04  1.73735746E-04  3.14225226E-04
  1.16059821E-05 -2.23393216E-04  1.86313126E-03 -1.90568849E-03  2.00283987E-03
 -1.04628260E-02 -2.76145574E-04 -1.89046231E-03  2.37289226E-04 -5.72088018E-03
  9.49095102E-05 -2.14951564E-04  4.11377439E-04  3.15640282E-04  2.30725386E-04
 -6.13982027E-04 -1.21807929E-03  1.75843629E-03  1.00993571E-02 -2.32699332E-03
  1.65279070E-02  6.49698592E-03  4.95310263E-03 -2.67852578E-03  1.35759271E-02
 -8.96699409E-04  2.01707136E-04 -1.72088988E-04  2.07065772E-04 -5.21518637E-04
  3.99002347E-04  1.94929242E-03 -4.43119944E-03  1.87309612E-02 -5.74272745E-03
 -8.91073087E-03 -1.14712464E-02  2.09313903E-02 -3.37149918E-03 -1.88029626E-03
  1.08191815E-03 -1.66470677E-05 -1.26181083E-18 -3.23057110E-03  6.66338511E-03
 -6.60412205E-03 -7.05420554E-03 -5.79197549E-03  1.12665090E-02 -2.84889779E-03
  2.77195348E-03 -4.01757838E-03  4.82450010E-04 -5.88689322E-04 -5.41573722E-05
 -1.26228087E-03  7.08051834E-05  3.00504743E-05 -4.88746704E-03  9.32063614E-03
 -6.72822371E-03 -5.99347609E-03  6.57067137E-03  1.14302731E-02 -9.12671365E-03
 -3.16050497E-03  7.00047173E-03  4.51922683E-04 -3.34246254E-05 -7.74773739E-04
  6.35425598E-04  1.80809670E-03  1.50416650E-03 -1.90900553E-03  4.63321758E-03
 -3.42286901E-03 -2.82630020E-04 -7.69350295E-03  7.45959881E-03 -9.65091838E-04
  3.39301643E-03 -1.12013000E-03  4.29750380E-04 -2.20967398E-04 -4.45639705E-05
 -6.99296182E-04  3.46783176E-04  5.03696539E-05  2.27758158E-04 -9.81061901E-04
  7.10887001E-03  6.01508803E-04  1.34348736E-03  2.45911036E-03  5.16456775E-03
  7.63541024E-04  6.57289862E-04 -2.25933692E-04 -4.37139824E-04 -5.47963440E-05
  2.33464107E-04 -2.56143767E-04 -2.86624062E-04  7.82030010E-04 -1.72195745E-03
 -4.78131176E-03  4.60694235E-03 -4.17131317E-03 -3.22405400E-03 -2.36028741E-03
  3.12335660E-03 -2.53029195E-03  1.49651034E-04  2.45990417E-04 -2.37378454E-04
 -7.96351234E-05  3.74350086E-04 -9.60086424E-05 -5.60657779E-04  1.35331735E-03
  3.03370942E-03 -3.81447465E-03 -2.30393894E-02 -1.02347096E-03  2.07689618E-03
 -3.39219422E-03 -1.43545094E-02  6.55480267E-05  3.32730840E-04 -2.98365913E-04
 -3.95741389E-19 -1.19591300E-03  1.07205861E-03 -3.72298062E-04 -3.54948617E-03
  3.15133601E-03  7.81355737E-03 -1.61286888E-03 -5.92004928E-03  3.99291089E-04
 -2.81686153E-04 -4.06620490E-04  6.03303302E-04 -1.40845140E-04  2.20582114E-04
  5.09347525E-05  1.23437336E-03 -7.98108715E-04 -4.08517486E-03  6.64771559E-03
 -3.47658811E-03 -8.13973418E-03  1.43651897E-04  8.24012492E-03 -5.63630308E-03
 -7.37063338E-04  1.65519441E-04  6.13013256E-04 -1.06312633E-03 -1.22572766E-03
 -8.74905864E-04  3.37931404E-03 -5.57206236E-03  8.28335801E-03  4.13062475E-04
  5.84565931E-03 -6.35121543E-03 -1.47184823E-03 -2.56595038E-03  2.66990767E-03
  6.33933992E-05 -6.76583501E-06  9.13322784E-05  6.33189807E-04  1.96920341E-04
 -2.86098905E-04 -9.31384880E-04  2.51218242E-03 -6.13261263E-04  2.34989786E-03
  4.62202562E-03  1.09402845E-03 -5.88331639E-04  1.73126783E-03  3.12366086E-03
 -6.64487448E-05  7.25954934E-04 -1.49649446E-04  1.74333817E-04  1.43888196E-04
  2.16491843E-04 -5.86764027E-05  7.32389569E-04 -3.46724038E-03 -4.12455143E-03
 -4.74159180E-03  4.92031922E-04 -2.16757239E-03 -3.78998864E-03 -3.90910540E-03
  3.16219415E-05  7.75527400E-05  4.72251380E-04 -5.83634182E-05  1.70754441E-04
 -1.66243025E-04 -4.74680304E-04  2.59246380E-04 -3.69113344E-03 -1.70105645E-02
  1.49427001E-02 -2.54110830E-03  7.85147191E-03 -7.62185360E-03  1.15363124E-02
 -7.94674907E-04  7.60909518E-04  1.31445247E-03  1.08128867E-04 -9.59426467E-20
  2.61494021E-03 -6.52591876E-03  1.49943793E-03  1.24038409E-02 -1.76013804E-03
 -1.35886885E-02  4.67586380E-03  4.52156588E-03  8.37889093E-04  9.13947074E-04
 -4.46247687E-04 -6.66402805E-04 -2.69145992E-06  3.22332306E-04 -5.53673805E-04
  8.54805854E-03 -2.13165816E-02  8.62945861E-03  1.25755810E-02  1.34304772E-02
 -1.24248630E-02 -2.63452864E-03 -3.26984021E-03  6.76267753E-03  2.88504328E-03
 -7.07764255E-04 -8.29663884E-04 -7.42259266E-04  2.31000742E-03  1.21855300E-03
 -5.14511188E-03  1.49890217E-02 -1.15476669E-02  3.78243930E-03 -6.92668771E-03
  2.40791683E-02 -3.36460449E-03  8.72240378E-03 -5.94873257E-03 -4.03768974E-04
  1.26263447E-04 -6.65442481E-04 -1.66505750E-03 -2.02618915E-04  2.46952969E-04
  1.50577721E-03 -3.68879776E-03  1.26893475E-02  4.43107273E-03 -4.33914375E-03
 -2.65763277E-03  1.01568179E-02  3.09495715E-03 -3.03989686E-03 -4.46978192E-04
 -1.41565748E-04  1.62013981E-04  1.31923771E-06 -2.57318016E-04 -3.49549919E-04
  1.19427759E-03 -4.00438159E-03  3.23868252E-04  5.42209007E-03 -6.46578707E-03
 -7.45050870E-03  2.41353980E-03  7.32539916E-03 -5.14993019E-03  4.10623858E-04
  4.48764072E-05 -6.33530099E-04  2.98530739E-05  7.73466615E-05 -5.73570679E-05
 -2.87010186E-03  6.45557216E-03 -3.23066189E-02 -1.07814362E-02 -7.12004339E-03
  1.27781457E-02 -3.53025129E-02 -6.45300746E-03 -8.03055095E-03 -2.05000062E-03
  1.35766847E-04  4.78912147E-04 -1.82147076E-03  9.96362681E-05 -1.46302388E-20
 -1.76310430E-02  4.14426710E-02  4.15636794E-02  9.74687307E-02 -3.68672546E-02
 -8.80735787E-03  1.15571667E-02  8.34515787E-02  3.14363826E-03  7.86471652E-03
  5.75366480E-03 -1.15775803E-02  2.99231755E-03  7.43531244E-03  1.66034503E-02
 -4.82212547E-03  8.51801553E-03 -2.23539842E-03 -1.63225768E-02  2.08466533E-02
  4.68215518E-02 -1.24847985E-02  2.96743637E-02  4.90008006E-02 -3.53994953E-03
  1.02970077E-02 -5.61053387E-03  5.97038251E-03  7.69072150E-03  4.49956833E-03
  2.00933615E-03  5.15407296E-03  6.24563099E-03  2.11219982E-02  2.08717302E-02
 -3.53102692E-02 -3.51855166E-02 -1.43404252E-02  2.17758461E-02  2.38742078E-03
  1.09191078E-03 -3.94250114E-03  1.07049592E-03 -2.64039413E-03  1.51449128E-03
  1.22563721E-03 -5.23771808E-03 -1.61800521E-02 -2.43311546E-02 -1.78923441E-02
  2.09044747E-03 -3.84222517E-03 -1.34993573E-02 -1.91101402E-02 -2.76937261E-04
 -7.44027003E-04 -2.96792256E-04  4.37350490E-04 -8.20979533E-04 -5.73599958E-04
 -2.48127543E-03  1.14514396E-02 -2.28602803E-02 -9.43279812E-03  2.33905127E-02
  4.53502578E-03 -1.89688510E-02 -3.53440351E-02  2.30472786E-02  5.23981311E-03
  2.65049649E-03  1.33454039E-04  1.80247522E-03 -1.18617645E-03 -1.39775865E-03
 -2.10209969E-02  4.82880168E-02 -3.64872446E-02  4.87366262E-02  1.44610832E-02
  1.01937969E-01 -2.68468231E-02  2.15696623E-02  7.38102748E-03 -2.45419428E-03
 -2.84799138E-03 -3.53230622E-04  6.20630904E-03  3.00454069E-03 -3.82625014E-03
 -2.08339019E-17  2.35213711E-03  2.28365435E-03  2.06395105E-02  1.10414083E-01
 -1.55594823E-01 -4.20332521E-02  7.13013014E-03  9.28542825E-02 -4.36068429E-02
  1.07604993E-02  7.19883295E-03 -1.65565195E-02  1.82300610E-03  6.93874505E-03
  1.88979855E-02  4.33720953E-03  3.06271297E-03 -3.88379223E-02 -3.23011316E-02
  2.41278823E-02 -1.23095230E-02 -5.99374874E-02  1.86749427E-02  5.50044033E-02
  4.66882291E-03  6.29662000E-03 -8.52846481E-03  1.41651335E-02  1.21027278E-02
  3.17456224E-03 -6.32892173E-05  1.17593184E-02  7.32607986E-03  5.50096115E-02
 -1.46923567E-04  1.77385186E-02 -5.92649131E-02  3.91241732E-02 -1.12287059E-02
 -7.87141500E-04  9.35605940E-04 -1.51265455E-03  5.19587358E-03 -8.98907450E-03
 -8.93587225E-04 -1.37541674E-03 -9.09120453E-03 -3.38652716E-02 -5.62543995E-02
 -1.42576032E-03  5.79654224E-02 -1.99476946E-02 -2.14620239E-02 -1.58217633E-02
 -3.16405394E-03 -3.97603089E-03 -2.49063187E-03 -8.59327630E-04 -1.29721073E-03
 -1.14925891E-04  7.31018356E-03  2.65980457E-03 -1.06661630E-01 -5.77314278E-02
 -1.05190336E-01 -4.73504418E-02 -6.13568242E-02 -6.44211853E-02 -6.97388721E-02
  1.07046651E-02  1.64529547E-03  3.28660995E-03  3.09024854E-03  6.43695068E-03
 -6.91076559E-04 -5.50122212E-02  1.18513095E-01 -1.75626339E-01  1.45998180E-01
  1.55576962E-02  2.21432865E-01 -1.37252729E-01  7.21992884E-02 -2.91233530E-03
 -1.20658020E-02 -3.33536109E-03  2.18136621E-03  1.30056361E-02  3.33502900E-03
 -4.76853076E-03  1.22049003E-02  3.66894657E-17 -1.19545584E-01  2.33818891E-01
  4.97271793E-02 -1.91532485E-01  5.60839425E-01  2.11884187E-01 -1.43868036E-02
 -1.01399277E-01  2.86879945E-01 -2.90435766E-02 -1.21461490E-03  3.31450872E-02
  1.71013067E-02 -3.10940388E-02 -1.23609579E-02 -6.05501233E-03 -1.45674254E-02
  4.05538602E-02  2.98521807E-02 -8.31447377E-02  8.52562311E-02  9.74279250E-02
  2.66267287E-02 -4.21257168E-02 -1.40873163E-02 -1.15415539E-02  2.63565315E-02
  8.83686423E-03 -1.96323558E-02  8.81064210E-03  2.73564570E-02 -5.16196909E-02
  8.74794850E-02  4.05464340E-04  9.38715924E-02 -2.62811435E-01  8.12019085E-02
  2.31720604E-02  2.61407196E-02 -3.97396316E-03  2.83779243E-03  4.28167488E-03
  5.04962792E-03  9.36315415E-04 -2.61366791E-03 -8.47316828E-03  1.60445071E-02
 -8.58107389E-02  2.39541652E-02  1.68366015E-02  7.96131488E-02 -9.04666610E-02
  2.69529534E-02 -3.80912381E-03 -8.14234427E-04  2.67021569E-03 -4.98437367E-03
 -3.18942624E-03  1.31982945E-03  2.54623810E-04 -7.37562395E-04  9.64115188E-04
 -3.03628820E-02 -9.52197545E-03  4.80543397E-02  7.93493469E-03 -3.06335358E-02
 -1.81804198E-02  3.43618935E-02 -5.26250852E-04 -2.26129783E-03  1.43673247E-03
 -1.14265758E-03 -2.70342397E-03 -1.75076585E-03  1.34883464E-02 -2.94083569E-02
  1.18043553E-02 -2.56803425E-02 -5.49789581E-02 -3.63953938E-02  2.32132346E-02
  2.00812911E-02 -4.30280622E-02  9.42662780E-05  3.08104790E-04  6.39716283E-04
 -1.03672415E-03 -6.03577327E-03  5.43877413E-03  5.47240836E-02  9.15383840E-02
  5.70116874E-17 -2.56317986E-02  8.38647288E-02  2.54266638E-01 -1.95337055E-01
  4.47706451E-01  7.62816888E-02  8.51463507E-02 -1.12300169E-01  2.18729531E-01
 -3.56568960E-02  5.75577295E-03  3.03429692E-02  2.17831074E-02 -3.38719811E-02
 -5.25150265E-03 -1.23739631E-02  8.93600676E-03 -5.81490694E-02  6.57842280E-02
 -2.06911666E-01  8.59308727E-02  7.04576675E-02  7.97459391E-02 -9.32115661E-02
 -2.97634766E-02 -5.70964100E-03  3.17095449E-02  1.99142729E-02 -2.34642463E-02
  5.69518443E-04  5.84556653E-02 -1.36832127E-01  2.63506069E-01 -8.66478205E-02
  8.17615393E-02 -3.65258753E-01  1.33090207E-01 -2.66017566E-02  2.11804722E-02
 -6.07638229E-03  1.65356874E-02 -3.89042485E-03  1.35042664E-03  1.21890213E-03
  5.09515970E-03 -2.41824402E-03  1.07116761E-02 -3.90485561E-02  1.24375823E-02
 -2.05068947E-01  3.52789160E-02 -6.41869743E-02  3.32783449E-03 -1.50169531E-01
 -2.27433353E-03  1.40445499E-03  4.78151487E-03  3.22584591E-03  2.03881581E-03
 -7.53108523E-03 -6.51473967E-04 -3.71613720E-04 -5.93992892E-02  2.39579051E-02
  1.67681131E-01 -1.54700012E-03 -6.18780998E-02  3.58499479E-03  1.28834177E-01
 -1.22622501E-03  1.96253882E-03 -7.99060747E-04 -5.04029874E-03 -7.42404351E-03
 -1.08783304E-03 -1.59729182E-03  6.36814944E-03  7.47829950E-02 -8.25669802E-04
  4.94094144E-02  5.57988069E-03  1.01588494E-01  4.35860436E-02  2.34060965E-02
  1.14988891E-04  1.40594988E-04  3.27508789E-03  2.22458596E-03 -2.55881521E-03
 -1.70120537E-03  8.01770212E-02  1.37559348E-01  4.69881249E-03  5.51822001E-17
  8.15929435E-02 -1.70857151E-01  3.75649025E-01 -9.31473678E-02  1.66516941E-01
 -1.16591023E-01  2.46273394E-01 -9.14964776E-02  3.30190094E-02 -3.46237997E-02
 -3.56881657E-04  3.16207057E-02  9.91815740E-03  1.21257674E-02 -1.48399213E-02
  4.58527831E-02 -8.85456333E-02  3.63833064E-02 -1.22550797E-01 -3.90082611E-02
 -2.92310647E-01 -5.42436233E-02 -1.29737295E-01 -7.20730331E-02  4.14299149E-03
  1.98406304E-03  4.72166390E-03 -3.95498221E-03  5.86149816E-03 -3.75268596E-03
 -6.78135040E-03 -1.73974178E-02  4.18967569E-03 -4.88730435E-02 -1.22978506E-01
  2.51560640E-01  4.39290993E-03 -5.14937030E-02 -5.34107048E-02 -1.88178965E-03
 -3.91581009E-03  6.63121968E-03 -5.20037680E-03  1.41593810E-03  5.13657689E-03
  7.73347777E-03 -3.57169797E-03  8.83767947E-02  1.01036995E-02  3.38225167E-02
 -1.18014933E-01  7.39937207E-02 -1.27533789E-02  6.65091293E-02  2.95979954E-03
  1.56709169E-03  8.76880612E-03  4.30645645E-03 -2.09627230E-03  1.56017104E-03
  4.32953890E-03 -1.28564893E-02  3.90328348E-02  3.03290264E-02 -1.08171629E-02
 -3.15845410E-02  3.15478842E-02  5.54280978E-02 -6.02944525E-03 -4.75248143E-03
  1.73590212E-03 -4.62653194E-04 -1.46265342E-03  2.45143722E-03  3.98325088E-03
  1.06249699E-02 -1.85082236E-02  5.48641823E-02 -1.52497668E-02  7.56247377E-03
 -6.48912377E-02  2.90574067E-02 -2.34846287E-02  6.65670100E-03  5.92224113E-03
 -3.45584163E-03  1.66246819E-03 -3.78949353E-03  5.83750709E-05 -2.81991456E-03
 -3.69606714E-03  1.24034507E-02  2.39173773E-01  4.13098654E-01  2.45648462E-17
  2.02329471E-02 -6.57545464E-02  2.63615283E-01 -7.19705599E-02  3.54598195E-01
 -5.90488774E-02  1.76927610E-01 -4.26233804E-02  1.29191982E-01 -3.29438958E-02
 -6.03266972E-03  4.16345457E-02  1.05240980E-02  1.24469395E-02 -1.87671564E-02
  4.75369194E-02 -1.06615743E-01  4.76549531E-02 -1.36192922E-01 -1.90080892E-01
 -2.27259607E-01 -3.99255812E-02 -1.59362643E-01 -8.74609304E-02 -1.23716119E-03
 -6.91178111E-03  2.00583552E-02  1.41415045E-03  5.28086659E-03 -1.17091972E-02
  1.13813569E-03 -4.02303937E-02  4.77972267E-02 -1.35466701E-01 -2.32738967E-01
  1.97821986E-01  6.70377769E-02 -4.21602515E-02 -1.13953395E-01 -3.55210473E-03
 -1.02933900E-02  1.51548087E-02 -9.91931465E-03  6.67160018E-03  4.01383339E-04
  3.28331705E-03 -3.21502960E-03  1.35009785E-01  4.78697495E-02  4.67660116E-02
 -7.88785254E-02  9.34458715E-02  2.36171001E-02  8.72064717E-02  1.37450355E-04
 -2.01275675E-03  8.75447243E-03  5.80212352E-03 -2.86225584E-03 -8.12413451E-04
  6.88121467E-03 -1.54636248E-02  1.16373042E-01  1.59471762E-04 -6.58487551E-02
 -6.38158590E-02  8.83660602E-02  4.09582114E-02 -3.85249677E-02 -8.58560046E-03
  5.66834280E-03  2.22875715E-03  1.50182554E-03  9.11964705E-03  5.63675804E-03
  4.42779405E-03 -4.61852381E-03  2.75950620E-03  6.78267500E-03  8.52955182E-02
 -7.38489344E-02 -2.07368421E-02 -1.98928633E-02  3.75111848E-02  1.33238155E-03
 -6.07789495E-03  9.68613044E-03 -4.04095697E-04  2.39173698E-03 -1.46975675E-02
  3.10363471E-03 -1.85613274E-02  4.12842187E-01  5.08080956E-01 -3.04209011E-02
 -1.92819511E-17 -4.31857348E-02  1.10481286E-01 -2.76501016E-02 -7.23095899E-02
 -1.14572431E-01  1.89508970E-01 -5.82013003E-02 -6.41658623E-02 -6.95072335E-02
  9.05890379E-03  1.26698833E-02 -3.00003447E-02  1.54884068E-03 -9.74904182E-03
 -4.02543133E-03  4.71315977E-02 -8.26494222E-02  3.24364701E-02 -9.88735996E-02
  3.23949277E-01 -4.56729232E-02  9.00988468E-02 -3.16694993E-03  1.65906044E-01
 -5.87051088E-04  1.86949902E-02 -2.21953367E-02  1.94006753E-02 -3.00021900E-02
  1.70503080E-02  4.96379684E-02 -1.52406372E-01  8.84802982E-02 -5.27624208E-03
  1.52748334E-01 -2.04557786E-01  8.57043076E-02  2.08019205E-02  7.04786776E-02
  5.03251633E-03 -6.71870493E-03  7.71181942E-03 -2.21916335E-03 -1.21755460E-03
  3.63415189E-03 -7.40254879E-03  2.02490680E-02  5.59415079E-02 -5.56378197E-03
 -3.45659026E-02  4.93324977E-02  1.55624487E-02 -8.15246264E-03 -4.64849842E-02
 -1.78608957E-04  2.32238077E-03 -2.94294807E-03  2.29209508E-03 -1.39116575E-03
  2.07822815E-03  6.74970457E-03 -3.72779324E-03  1.01191852E-01 -4.35482850E-02
  6.35480534E-02 -7.29883029E-02  7.18955700E-02 -6.00894318E-02  4.07658269E-02
 -4.96746494E-03  5.24691492E-04  1.13928768E-02 -1.11583454E-03 -3.74294596E-03
  7.00345526E-04 -5.63025336E-02  1.31577812E-01  5.16561349E-02  1.30956401E-01
 -9.49068163E-02  2.71048239E-01  6.51784764E-02  1.11203574E-01 -5.45339168E-02
  4.00297143E-03 -4.09546811E-03 -1.42840626E-02  5.25186884E-03 -2.07948906E-03
  2.57964232E-02  4.80959787E-02  6.29483541E-02 -1.41845090E-01 -2.65895213E-01
  2.08061652E-02 -9.11361673E-02  1.00960380E-16 -5.92141121E-02  1.46576436E-01
  9.49780835E-02 -1.81651397E-01 -1.73980593E-01  2.31156779E-01 -1.71246990E-02
 -7.72803093E-02 -1.20647844E-01 -6.42690664E-03  1.91484196E-02 -2.11470863E-02
  5.86510592E-03 -1.55104264E-02  5.20522044E-03 -2.00637652E-02  4.22513672E-02
 -2.27973461E-01 -1.05933060E-01  2.63061403E-01  7.05462391E-02  7.80038461E-02
  6.30735865E-02  1.52229803E-01 -3.12184792E-02  3.17913017E-02 -1.59294609E-02
  2.51563750E-02 -3.92841375E-02  1.54619003E-02  1.03966084E-01 -2.60464982E-01
  4.05227626E-01  6.02727109E-02  1.73477779E-01 -4.77714753E-01  1.75476972E-01
 -6.62961827E-02  1.04028456E-01  1.18821655E-02 -2.81392224E-03  5.96111439E-03
  1.51979189E-03 -2.07773283E-02 -5.47785753E-03 -4.97343859E-03  1.92237806E-02
  2.08159916E-01  4.43841000E-02 -3.76041892E-02  3.48145453E-02  1.01327050E-01
  2.95048682E-02 -4.82006311E-02 -3.47486835E-03  1.10613499E-02 -2.63189753E-03
  1.50028959E-02 -9.65088680E-03  1.50760446E-03  4.43699272E-03  1.16921808E-02
 -1.92607292E-01 -1.98186953E-01 -3.19971615E-01 -8.11012334E-02 -1.42595443E-01
 -1.96553396E-01 -2.30165857E-01  4.67241011E-03 -2.97695156E-04  1.37436881E-02
  1.87276792E-05  1.63459003E-02 -5.93550220E-03 -6.89276389E-03  3.10302361E-02
  5.33406557E-01  1.56696215E-01 -2.50994600E-02  3.83720599E-02  4.73761868E-01
  1.32367484E-01 -5.50439076E-03  2.77864266E-02 -8.66087499E-04 -1.92028964E-02
  7.41077696E-03  4.02664137E-04  2.08545926E-02  6.26523622E-02  4.85297278E-02
 -1.75368885E-01 -2.61473771E-01 -8.41352819E-02 -2.59702171E-01  3.82612092E-02
 -1.33343225E-16  8.92117544E-04 -6.01801029E-03 -2.13535432E-02 -2.24046653E-02
 -4.12393933E-03  3.47940062E-02  3.56378300E-02 -2.97379202E-02  3.40868137E-04
  1.81622735E-03 -4.45154344E-03  1.01083666E-03 -1.85160515E-03 -2.15827716E-03
  3.20199744E-04 -1.17342518E-03  7.61887099E-03 -3.14886460E-02  1.40978831E-02
 -5.44876491E-02 -1.31883512E-02 -1.12546845E-01 -1.83050932E-02 -1.04008226E-01
  8.87237041E-04  3.12589989E-03  1.07560247E-03  2.01598698E-03  9.44594402E-04
  1.93480534E-03 -6.13960699E-03  2.16977726E-02 -1.02673729E-02 -2.10522850E-02
  3.82771358E-02  1.14681716E-03 -8.15436022E-02  5.79570455E-02 -2.22880396E-02
 -2.82408871E-02  1.84141551E-02  2.01402500E-03 -1.58498740E-02 -5.20241719E-03
 -8.13435555E-03 -2.10674137E-02  4.61958934E-02  1.54755828E-01  1.60269010E-01
 -7.70053784E-02  1.16432583E-01  1.29860753E-01  1.27699145E-01 -7.30044604E-02
 -1.30371359E-02  8.77407417E-03  4.61842452E-05  3.52255018E-03 -4.56048264E-03
 -6.81677412E-03 -4.51545313E-02  1.10586759E-01 -3.11242875E-01  4.18740864E-01
 -2.29348643E-01 -2.83363062E-02 -2.20481601E-01  2.16078886E-01 -1.09261212E-01
  1.95196918E-02  1.41239062E-02  7.14499664E-03 -1.88187120E-02  1.45008452E-02
 -2.35291595E-02  2.35737439E-03  4.01055527E-03  3.31987487E-02 -1.40876721E-02
  2.80345834E-02 -4.84217456E-02  6.60434280E-03 -5.56817147E-02  7.96503021E-02
  1.35954366E-03  5.47444621E-04  3.83758401E-03 -2.34253272E-03 -9.90969375E-04
 -5.62098991E-04 -1.79911298E-02 -1.37175937E-02 -2.49870192E-04 -6.96377183E-03
  9.30526825E-03  1.58550377E-02  1.27170273E-02 -1.00334605E-01 -3.50304650E-17
 -9.18445608E-03  1.77768173E-02 -1.61579241E-03 -6.09954323E-02 -5.77571841E-02
  7.66876419E-02  2.69165532E-02 -5.42387974E-02 -2.76015609E-02  1.36178806E-03
  1.65665374E-03 -5.33610976E-03 -1.97016053E-03  1.36759435E-04  3.42920895E-03
  4.16085805E-03  9.36441338E-03 -9.48907638E-02 -3.93157787E-02  1.09745009E-01
 -1.11073309E-02 -8.00788204E-02 -2.29449577E-02 -2.54197568E-02  4.30723145E-04
  1.03977932E-02 -9.76328010E-03  3.29493188E-03 -3.31562374E-03  7.55415538E-03
 -1.98657198E-02  5.44355445E-02  7.20385713E-02 -8.44699518E-02  3.49366936E-02
  9.30083154E-03 -1.49322710E-02  2.57193948E-02 -2.40009308E-02 -2.06965068E-02
  1.02181490E-02 -1.95104039E-03 -2.05068616E-02  3.58505710E-03 -1.75263404E-03
 -6.22281822E-03  1.67182083E-02  2.51321939E-01  2.52388004E-01 -1.32581986E-01
  1.96560706E-03  1.85502115E-01  1.59184705E-01 -9.08870293E-02 -1.21488430E-02
  1.44342022E-02  4.75396492E-03  6.98258546E-03 -4.11288742E-03 -1.20031305E-02
  3.46882382E-02 -8.32505782E-02 -2.48321279E-01  2.64324169E-01  2.36084570E-02
 -1.92370955E-01 -1.76869529E-01  1.52606981E-01  5.73326776E-02  1.71062635E-02
  9.38174200E-03  1.23397183E-03 -9.86522574E-03  4.15193418E-04 -9.05302969E-03
 -7.33685501E-03  1.93653526E-02  1.24505256E-01  3.98798166E-02  6.05409895E-03
  2.61509262E-02  7.69949841E-02 -1.55536759E-02  7.73524614E-02  3.25504588E-03
 -3.89832108E-04 -2.73788435E-03  6.20543625E-04 -5.60399542E-04  4.21893689E-03
 -1.87058258E-02 -3.72426784E-03 -2.67098557E-02 -6.09592370E-02  3.78487748E-03
 -5.19842057E-03 -8.58487730E-02 -1.63117386E-01  4.07211056E-03  3.13860126E-17
 -4.38548461E-03  1.36563769E-02 -1.35691816E-02 -1.15501731E-02  2.22175762E-02
  5.36196203E-02 -5.02669968E-02 -1.61723798E-02 -6.59826154E-03 -3.97907607E-03
  1.03556960E-03  4.71024014E-03  2.43479817E-03 -1.89836816E-03  1.23679174E-04
 -9.44690161E-03  3.86841239E-02  4.77814176E-02  8.94911458E-03 -9.18303623E-02
 -6.90797299E-02  9.24690820E-02  1.19632202E-01 -5.75787948E-02 -2.25251326E-02
  1.49439384E-02  1.04865661E-02 -2.83903924E-03 -3.18497287E-02 -2.76425330E-02
  3.56317815E-02 -9.82057869E-02  1.10541402E-01 -4.56149797E-02  4.87404019E-02
 -1.74615062E-01  2.36456699E-02 -9.13220996E-02  2.34981447E-02  1.75667325E-04
 -1.57252910E-03  3.42701638E-03  9.73922664E-03  6.30965214E-03 -3.24676893E-03
 -4.72349612E-03  1.88695299E-02 -3.75163452E-02  2.47329868E-02  2.61986356E-02
 -1.76199350E-02 -3.35729089E-02  1.37775628E-02  2.58453786E-02  3.03468796E-03
  6.14546323E-03 -9.76805033E-05  2.65123989E-03  2.81828004E-03  1.63907993E-03
 -3.14323976E-03  1.27121115E-02  6.35602073E-03 -3.74346620E-02  6.04863408E-02
  2.80876487E-02 -9.72233170E-03 -5.18126310E-02  5.58145597E-02 -2.06157438E-03
  4.11617903E-04  5.12848856E-03  1.58345398E-04 -1.16145612E-03  4.77018202E-04
 -9.60552624E-02  1.90822622E-01  2.03472509E-01 -2.91762763E-01  6.93357262E-01
  1.42447815E-01  3.02273544E-01 -1.41686749E-01  4.29504463E-01 -5.15155837E-03
 -2.41270628E-03  3.07517939E-02 -1.58238310E-03  1.72909165E-02 -3.11270447E-02
 -3.02330991E-03 -1.07979491E-03  2.59883071E-02 -5.03054513E-03 -8.35369572E-03
 -9.16127228E-02  1.78293350E-01  2.06198446E-01 -6.54628283E-03  4.20881637E-02
 -1.96722712E-16 -1.09972064E-04  7.46856943E-03 -2.03935637E-02  1.06827821E-02
  3.67913399E-02  1.82534457E-02 -6.34072054E-02  8.98795677E-03 -1.83489431E-03
 -1.72018496E-03  1.18336696E-03  2.32729361E-03  2.08119045E-03 -5.99590384E-03
 -7.70725245E-04 -3.92268866E-02  9.20262135E-02  8.55382810E-02 -2.61744111E-03
 -1.63961753E-01  1.86032585E-01  1.79189914E-01  5.91411221E-02 -5.18190044E-02
 -3.01158342E-02  6.90085770E-03  1.47272538E-02 -2.35185940E-03 -2.88874363E-02
 -2.29253460E-02  2.70717389E-02 -7.47292884E-02  2.32336780E-01 -4.72167464E-02
  1.29571170E-01 -2.24493267E-01  1.75160437E-01 -4.47418819E-02  6.92886715E-02
  1.37457894E-02 -9.38742482E-03 -3.14512966E-03 -2.12850442E-02  2.21844772E-02
  6.93887768E-03  3.29357199E-02 -5.42228195E-02  3.84793632E-01  2.10382586E-01
 -1.46762795E-01 -1.39433820E-01  2.50964654E-01  1.17324410E-01 -9.81668503E-02
 -5.47863621E-03  1.90682202E-02  3.97852390E-03  1.62597007E-02 -5.91320568E-03
 -6.01030265E-03  2.60095022E-02 -4.69255699E-02  9.28795427E-03  9.14533125E-02
  8.51271340E-02 -1.75246100E-01  1.50691944E-02  4.27389290E-02  6.45234915E-02
  8.09793535E-04  8.52437219E-03  7.36130922E-03 -7.91652709E-03 -3.40693013E-03
 -6.15915990E-03  2.33013274E-02 -5.71456812E-02  3.29677450E-01 -1.50547220E-01
  4.25231595E-01 -1.56369504E-01  3.50912334E-01 -6.91492556E-02  2.54377532E-01
  1.42985043E-02 -2.70068625E-03  1.32000982E-02  2.30332176E-03  1.10120982E-02
 -1.91162388E-02  1.00985116E-02  1.70311704E-02 -7.85639927E-03 -2.19404799E-02
 -1.16452776E-02 -9.25167947E-02  2.53262659E-01  2.17974510E-01  6.91071275E-02
  1.49667519E-01 -1.20643773E-02 -3.46607171E-17  3.60457651E-02 -8.03596939E-02
  1.22915055E-02  1.09569799E-01  4.15570397E-02 -2.05285679E-01  1.64398998E-02
  1.57114534E-02  4.84948836E-02  1.69302195E-03  4.41071982E-03 -5.45360019E-03
  1.05110177E-02  8.82637776E-04 -1.56112948E-03  1.73358225E-02 -5.58917520E-02
 -4.68916140E-03  6.45922824E-03 -2.41417805E-02  5.26361381E-03  1.10464501E-02
 -5.59829944E-02 -2.38839960E-03  1.62318620E-02 -1.38308242E-02 -1.87794893E-03
  2.13370682E-03 -5.81419871E-03 -7.05772578E-03 -1.20800159E-02  3.83278917E-02
 -4.04612975E-02  2.61381119E-02 -1.50739153E-02  3.50986105E-02 -2.63030230E-03
  3.72743158E-02 -3.61455958E-02 -5.80197616E-03  1.72478526E-03  6.49823712E-04
  1.86424646E-04 -1.21576809E-03  1.04567637E-03  6.89831232E-04 -2.42407357E-03
 -7.20587243E-03 -1.52820503E-02 -5.22536906E-03  9.77482012E-03 -4.82615899E-03
 -1.25811685E-03 -7.95226328E-03 -1.52690320E-03  4.38446540E-04  1.76737676E-03
 -3.01017471E-03  7.54197203E-04  1.10585326E-03 -3.86163800E-05  1.87446101E-05
  5.05184172E-03  2.14903169E-03 -7.96876448E-04 -1.74473564E-02  9.10241765E-03
  2.04873820E-02 -1.76157139E-03  3.04667337E-03 -1.22578668E-03 -1.05071878E-03
  6.80117230E-04 -1.30699632E-03  6.70516881E-04  7.60697830E-02 -1.54641034E-01
 -2.91516218E-01  4.03726306E-01  3.49255171E-01 -8.59949300E-02 -3.07394246E-01
  2.08029505E-01  1.73851175E-01 -5.40787199E-03 -1.20100731E-02 -1.03221563E-03
  1.53951227E-02  1.56372289E-02 -2.37695930E-02  5.91543334E-02  1.39057302E-01
 -3.94417304E-02  1.25364242E-02 -1.17161086E-02  6.90692797E-02 -1.95731225E-02
 -3.14505482E-02 -1.00654507E-02 -2.31399691E-02  9.85428833E-02  1.42321133E-01
  6.18970462E-17  4.03794766E-02 -9.37532500E-02 -4.35173842E-03  1.91751879E-01
  7.31812790E-02 -1.92331158E-01 -1.08589811E-03  4.13835069E-02  6.87045200E-02
  5.49537481E-03  2.99744093E-03 -5.90465879E-03  1.08843651E-02  7.21081537E-04
 -4.24126118E-03  2.42658316E-02 -7.25239646E-02  5.77647681E-02 -1.20072467E-03
 -7.40738337E-02 -5.69679551E-02  1.86156906E-02 -2.96918113E-02 -4.14207573E-02
  2.19109947E-02 -1.35077230E-02 -3.11152007E-03  1.03269881E-03 -2.76447490E-03
 -9.25594617E-03 -1.19892606E-02  4.00091071E-02 -1.21752970E-01  1.79275800E-02
 -4.92132396E-02  7.43889875E-02 -4.94079641E-02  4.86811717E-02 -5.29849282E-02
 -5.80709119E-03  8.19251329E-03 -4.86971902E-03  4.72676126E-03 -2.88761590E-03
  3.04354385E-03 -1.50697248E-02  2.61767802E-02 -1.24953632E-01 -1.66270924E-01
 -1.00820258E-01  8.43310733E-02 -8.42070613E-02 -9.36925894E-02 -7.95985685E-02
 -1.66316127E-04 -1.22032811E-02  2.96529236E-03 -6.83098452E-03  5.28492583E-03
  6.81120068E-05  1.47535117E-03 -5.63859290E-03  2.69157523E-02  8.14612521E-03
  8.20774773E-03 -6.38202781E-03  2.62880325E-02  1.95177412E-02  3.52668315E-03
  2.00594251E-03 -3.24359381E-03 -5.19556821E-04 -1.94126774E-04 -1.58798148E-03
  2.23349303E-03 -2.41374882E-02  5.73532166E-02 -3.68487413E-01  2.53969056E-01
  1.56180801E-01  1.63758973E-01 -3.45665581E-01  1.45501262E-01  5.69521723E-02
 -1.61647421E-02 -7.19006319E-03  2.51150704E-03  9.62877519E-03  5.01170813E-03
 -1.34151232E-02  8.59072953E-02  1.56569441E-01 -4.25434841E-02 -4.46508345E-03
  4.22955468E-03  8.83862485E-02 -2.71833601E-03 -2.55027779E-02 -2.00432129E-02
 -3.33925395E-02  1.31548369E-01  1.05803376E-01  6.44467335E-03 -3.11407530E-17
 -3.64205072E-18  1.74326856E-03 -1.91903983E-17 -1.40826599E-02  1.70356245E-02
 -5.69888237E-18 -3.99653258E-04 -1.23370077E-02  2.84496843E-01  4.69831713E-17
  3.17276247E-03 -1.21577618E-02  3.72342644E-02  1.37296337E-02 -5.46807427E-17
 -4.27685453E-03  1.89409996E-02 -1.18487228E-01 -2.93159745E-02 -5.69593997E-03
 -1.42271528E-17 -1.11913072E-02  1.82593066E-02 -4.70125454E-02 -1.58330726E-01
 -5.99984947E-02  1.20153471E-01 -1.46511384E-17  2.12789775E-02 -4.23069736E-02
  2.44353830E-01  9.19852456E-02  4.98961610E-02 -1.37237365E-01  1.22859893E-01
  3.02016241E-17  4.73704642E-03 -1.57250473E-02  4.56162648E-02  3.88666612E-02
 -2.37449642E-03 -7.10068673E-03  4.97889237E-02 -2.73186244E-02 -8.11548628E-18
  8.77551328E-05  5.68356440E-04 -1.99271941E-02 -2.84074388E-02 -8.37539770E-03
 -1.96329206E-03 -1.09459908E-02 -1.02986779E-02 -3.90449843E-03 -1.39045752E-18
  1.88968492E-04 -1.49379673E-03  1.57549152E-02  3.04932393E-02  8.44913046E-03
 -2.38927506E-03  8.20462336E-03  9.10359005E-03  2.65400546E-03  1.28096968E-03
 -4.92907321E-20  7.02869300E-05 -1.58802301E-04  9.59018433E-03  3.23121390E-03
  7.28429315E-04  1.49999334E-03  7.00158595E-03  1.47504956E-03  1.70552459E-03
 -9.53424934E-04  9.55013780E-04 -7.72089592E-20 -5.70692395E-04 -1.76177820E-04
 -3.59961838E-02  5.32770695E-03 -2.84387707E-03  6.31014512E-03 -1.45510280E-02
 -5.38067414E-03 -2.75671919E-03  4.45213951E-03 -3.40078496E-03 -8.88129089E-04
 -1.37642146E-18  2.23996541E-05  9.33162046E-05 -6.41528414E-03 -1.04815047E-04
  1.24689415E-02 -3.08113610E-03 -4.36644567E-03  2.24377671E-03  6.54707965E-03
 -1.01108613E-04 -5.45612018E-04  8.57560809E-04 -1.27200185E-03  3.85501166E-19
 -1.44216986E-04  1.87028086E-04 -3.98259540E-03  6.27733844E-03  8.80689963E-04
 -3.62422595E-04 -1.75477568E-03  3.13217634E-03  7.76301089E-04 -4.87157799E-05
  6.05550180E-04 -4.63556519E-04  8.67286777E-04  6.24501406E-04  2.66266910E-19
  8.14175951E-03 -1.59298803E-02 -5.47556031E-02  2.42927425E-02  2.68000719E-02
  2.98567608E-02 -4.32767282E-02 -2.63926081E-02  3.41233869E-03  7.76804687E-03
 -1.06134559E-02  2.87692763E-04 -6.16752510E-03  4.66521107E-04 -7.28208668E-03
 -6.51223285E-18 -1.34051738E-02  2.07065847E-02  1.13600343E-01 -4.76418342E-02
 -6.46593385E-02 -4.40704686E-02  6.20313740E-02  4.35315297E-02 -1.82653485E-02
 -1.75289966E-02  2.17132287E-02 -1.97155037E-03  1.33974514E-02  8.68312174E-04
  1.48446466E-02 -1.98822996E-03 -3.53419428E-17  1.09548569E-02 -1.30016612E-02
 -6.12387206E-02  1.50982603E-01  8.43787192E-02  5.58307971E-02 -2.88206398E-03
 -1.46727115E-02 -3.97328779E-02  2.08467519E-03 -6.20299877E-03  5.51027754E-04
 -2.01758514E-02 -5.56020493E-04 -1.67881532E-02 -8.50502635E-03  2.40183151E-03
  6.51443653E-17 -6.79944963E-02  1.36246706E-01  9.63727671E-02 -1.74936450E-01
 -1.83444589E-01  2.12168562E-01  7.13582563E-02 -1.38295095E-01 -9.46441812E-02
 -1.59901431E-02  7.92871495E-03 -9.67660867E-04  1.52445641E-03 -3.61380257E-03
  7.30470749E-03 -3.53120631E-03 -4.35643631E-03  3.70260767E-01 -1.80277421E-17
 -3.84681126E-02  9.08895956E-02  9.03646634E-02 -1.44171509E-01 -9.78906407E-02
  6.26148548E-04  1.07153974E-02 -4.73037506E-02 -4.31929866E-02 -1.66319346E-02
  2.44678812E-02 -1.11302812E-02  9.38144789E-03 -3.44549099E-03  1.50236328E-03
 -2.40698243E-03  1.22008887E-02 -1.13162498E-02 -1.71775931E-02  6.43178198E-17
  4.18581078E-02 -5.89750599E-02  3.88324316E-01  1.73615885E-01  5.33011945E-02
 -2.66017522E-01  2.22001231E-01  5.94159828E-02  5.26602230E-02 -2.37905390E-02
  3.15352223E-02 -6.73189104E-03  2.58567359E-02 -5.52235730E-03  1.16617806E-02
  1.18706408E-02 -5.83121205E-02  1.72037081E-02 -4.31410264E-02  4.85691866E-03
  1.00237505E-16 -1.32637995E-02 -7.81659479E-03 -1.12397389E-01  8.67698863E-02
  1.43391476E-01  9.87171327E-02 -7.93869181E-02  8.79155944E-02  3.04045497E-02
  3.94118451E-03 -2.90146490E-03 -5.27212960E-04 -1.20741824E-02  2.86671706E-03
 -1.07089209E-02  2.83279375E-03  3.73171135E-04  5.98191307E-03 -3.20771591E-01
  6.06670474E-02  1.19956650E-01 -1.09307640E-17 -2.35281712E-02  3.11673391E-02
  8.44394571E-02 -2.49150110E-02 -6.72398926E-02  1.44935448E-01  1.23379789E-02
  1.48082317E-02 -3.82647817E-02 -7.29556353E-03  7.65135613E-03 -2.22276843E-03
  4.19180276E-03 -2.00290484E-03  3.14992129E-03 -2.59856050E-02  5.89922420E-02
  2.13683447E-01 -8.42345719E-02 -2.99063977E-02  1.51094572E-01  2.60321399E-01
 -6.95290516E-17  9.06418049E-03 -3.96435515E-03  1.60928739E-01  9.83038287E-03
  3.61826231E-02 -1.45186920E-01  7.98852348E-02 -4.04855591E-02  3.37472691E-02
 -1.14181211E-02  1.44041818E-02 -2.50733718E-03  1.35873888E-02 -4.47116707E-03
  3.87565646E-04  6.77201658E-03 -2.75860285E-02  4.34525324E-03 -1.08519512E-03
 -5.58123032E-02 -4.21205969E-02 -5.03289532E-02  1.67090532E-02  1.07558138E-17
 -3.88382374E-03  7.01130264E-03 -1.13761903E-02 -6.85704568E-03 -1.51014891E-02
 -3.40042285E-03  3.80372715E-03 -2.69122276E-02 -6.92332548E-03  1.25904844E-03
 -1.46665945E-03 -2.41996244E-04 -2.34565167E-03 -1.37027879E-04 -6.61530385E-04
  4.88916925E-03 -1.00039855E-02  3.13596033E-02  4.23827644E-02  9.72271249E-03
 -3.94536077E-02  3.12126958E-03  2.71033430E-02 -8.53190699E-03 -8.12271645E-21
  3.17714874E-03 -7.33285903E-03 -8.40349172E-03  1.70934626E-02  8.24081803E-03
 -5.59936010E-04 -1.33104769E-02  2.51249245E-02  3.29996140E-03  1.21711963E-03
  2.09553463E-04 -7.15380234E-04  8.18664652E-04  7.76738574E-04 -3.92938561E-04
 -3.12513344E-03  6.46681053E-03 -1.42007016E-02 -3.64135669E-02 -1.01778058E-02
  2.51502881E-02 -2.79237105E-03 -2.16614180E-02  5.22502926E-03  9.84976969E-04
 -6.47169879E-19 -3.00035651E-03  4.47995466E-03  8.12185892E-03 -7.60451078E-03
  7.70724694E-03  1.02918300E-02  5.38766216E-03 -1.22885950E-03  3.00675796E-03
 -1.17256978E-03 -4.22240605E-04  1.33268391E-03  3.77688950E-04 -5.72234051E-04
  2.42024683E-04 -1.09257313E-03  1.47794095E-03 -5.86319617E-03  2.52188353E-03
 -1.53421111E-03  9.21305496E-03  3.82103184E-03  1.46279275E-03  3.93841356E-04
 -1.79244964E-03  1.05475124E-03  6.91206810E-20  1.38018749E-02 -2.81689068E-02
 -2.78891591E-03  2.16390948E-02  2.82067087E-02 -3.79858584E-02  1.80241655E-03
  2.45082163E-03  1.72364221E-02  1.99457797E-03 -6.45652004E-04 -2.90597943E-04
  1.94117999E-03  4.50570234E-04 -6.73552304E-04  5.27811229E-03 -1.16808219E-02
  3.79437809E-02 -1.20400096E-02 -7.09860720E-03 -2.58559663E-02 -4.94735862E-04
 -1.29319146E-02 -1.04780936E-02  7.46163922E-03 -4.46101548E-03 -1.10119176E-03
  4.47984657E-19  6.27616182E-03 -1.15692906E-02  6.72763834E-03  1.18517590E-02
 -4.76906009E-04 -1.94359186E-02  3.55951579E-03 -3.31013325E-04 -9.37016729E-04
  2.85000495E-04 -1.80639422E-04  9.58897298E-06  6.62437700E-04  1.95534970E-05
 -1.91174371E-04  2.30218744E-03 -5.53604912E-03  3.02736096E-03  5.32709994E-04
 -1.55509010E-02 -1.58302384E-02 -1.73791860E-04  8.17722975E-03 -4.99143013E-03
 -2.33229118E-04 -5.48988705E-04  8.57063283E-04 -1.20458895E-03  8.39876731E-20
 -3.01538763E-03  5.89784218E-03 -3.41947051E-03 -7.75671340E-03 -9.82410313E-04
  3.50967497E-03 -2.40186095E-03 -5.44853748E-03  1.08840315E-03 -1.71676987E-04
  4.29989433E-04 -2.64646080E-04  1.59091135E-04  1.61708795E-04  2.17443037E-05
  1.57487573E-04  3.41324728E-04  5.75412589E-03 -5.81917844E-03  6.34502526E-05
 -3.76090136E-03 -3.79470767E-03  1.38286512E-04  2.11676181E-03  1.31022915E-04
  5.24971547E-04 -3.02215271E-04  8.95892127E-04  1.69080534E-03  2.36456614E-19
  1.08938083E-02 -2.01097012E-02 -2.32596672E-02  9.62522551E-03  3.07163446E-02
 -1.95915035E-02 -4.61448614E-02  2.90084167E-02  1.09090425E-02  5.20908106E-03
 -1.02714479E-03  1.92228154E-04  2.80353876E-03  1.22855615E-03  7.82760781E-04
 -3.86024603E-03  1.16749175E-02  9.26598046E-03 -4.10814812E-02  6.51458602E-03
  4.51648704E-02  2.66524533E-02 -5.74784572E-02  1.67817674E-02  7.39896810E-03
 -1.56795670E-03 -5.59518217E-03  1.98150373E-02 -2.25586862E-04  2.75276949E-03
 -2.07324752E-18 -2.23891559E-02  5.01140069E-02  9.49065528E-02 -1.06540103E-02
 -5.70405441E-02  4.01876328E-02  1.01170385E-01 -5.47962512E-02 -3.41504915E-02
 -1.07186701E-02  2.44294030E-03  2.28259256E-03 -4.45215361E-03 -2.98478960E-03
 -9.23671700E-04  1.22086499E-02 -3.82867836E-02 -1.68945964E-02  1.28308242E-01
 -1.06090269E-02 -1.05250626E-01 -1.15468008E-01  8.10557360E-02 -3.19554036E-02
 -1.22686668E-02  1.58425663E-03  1.17768731E-02 -3.96568424E-02  1.34212488E-03
 -4.78206113E-03 -6.71762332E-03  1.62472461E-17  5.74261536E-03 -2.44037901E-02
 -2.48456490E-02  5.83185541E-03  5.71577384E-02  1.13759668E-01 -5.01461266E-02
  1.27944449E-01  5.96646344E-02  2.51777969E-03 -3.53732345E-03  6.66921935E-04
  1.03046828E-02  2.01402834E-03  3.92485352E-03 -1.77820518E-02  4.59224678E-02
 -2.43487190E-02 -3.06168486E-02 -2.64281860E-02  2.47228930E-01 -4.06474045E-02
 -1.29734584E-01 -1.43080897E-03  1.07612803E-02  4.54468774E-03 -7.76584578E-03
  3.88930027E-02 -1.01295244E-03  2.46464043E-03 -1.42544931E-02  6.38623381E-02
 -3.56041731E-17 -2.52697745E-02  6.00627446E-02  1.07414017E-01 -7.14345557E-03
 -4.36778376E-02  1.00221800E-01  3.03318932E-03  6.82469449E-02 -5.21682906E-02
 -1.27320392E-02  7.33034318E-03  2.29954031E-03 -5.88438782E-04 -2.67331484E-03
 -5.74669187E-04  1.56695371E-03  2.29803663E-02 -1.15502409E-01  5.46913710E-02
 -3.00046767E-02  6.35697019E-02 -1.71037162E-01 -1.38344175E-01  7.89980755E-02
 -1.75353285E-02  7.96553082E-03  1.68486712E-02 -5.61409538E-03 -1.00279082E-02
  5.80204045E-04 -1.50049426E-03  6.14175025E-03  4.79626771E-01 -2.20242485E-17
 -4.44582458E-03  2.26327432E-02  5.79433131E-02  4.07310055E-02 -1.94661051E-03
 -7.15394450E-02  6.09991367E-03  1.23087263E-01 -1.44403278E-02 -1.15726439E-02
  4.47456941E-03  3.99422018E-03  1.43499328E-02  2.36690958E-03  1.37172230E-03
  3.74376814E-02 -1.01403847E-01 -2.49409382E-01  2.22685537E-02 -8.19605857E-02
 -1.36029686E-01 -1.04206915E-01  1.49319711E-01  1.28884486E-01 -7.23957303E-03
  6.42144025E-03 -1.95313804E-03  1.74007076E-02 -4.65167955E-04 -8.37497612E-03
  1.67147805E-02 -3.36993345E-02  6.26982076E-02 -3.39947990E-02 -5.64886520E-17
 -4.91900904E-02  9.37234629E-02 -4.79140315E-02 -1.90747914E-01 -2.59116844E-01
  8.96677432E-02  3.44954548E-02 -2.24973906E-01 -1.66854168E-01 -3.37459572E-03
 -1.01200100E-02  5.07081193E-03 -2.32074587E-02 -5.08234283E-03  1.36498265E-03
 -7.21118532E-03  3.48038387E-02  2.14966512E-02  3.66169003E-01 -7.02052634E-02
 -1.54901425E-01  4.24325871E-02  2.82569359E-01 -9.26939057E-02 -5.43034711E-02
  1.78881863E-02  3.03646193E-02 -6.81009131E-02 -6.72968703E-03 -1.22410818E-02
  3.72056204E-02 -1.22464823E-01  8.60888256E-02 -7.22844008E-02  2.40987880E-01
 -2.40001837E-17  9.02481795E-03 -2.52325295E-02 -1.19923910E-02  4.37925154E-02
  7.68795510E-02  1.26795331E-02 -1.44198732E-02  3.88520124E-02  3.26396903E-02
  2.32835102E-04  1.02548195E-03 -1.09765102E-03  2.56618758E-03  3.34157838E-04
 -4.24820952E-04 -1.67350752E-02  1.99823144E-02 -4.42686322E-02 -1.29594120E-01
 -1.90032784E-02  8.78471165E-02 -8.10808252E-03 -1.37286621E-01 -8.04911048E-03
  4.82159378E-03  5.61317652E-04 -4.31441879E-03  2.14032792E-02  8.34725110E-04
  1.36268243E-03  1.19778187E-02  3.42071690E-02  9.04677245E-03 -3.38279449E-02
  3.76576529E-02 -6.16981508E-02  2.37758030E-17 -9.57428848E-03  8.91702515E-03
  1.18191896E-01 -8.96829758E-03  3.79583711E-02 -7.59741095E-02  1.22031140E-01
 -9.06000895E-02  2.89602879E-02 -1.04796617E-02 -7.40798430E-05  8.27964637E-03
  5.64394366E-03 -2.50059992E-03  1.27857231E-03 -7.97999434E-03 -4.57557900E-02
 -8.74956756E-02  1.65289320E-01 -1.23255228E-01 -1.80461346E-01 -1.69667969E-01
  4.50776361E-02 -6.62802396E-02  3.70303534E-03 -8.15031624E-03  1.37653039E-02
 -7.10953628E-03  2.04983963E-04 -3.80249344E-03  5.59095854E-02 -7.05179052E-02
  5.04056750E-02 -5.73164579E-03  4.97321618E-02  1.55205431E-01 -2.81562825E-02
 -2.80778068E-18 -4.58932927E-03  7.74058756E-03  1.23208027E-02  3.36052502E-02
 -1.19886784E-02 -6.62205529E-03 -4.47710556E-02  1.20476683E-01 -2.56973469E-02
 -3.68181984E-03  4.09671389E-03 -7.66837033E-04  3.20947165E-03  9.80366689E-04
 -2.16034121E-05  1.31210341E-04  7.97195551E-03 -9.95199516E-02 -6.59314660E-02
  8.34106421E-03  6.63487065E-02 -1.38397115E-02  3.73764051E-03  1.15982492E-01
 -8.26595813E-03  4.97783174E-03 -2.87649683E-03  1.03637557E-02 -1.23808392E-03
 -3.37041381E-03 -4.51172340E-03  1.98145547E-03  4.81501118E-02  2.00303337E-02
  2.34051278E-02 -1.66830167E-01 -9.97949047E-03 -1.10026439E-02 -2.07129370E-18
  1.98106193E-03 -3.71711718E-03 -2.80138286E-03 -1.22268542E-03  2.77062000E-03
 -2.01303390E-02 -7.07202893E-03 -4.33887304E-03  2.13434091E-04  5.28455659E-04
  6.62296593E-04 -8.81330500E-04 -9.56405318E-04 -3.08496932E-04 -6.23850383E-05
 -9.08873000E-03  1.67158812E-02  2.42898917E-02 -1.87399117E-02  1.11441293E-02
  4.42752476E-02  2.18351173E-02 -1.96303820E-02  1.06803493E-02  3.31846389E-04
 -1.50126626E-03 -5.88371021E-04  7.06333574E-04  7.09634677E-04 -1.21929481E-04
 -1.17796908E-03  5.69834667E-03 -2.13585701E-02 -1.92773536E-02  2.90267741E-02
  3.92568229E-03  1.35871995E-02  9.24881796E-03  8.08066030E-03 -7.98277681E-19
 -1.66793098E-03  3.29519167E-03  8.32746449E-03  7.06293526E-03 -2.09468630E-04
  4.04604649E-02 -6.10166081E-03  2.10494078E-02  1.09284281E-03 -5.88472218E-04
  6.99375639E-04 -1.42614418E-04  2.45203440E-03  6.30267508E-04  1.70563217E-04
  7.14012219E-03 -1.24489239E-02 -1.89087047E-02  2.48721627E-03 -1.18365458E-02
 -3.41178776E-02 -1.69116684E-03  1.15519727E-02 -1.17216109E-02  5.69701147E-04
  1.79424153E-03 -4.26463981E-04  2.27627415E-03 -1.07139057E-03  7.61361702E-04
  3.09270224E-03 -5.76391242E-03  3.63436340E-02  2.64770213E-02 -3.10474662E-02
 -2.15998285E-02 -7.65228153E-03 -6.76872939E-03 -8.51837476E-03  6.74167102E-04
 -2.41254983E-18  2.56376816E-03 -1.92370605E-03 -5.58607278E-03  5.94391188E-04
  1.88290383E-03 -2.58463011E-02  6.43630044E-03 -1.05005315E-02  1.48975622E-03
  7.45942140E-04 -8.96054522E-04  3.86541616E-04 -8.45109741E-04 -2.38455947E-04
  1.40033343E-05 -1.55046614E-03  1.81425718E-03  5.59580340E-03  5.58622454E-03
  2.10505946E-03  4.87165351E-03 -3.69610658E-03 -2.02993853E-03  5.23093239E-03
  3.96202168E-04 -9.68310772E-04  2.60379892E-04  2.94246990E-04  4.56107092E-04
 -1.95791763E-04 -8.30929003E-04 -6.47919073E-06 -1.09170397E-02 -1.36839965E-03
  7.04753127E-03  1.13471382E-02  2.26866298E-04 -4.41292069E-03  3.54835947E-03
 -2.23027097E-04 -8.20273985E-05 -7.03953672E-20  2.41424257E-03 -4.01634418E-03
  2.58210975E-03  3.07734967E-03  4.99591162E-03 -2.20573338E-02 -1.02568557E-02
  1.00691801E-02  7.59695713E-03  1.65360019E-03  1.41808671E-04 -5.19371088E-04
 -6.17055632E-04 -3.81497740E-04 -8.03860335E-05 -1.65877736E-02  3.46719428E-02
  4.44586789E-02 -7.82452529E-03  2.49063330E-02  7.18904757E-02  3.45071436E-02
  9.63542535E-04  2.15178717E-02  2.65284122E-03 -3.14265058E-03 -2.30880982E-03
 -2.24422353E-05 -2.85241227E-04  5.90085543E-04  3.79185284E-03 -1.03437314E-02
 -3.92166431E-02  1.89515330E-02 -5.53586201E-02  1.65117963E-02  1.56440818E-02
 -4.65249014E-03 -1.44540968E-02  1.32180273E-02 -1.00964799E-02  1.77478657E-03
  5.25962701E-20 -1.67383192E-03  3.28832401E-03  1.83341656E-03  1.08717303E-02
  1.29339731E-03  2.18878345E-02 -4.66547510E-03  2.17436166E-02 -4.93133505E-03
 -6.20773195E-04 -3.70446198E-06  5.27571275E-05 -6.53012853E-04  2.87532981E-04
 -3.23899994E-04 -2.09747971E-04 -1.79637588E-03 -1.31720875E-02 -6.09537348E-03
  1.44446459E-03  7.90382229E-03 -7.54140944E-03 -1.51936367E-02  1.07999724E-02
 -1.04617079E-03  6.20609299E-04  5.96251213E-04 -4.18998522E-04 -1.88235847E-04
 -1.84610193E-04 -5.61812674E-03  1.71615660E-02  9.05483750E-03  2.83312815E-03
  3.52021394E-02 -1.29777528E-02  1.01470679E-03  1.33845133E-02  9.93690194E-03
 -4.76104379E-03  4.89782727E-04  1.43481749E-03 -1.74151184E-03  6.78154430E-19
  1.39299815E-03 -3.77110429E-03 -5.81632279E-03  4.01982898E-03  4.23612556E-03
  1.35088988E-02 -1.40873774E-02  1.26530655E-02 -7.38441383E-04  2.87278010E-04
  2.46144083E-05 -2.02932682E-04 -2.24409961E-05  2.61209548E-04 -3.65842374E-04
 -2.18597042E-03  3.76315757E-03  8.79146890E-03 -8.21211242E-03 -8.28652792E-03
  6.62851137E-03  7.35381860E-03 -8.94684430E-03 -2.71898539E-03  5.51420099E-04
 -6.41164609E-04  1.00544337E-04 -1.21977433E-04  1.82607730E-04 -1.40651810E-04
 -2.49738798E-03  7.99104314E-03 -6.62827246E-03  2.44535745E-03  1.19343436E-02
 -1.05972238E-03 -4.26736262E-03  3.96500487E-03  4.26738093E-03 -8.20687084E-04
  3.70844102E-05  9.34890298E-05 -2.17255173E-03  3.30193858E-03  6.25403221E-19
 -1.18615226E-03  3.96132915E-03 -8.47255639E-03 -4.86295548E-03 -5.17083321E-03
 -2.55091525E-03 -1.48316954E-02  7.48983157E-03 -1.26232077E-02 -6.79409928E-04
 -9.59167744E-04  2.30832653E-04 -1.13808121E-03 -1.42769561E-04 -3.10491427E-04
 -7.69629995E-03  4.91870866E-03  1.01954253E-02 -8.76176131E-03  5.63307553E-03
  8.77891030E-02  1.55424119E-02 -2.17708765E-02  2.30478544E-02 -3.61713101E-03
  5.32344575E-04 -1.97666841E-03 -2.18197641E-03  3.67095192E-04 -1.24444458E-03
 -1.86911214E-02  2.09736740E-02 -3.70627681E-03 -6.44385698E-02  3.66550081E-02
 -5.30225372E-02  2.20500030E-02  1.65858988E-02 -1.07910802E-03 -2.04773858E-03
  6.81065291E-03 -4.84783598E-04 -1.76250394E-02  9.02296619E-03 -1.02520242E-02
 -9.27183191E-19  3.18665672E-03 -9.88114383E-03  1.08543522E-02  1.09841474E-02
  1.88447990E-03 -1.41622697E-03  2.85221863E-02 -1.18722095E-02  2.72795900E-02
  1.75555085E-03  1.08952397E-03 -1.77613741E-03  2.29749871E-03  5.94427693E-04
  1.11804625E-03  2.26835637E-02 -1.96696445E-02 -1.91210628E-02  2.88444770E-02
 -1.26155908E-02 -1.26914792E-01 -1.76308409E-03  6.64504796E-02 -4.34689125E-02
  7.40574670E-03 -3.65876168E-03  1.82135920E-03  5.54361755E-03  4.06274114E-04
  3.01827279E-03  2.22226814E-02 -2.32072855E-02  1.29540044E-02  1.46377558E-01
 -7.55537446E-02  1.05280443E-01  1.62135073E-02 -3.67009364E-02  1.72622799E-02
  4.87600446E-03 -7.94096351E-03  2.20947408E-03  3.88703611E-02 -1.92576914E-02
  1.94552069E-02  2.39748891E-03  1.35007301E-17 -2.23297273E-02  1.42216858E-02
  1.15440979E-02  8.12721112E-02 -1.62234878E-02  3.31296128E-01  1.14680555E-02
  1.71145253E-01 -5.31256933E-02 -9.18754737E-03  4.60585890E-03 -6.57672762E-03
 -1.03247420E-02  2.46465876E-04 -8.48112249E-04 -1.93877646E-02  5.59100679E-02
 -1.39887120E-01 -5.81467325E-02 -5.20140574E-02 -3.50913236E-02 -4.20397810E-01
 -4.07769737E-01 -5.06423241E-02 -6.51928944E-03  6.94318609E-03  1.87085811E-02
  1.15858064E-02  1.01772854E-02 -2.06632871E-03 -6.76102390E-02  2.35686604E-01
 -7.09640770E-02  9.59139052E-02  4.80954236E-01  1.29322836E-01 -3.48903673E-01
  2.02693639E-01  1.73672675E-01 -8.31867484E-02  3.43634361E-02  3.43417303E-03
  3.51586630E-03 -2.68019047E-02  1.13023960E-04  5.86337869E-03 -2.26128499E-02
 -2.20296854E-17 -9.57871010E-03  1.05821757E-02 -2.58266238E-02  4.84101955E-02
  3.57586972E-03 -5.89960554E-02  9.22448517E-02  1.35912880E-02  1.80563569E-02
 -6.14860869E-03 -3.02256076E-03  1.15301293E-04 -2.66882501E-03  3.01249884E-04
  8.56697483E-04 -1.09096500E-02 -1.96481180E-02 -5.00744477E-02 -8.73631384E-03
 -2.70034987E-03  1.23842934E-01 -7.81812433E-02  3.28565810E-02  4.57068784E-02
 -5.12601588E-03  4.04418201E-04 -7.30324540E-03  5.06644351E-03  1.89583015E-03
 -7.24382906E-03  1.17817016E-01 -2.46673113E-01 -3.70770689E-01  2.40701554E-01
 -2.68764323E-01 -2.03742348E-01 -2.36761029E-02  4.33219462E-02 -4.39785638E-02
 -8.32619972E-03  4.63896201E-02 -7.13269100E-03  4.85994026E-02 -4.72881294E-02
  2.10101274E-02 -2.55426260E-03 -1.40817379E-02  1.97718940E-01  3.73493294E-17
  1.17167571E-02 -1.68985989E-03 -7.50078350E-02 -1.01196468E-02  1.64431496E-02
 -3.25034149E-01  1.58128293E-02 -8.06457590E-02  4.61004583E-03  4.15602102E-03
 -3.83937004E-03  2.00146925E-03 -1.53903521E-02 -4.06487367E-03 -2.66537026E-03
 -5.76267936E-02  1.18278980E-01  1.47839681E-01 -6.54234127E-02  1.04000199E-01
  3.30473760E-01 -1.32120499E-02 -1.28300427E-01  1.93709731E-01  3.40264637E-03
 -1.17083188E-02 -8.60187487E-04 -9.47706636E-03 -3.97794250E-03 -3.06171468E-03
 -7.81282820E-02  1.63253014E-01  6.81307864E-02 -3.50132033E-01 -1.74154354E-01
  2.83272585E-01  1.46729425E-01 -8.61675191E-02 -1.57018019E-01  1.87417310E-02
  7.51670036E-05 -3.58038613E-02 -7.82074874E-02 -8.21062609E-04  2.39244847E-02
  7.08108606E-03  2.77492067E-04  2.43962479E-01  4.67458264E-02  1.27684925E-16
  6.45397536E-03 -1.89318033E-02  1.09107109E-01  4.00018480E-02  8.84347546E-02
 -3.05572474E-02  1.16701296E-01 -5.49338115E-02  8.29084583E-02 -3.11983417E-03
  4.27346961E-03  1.97135000E-03  9.81806137E-03  1.45363042E-04  6.40443956E-04
  1.47512362E-02 -4.99962646E-02 -5.64716911E-02  2.05730877E-02 -4.14130582E-02
 -2.52245489E-01 -1.42795546E-01 -4.22913383E-02 -9.38191485E-02  2.22700080E-02
 -9.33791130E-03  6.57305179E-03  9.83297081E-03 -3.45773472E-04  6.67296744E-03
  5.72207043E-02  1.19206709E-02  1.64823077E-01  6.60591224E-02 -6.85175107E-02
  3.62587148E-01  1.22537770E-02 -4.27746746E-02 -1.07921346E-02  1.18937958E-02
 -2.79667675E-02  6.58368146E-03  3.09980005E-02 -1.99037863E-02  2.07837512E-02
 -9.93754125E-03  2.35679496E-02 -9.25769953E-02 -1.11413577E-01  1.17775441E-01
 -1.14879607E-16 -2.13809919E-02  2.22086284E-02  9.32960886E-03  4.00651565E-02
 -2.09225853E-02  2.43741771E-01  7.94247111E-03  1.16504128E-01 -4.59886680E-02
 -7.59979941E-03  3.01046004E-03 -3.70309752E-03 -8.36144506E-03  1.75290383E-05
 -7.73308801E-04 -1.66383087E-02  4.01117329E-02 -1.10308881E-01 -2.53973260E-02
 -3.65525840E-02 -1.95003699E-02 -2.83118916E-01 -2.56782978E-01 -2.89880982E-02
 -9.79500523E-03  6.89291025E-03  1.45819980E-02  3.46031786E-03  6.93634661E-03
 -2.41932752E-03 -4.90663195E-02  1.61592535E-01 -3.80216543E-02  6.15822918E-02
  3.61973104E-01  6.85299466E-02 -2.23731854E-01  1.36898853E-01  1.34134665E-01
 -5.79691572E-02  2.46673041E-02  1.44781087E-03  2.89495425E-03 -1.72083467E-02
 -6.85208526E-04  8.66091315E-03 -2.77218336E-02 -6.17157846E-03 -5.15289915E-02
 -1.98035342E-01  2.06895990E-02 -2.72458551E-17 -1.16696919E-03 -7.19047735E-04
  4.83397709E-03  5.11645988E-02  3.31162195E-02 -6.18536455E-02  8.30600706E-02
  8.22912438E-04  3.22312098E-02 -3.74899706E-03 -1.30668910E-03 -6.22953040E-05
 -8.93314730E-04 -7.04414184E-05 -2.17301527E-04 -6.11587229E-03 -1.87080208E-02
 -4.17904887E-03 -2.09968022E-02  1.45510190E-02  8.35059342E-02 -9.13898427E-02
 -4.19138795E-02  2.72658743E-02  5.24554305E-03 -3.95720642E-03 -5.09579341E-03
  4.41281710E-03  3.01540420E-03 -2.56713685E-03  5.85173195E-02 -9.51934156E-02
 -2.13181356E-01  1.28191383E-01 -1.50497289E-01 -1.03051308E-02 -1.77236572E-02
  5.97651686E-02 -4.06330900E-02 -2.44232639E-03  2.09101098E-02 -4.90921714E-03
  2.00481985E-02 -2.66467851E-02  1.35299462E-02 -1.58299598E-03 -1.25818772E-02
  1.52120800E-01  6.26234109E-03  1.57738071E-04  6.67944377E-02  6.19866287E-02
 -2.87017294E-17  1.16332954E-02 -3.79089670E-03 -7.99743908E-02 -2.16292830E-02
 -1.21795078E-04 -2.32907991E-01  4.83639950E-03 -7.37871776E-02 -5.86441212E-05
  5.28912416E-03 -4.37365910E-03  5.74573115E-04 -1.35679265E-02 -2.94009154E-03
 -1.70675354E-03 -4.35555888E-02  9.45396352E-02  1.30920573E-01 -4.51374190E-02
  9.23284994E-02  2.58614883E-01  3.18717228E-02 -6.82779482E-02  1.29772826E-01
  2.70816575E-04 -7.73836169E-03 -1.92160885E-03 -8.19672381E-03 -1.78587745E-03
 -2.27263743E-03 -5.07109618E-02  8.74567050E-02 -2.51601550E-02 -2.15120660E-01
 -1.10629643E-01  1.64038366E-01  1.07695589E-01 -5.97290037E-02 -8.65042526E-02
  1.48271788E-02  1.14130505E-03 -2.32158383E-02 -5.28923370E-02  2.85118696E-04
  1.81930202E-02  7.44906283E-03 -3.61538501E-03  2.28307562E-01  6.97872438E-02
 -8.15613809E-03 -9.63268302E-02  1.73996646E-01  2.18832395E-02  1.66036551E-17
  1.45004498E-03 -1.42982484E-03 -7.51409854E-03 -2.38890370E-03 -2.51784626E-03
 -1.19144232E-02 -8.24590589E-03 -1.24693911E-03 -2.25442477E-03  7.53648982E-04
 -1.49663688E-04 -1.66612964E-04 -4.65694912E-04 -2.08710231E-05 -1.32954365E-04
  9.74458332E-04  3.33997138E-03  1.13720293E-02 -4.69339915E-03  6.70139021E-03
  7.79712062E-03  1.70170870E-02  8.53304959E-03  7.47768229E-03 -4.51129282E-05
 -2.33445324E-04 -7.97184988E-04 -5.68447907E-04  1.96081621E-05 -2.40124164E-04
 -1.14715272E-02  1.14785099E-02 -4.53754242E-03 -5.11954998E-03 -9.16606383E-04
 -4.69767841E-03  3.43171946E-03 -1.83646511E-03 -2.77543260E-03  3.41763551E-04
  3.43986582E-05 -1.01917632E-03 -2.50615909E-03  1.67802597E-03 -8.52031824E-04
  1.64458058E-03 -1.91892651E-03 -1.10668551E-03  1.27780845E-02 -2.69810264E-03
 -7.09606105E-03  1.47137283E-04  8.48898395E-03 -1.24041245E-03 -4.26684356E-19
 -5.99089808E-04  1.82706615E-03  1.55860284E-03  3.09739893E-03 -2.18423229E-03
 -4.19962044E-03  4.57094904E-03  5.15917823E-03 -1.93612612E-04 -6.65178452E-04
 -1.14112925E-04  8.67767350E-05 -1.10378710E-05 -1.09545434E-04  1.49653583E-04
  2.19369918E-03 -1.03582227E-03 -3.57978478E-03  7.87297707E-03 -3.82062064E-03
  1.22320430E-02 -1.10800846E-02  2.52851329E-03  6.78233240E-03 -5.09416328E-05
 -5.03926659E-04 -1.57496113E-04  1.68702446E-04  2.28184211E-04 -3.82288016E-04
  3.54093989E-03 -1.28946241E-02 -2.32848998E-02  2.26752344E-03 -2.24605292E-02
 -1.15028260E-02 -5.45220876E-03  2.93262056E-03 -9.21315660E-03 -5.64803719E-04
  3.10494340E-03 -8.71459443E-04  2.96449552E-03 -3.78678601E-03  1.10924799E-03
  1.44111124E-04 -1.94738868E-03 -8.41070434E-03 -6.20780743E-03 -6.68821736E-03
  6.91805796E-03 -1.11351879E-02 -4.57548776E-03 -6.56619008E-03 -4.44309610E-04
  1.95270108E-19  2.10395257E-04 -1.23812484E-03 -1.21397606E-03 -2.90979678E-03
 -3.73731494E-03  1.22348728E-02 -3.96823859E-03  1.35902668E-03 -1.23771095E-03
  4.02944786E-04 -1.69081081E-04 -2.90638171E-04 -8.64356641E-06  4.51281553E-05
  1.87904806E-04  3.74214075E-03 -1.31903865E-03  3.81633337E-03  8.10094417E-03
 -1.81838458E-03 -3.71494641E-03  3.64267596E-03  2.55623729E-03 -8.31544683E-03
  4.34309521E-04 -1.59724223E-04  9.80870594E-05  1.86670849E-04  7.61051209E-04
  4.94105697E-04 -7.04812983E-03  5.37754419E-03 -5.28315763E-03  1.04403667E-02
  2.03210864E-02 -3.42981245E-03 -6.82251552E-03  9.11743662E-03  1.00162399E-02
 -6.29915268E-04 -6.47491614E-04  1.15585514E-03  6.93758923E-04  1.74384379E-03
 -1.03983482E-03  9.90641379E-04 -1.68864201E-03  5.21241551E-03  8.44197369E-03
 -6.46183729E-03 -1.43552130E-03  3.64261590E-03  5.41867991E-03 -4.65782516E-03
 -2.11861764E-04  4.45209292E-04  4.95260629E-19 -1.47707580E-03  1.72772549E-03
 -2.25040077E-03  1.09000367E-03 -1.38399139E-03  2.19129074E-02 -5.39251471E-03
  1.19625912E-02 -3.09332640E-03 -1.18936926E-04  1.70168098E-04 -3.11445897E-04
 -5.25861213E-04  5.40078975E-05  8.93225537E-06 -4.39152597E-03  8.84313088E-03
 -6.65418590E-04 -7.13581159E-03  1.51565555E-04  1.33570632E-02 -7.27882413E-03
 -2.01913612E-02  1.83847730E-04 -1.03402461E-03  9.66609676E-04  5.60367274E-04
  9.31290686E-04  1.30754593E-05 -1.88901227E-05 -3.64767286E-05  5.84939929E-03
 -2.40515810E-03 -7.82230369E-03  1.70751228E-02 -5.46306969E-03 -8.66503641E-03
  3.61799768E-03  6.72265671E-03 -1.89516860E-03 -4.91662440E-04  1.01443885E-03
 -5.97793692E-04  1.10457021E-04 -1.32358156E-04 -1.15288026E-03  1.87942613E-03
  7.73637602E-03 -8.50524005E-03 -3.79563496E-03  4.74421773E-03  5.94927375E-03
 -4.82563002E-03 -3.60598463E-03  3.80976420E-04  8.63646381E-05  3.85213466E-05
  6.64573862E-19  1.11421001E-04  6.30404885E-05  3.52301557E-06 -6.60041259E-04
 -1.31264326E-03 -1.12014499E-04 -1.26323155E-03 -2.86234054E-03 -4.75838188E-04
  2.28242090E-04 -1.16064003E-05 -1.94616781E-05  2.08826244E-04  9.19824526E-05
 -2.51344270E-05  1.66753686E-03 -2.98437550E-03  1.68246829E-03 -3.95649941E-04
  1.96497700E-03 -7.16725060E-03  1.00504600E-02  1.02308808E-02 -1.24464194E-03
  1.18995403E-04  1.44813018E-04 -5.68597298E-04 -7.99511465E-04 -2.10328473E-04
  2.47731448E-04  1.34142971E-04 -3.00706801E-03  1.68649473E-03  3.31622081E-03
 -1.34550334E-02 -3.25743123E-03  5.10699507E-03 -4.34615756E-03 -4.37047411E-03
  1.29851649E-03 -4.23908944E-04 -9.79421976E-05  5.69150430E-04  3.96560404E-04
 -4.08876809E-04  8.84562658E-04 -1.41634055E-03 -2.64147672E-03 -4.52872980E-04
 -7.16800770E-03 -3.41018810E-03 -2.02405937E-03  2.72463345E-04 -3.18393566E-03
 -1.28653575E-04 -6.42509769E-04  6.23986898E-04  1.76819744E-04  1.71872700E-19
  1.11035129E-04  2.29869304E-03 -2.38197518E-03 -2.85818488E-03 -1.66181612E-03
 -5.33623031E-03 -2.91293589E-03 -1.49686741E-03 -2.94694001E-03 -2.99244948E-05
  1.24419520E-05  1.78862228E-04 -4.50736515E-04 -1.17514984E-04 -7.64801743E-05
 -1.31119757E-03  4.22916695E-03 -7.02695941E-04 -3.76749973E-03  3.04004389E-03
  6.00418602E-03  1.18499739E-03 -3.49111320E-03  8.65797982E-03 -7.39298436E-04
  4.98214792E-04  1.22665627E-04 -3.36395856E-04 -5.93808978E-04  1.29784390E-05
 -8.62984128E-03  1.42244707E-02  2.43709329E-02 -2.15745879E-02 -5.76567378E-03
  6.44998751E-03  7.47324202E-03 -9.42458143E-03 -7.64134844E-03  1.05708293E-04
 -1.57855589E-05 -2.01171141E-03 -3.61699235E-03  4.16003825E-04  1.84451789E-04
  6.53421160E-04  2.93777372E-04  5.47713276E-03  4.30908050E-03 -7.32767178E-03
 -8.80698700E-03  6.09728474E-03  1.48173621E-03 -3.48961947E-03  2.48829013E-04
  3.99124887E-04  7.63325824E-04  1.98491936E-04  4.31850917E-04  4.44864257E-19
 -1.29773509E-03  1.97973228E-03 -2.34695526E-02 -1.62300207E-02  8.53283280E-04
  3.90691455E-02  1.07283585E-02 -1.52875064E-02 -4.10871066E-04 -1.23334859E-03
 -6.24611573E-04  8.95083662E-04 -2.59701739E-03  5.70038175E-06  3.94066180E-04
  4.25141192E-03 -3.42886274E-03 -1.61250982E-02 -2.20176696E-04 -8.44208641E-03
 -4.51112121E-02 -4.86101535E-02 -3.35007486E-02 -2.81537456E-02 -5.04391326E-04
  2.46601243E-03  2.27595099E-03 -7.46564176E-04 -1.29712252E-03 -2.64799479E-04
  4.78374773E-03  1.50346646E-02 -8.74000938E-03 -5.17205591E-02  3.36358063E-02
  4.16191643E-02 -1.17907697E-02  6.03305690E-02 -2.69265164E-02 -1.93149887E-02
  5.19074847E-03  5.66694224E-03 -1.91734196E-02  7.53977936E-03  6.92990948E-05
 -1.60097991E-02  3.06493589E-02  1.11163082E-01  1.13592733E-01 -5.89975408E-02
  6.87262302E-02  8.03987829E-02  7.81788676E-02 -4.07377706E-02 -9.47765084E-03
  3.42710533E-03 -3.48409362E-05 -6.04228224E-04 -2.02420413E-04 -3.68070689E-03
 -5.19853567E-18  6.38301540E-03 -1.25450711E-02  5.21944943E-02  2.80341577E-02
  2.08717360E-02 -8.14250619E-02 -1.75508747E-02  2.27657028E-02  2.03606690E-02
  8.90525263E-04  1.02889661E-03 -1.95357579E-03  5.56019950E-03 -4.60825289E-04
 -1.65386668E-03 -1.51984971E-02  1.76489804E-02  5.08516087E-02  2.11157854E-03
  1.37694882E-02  7.51817897E-02  7.76929836E-02  6.31452273E-02  3.98587504E-02
  4.56580763E-03 -6.31117614E-03 -3.49848306E-03  5.05098073E-03  2.98808265E-03
  1.06245855E-03 -1.09551796E-03 -4.09317023E-02 -1.27676937E-02  1.32445169E-01
 -8.36419190E-02 -7.94964890E-02 -3.72928733E-02 -1.02804403E-01  4.90062232E-02
  4.55115346E-02 -1.32283331E-02 -1.30162770E-02  4.25751115E-02 -1.69903926E-02
  2.33731840E-03  2.99716989E-02 -7.44453781E-02 -2.48080261E-01 -2.89455728E-01
  1.41591629E-01 -9.45493767E-02 -1.72931909E-01 -1.86455218E-01  8.77572029E-02
  1.62357723E-02 -1.60430216E-02 -4.31978218E-03  5.77896001E-04  1.10069260E-03
  1.02440570E-02 -5.67747405E-03 -1.01241902E-17  4.71883690E-02 -7.29367848E-02
 -2.29516702E-01 -1.20080117E-01  4.52493600E-02 -4.95461830E-01 -7.01002066E-02
 -3.41105522E-01 -2.63333977E-02  1.41841763E-02 -1.51487344E-02  4.56936039E-03
 -1.06911957E-02  2.74290012E-03 -5.66534961E-03  4.81876126E-02 -1.44864402E-01
 -8.26134181E-03 -1.21500434E-01 -9.44529728E-04 -1.97406736E-01  3.48461200E-01
  2.28655658E-01  4.27444118E-02 -2.00532101E-02 -3.90117338E-03 -2.72143992E-03
 -8.24269631E-03  7.13650693E-03 -8.44833627E-03  1.33741760E-01 -3.29051922E-01
 -2.89900641E-01 -2.55487406E-01  4.21881335E-01 -3.09743893E-01  1.63624474E-01
 -3.35215060E-01  2.86222149E-01 -1.79255541E-03  3.51787977E-02 -5.27850890E-03
 -4.64238608E-02  2.92573288E-03 -7.57274416E-03  7.49474298E-03  3.57770601E-02
 -6.89105763E-02  1.31719140E-01 -2.05083243E-01 -4.03450698E-01 -5.49590034E-02
 -6.55530813E-02 -1.03254965E-01  3.42494058E-02 -1.47257856E-03  4.81870000E-03
 -1.15598478E-02  6.09588365E-03  9.04658034E-03 -1.22382521E-02 -8.53462590E-03
 -3.80791411E-17 -4.36168942E-02  5.83202373E-02  1.97131999E-01  1.72744609E-01
 -2.67372101E-02  4.60911118E-01  2.66727910E-02  3.73385428E-01 -3.40543483E-02
 -1.09148622E-02  7.67122231E-03 -6.28936288E-03  6.31712510E-03 -1.29880276E-03
 -9.78537801E-04 -2.43743518E-02  2.96101413E-02  6.26657932E-02  1.04073780E-01
 -4.41449000E-02  2.13221796E-01 -9.14970529E-02 -1.61577852E-01  2.68458912E-02
 -8.20032617E-04  2.82502028E-03  3.88376542E-03 -3.51504285E-03  3.91658198E-03
  1.19474613E-03  4.26059003E-02 -1.58680582E-02 -3.23763349E-01 -8.69579251E-02
  2.82538100E-01 -1.35340671E-01 -2.77333872E-02  2.36831681E-01  7.06016254E-03
 -7.29960778E-02  4.50400816E-02  8.38311758E-03 -5.55688154E-02  5.05309234E-02
  7.53126863E-03 -6.69590561E-02  1.50526920E-01  3.67459269E-01  2.04143456E-01
 -4.71077852E-01  3.13533569E-01  2.85641214E-01  1.55131581E-01 -3.87317157E-01
 -2.41289830E-02  8.88286559E-03  3.55846919E-03  5.33720327E-04  9.21821398E-03
 -1.10872828E-02  1.90868370E-02 -3.63372434E-02  2.41535042E-01  4.30627253E-17
 -1.69908946E-02  2.04195361E-02  5.21710251E-02  4.19560607E-02  6.15072184E-02
  3.73609918E-01 -2.20255100E-01  3.58763663E-01 -1.50020933E-03 -6.42435577E-03
  3.89851336E-03 -4.39435809E-03  2.13761590E-03  3.85210452E-03 -6.30843481E-03
 -2.09626590E-02  2.03666915E-02  1.02594639E-01 -4.90384997E-02  1.24735896E-01
  2.71316921E-01  2.34465040E-01  3.12451824E-02  1.78267894E-01  8.87338745E-03
 -6.65253303E-03 -1.03613505E-02  1.46654936E-04 -8.26115260E-03  7.20007831E-03
 -2.46051947E-02  1.01691913E-01  5.11256758E-02  1.60712726E-01  6.68148357E-02
 -2.11788600E-01  9.60417457E-02  1.83870008E-02  5.24303681E-02  2.78808086E-02
  7.26299980E-03 -2.65457387E-02  1.60520112E-02  5.86905221E-02  2.41440547E-02
  2.62691744E-02 -6.54506099E-02  8.99904198E-02 -2.69591057E-01 -3.22974862E-01
 -7.84502520E-02  4.09092769E-02 -2.08951679E-01 -2.61264834E-01  3.31913853E-03
 -6.84693680E-03  4.39348509E-03  1.56085106E-02  1.16848098E-02 -1.73907508E-04
  1.15974821E-02 -5.77030252E-02  6.82361131E-02  6.21603508E-02  5.16934562E-17
  1.13981225E-03 -2.02453010E-03  1.48765519E-01  1.30185197E-01 -7.38861024E-02
 -1.54213802E-01 -3.64006541E-02  9.27852218E-02 -3.68853272E-02  4.15959325E-03
  9.73839746E-03 -1.00231733E-02  1.58053130E-02 -1.05697336E-03 -2.29443570E-04
  1.14405427E-02  3.63491235E-03  1.37176278E-02 -3.83794255E-02  7.35755210E-02
  4.47045811E-02  2.33823775E-01  2.26468825E-01  1.20410520E-01 -6.22071409E-03
  6.60583520E-04 -1.31062306E-02  8.79166144E-03  2.27909838E-03  1.02007544E-03
  4.53823029E-02 -2.36926974E-01 -9.54520608E-02  1.01411198E-01 -1.57679774E-01
 -3.56234919E-01 -3.37134400E-02 -2.73623465E-01  6.75024296E-02  6.57671475E-02
 -7.66893589E-03 -1.34009171E-02  6.99126053E-02 -2.29029333E-02 -4.40218650E-04
  4.44907465E-02 -5.89739539E-02 -7.37152524E-01 -5.83913525E-01  2.87760602E-01
 -9.96135561E-02 -5.12350306E-01 -3.54456174E-01  1.87266117E-01  3.61467032E-02
 -3.84373200E-02 -4.55774761E-03 -1.24622386E-02  9.27154721E-03  2.30211586E-02
  1.06442244E-02 -4.66246946E-02 -1.77968801E-01  1.92773321E-01  9.68964377E-03
 -1.56015689E-16  2.87488697E-02 -4.55913336E-02 -1.52699887E-01 -1.02016299E-01
  2.33672948E-02 -3.41891403E-01 -2.73116285E-02 -2.70252364E-01 -1.94979240E-02
  8.68325493E-03 -1.18242239E-02  4.13466183E-03 -9.47264974E-03  1.08604115E-03
 -3.77867556E-03  4.01033909E-02 -1.06978272E-01  8.52532213E-03 -3.01443082E-02
 -1.13199840E-02 -1.57448701E-01  2.07427581E-01  1.54546214E-01  1.04204937E-02
 -1.37158668E-02 -4.24933882E-03  2.06554129E-03 -1.05552560E-02  5.41406578E-03
 -5.99675762E-03  9.15095022E-02 -2.09136281E-01 -1.86976512E-01 -1.84145502E-01
  3.33501133E-01 -1.54782330E-01  1.06810993E-01 -2.06376211E-01  2.07196751E-01
 -6.02948568E-03  2.52548362E-02 -3.18359337E-03 -4.04610604E-02  2.89584093E-03
 -6.04339504E-03  5.32734307E-03  2.24242888E-02  1.78954990E-02  1.47136458E-01
 -1.63220621E-01 -2.83521053E-01  1.12811353E-02 -1.96029331E-02 -8.59872846E-02
  2.04156554E-02  2.72914533E-03  1.88891971E-03 -5.46722061E-03  2.72030046E-03
  5.02236101E-03 -1.35570302E-02  5.98920680E-03  5.29054370E-02 -1.11555347E-01
 -5.87751990E-02  1.48672224E-01 -3.53305856E-17 -3.30333130E-02  4.18242886E-02
  1.70602189E-01  1.43288446E-01 -1.52474747E-02  2.86539319E-01  2.28362039E-02
  2.42519377E-01 -1.81334643E-02 -7.05102734E-03  5.32033451E-03 -4.27443085E-03
  4.77497282E-03 -2.91184499E-03 -8.99955991E-04 -3.98622287E-02  4.38827024E-02
  1.11475250E-01  1.18747236E-01 -6.50987371E-02  1.94086987E-01 -7.14622420E-03
 -8.10103782E-02  1.02813834E-03  4.81200794E-04 -2.57869036E-03  5.54299818E-03
 -4.47307280E-03  2.58286408E-03  1.17149728E-04  2.86929198E-02  1.20359109E-02
 -1.95995324E-01 -2.92502147E-02  1.67477562E-01 -5.29140018E-02  1.66562252E-02
  1.56359116E-01  9.20967236E-03 -3.72618113E-02  2.42265939E-02  2.47146638E-03
 -4.46076030E-02  3.95961191E-02  8.85102596E-03 -3.75222424E-02  7.20424184E-02
  3.67906501E-01  9.41203545E-02 -3.53266891E-01  1.59750313E-01  2.66802748E-01
  6.42641812E-02 -2.82294811E-01 -1.55020693E-02  4.07070216E-03  4.62141734E-03
  6.55763495E-03  4.04346297E-03 -7.98109136E-03  1.58333627E-02 -3.99971621E-02
  2.21815775E-01 -5.02146428E-03 -5.18344862E-02 -1.28525308E-01  1.29735930E-01
 -1.39622922E-17 -5.76515760E-03  6.78329805E-03 -2.65895208E-02  8.66092903E-03
  5.18479780E-02  3.15430298E-01 -1.90085393E-01  2.69241850E-01  3.01825363E-03
 -2.43522970E-03  4.01990466E-04 -3.14236290E-03 -1.30756324E-03  4.58536133E-03
 -5.17741100E-03 -8.73674623E-03  1.27763177E-02  9.14185575E-02 -6.43336819E-02
  9.82034091E-02  2.04791955E-01  1.64499500E-01 -1.70876819E-02  1.18625849E-01
  9.47698796E-03 -4.58440826E-03 -9.15758901E-03 -1.09618133E-03 -6.93651447E-03
  5.85443360E-03 -3.48444256E-02  1.03194795E-01  2.01250334E-02  1.05107405E-01
  2.08490747E-02 -1.35443201E-01  6.39789382E-02  4.00989624E-02  1.21733471E-02
  1.46852349E-02  4.93360897E-03 -1.79269317E-02  7.26620932E-03  4.59494298E-02
  1.70045149E-02  1.44545525E-02 -3.09651393E-02  1.45318378E-01 -1.63361389E-01
 -2.96101813E-01 -1.85845056E-02  9.01949224E-02 -1.20493441E-01 -2.30361252E-01
 -2.13317846E-03 -4.61293870E-03  6.08805300E-03  1.27852947E-02  7.69356806E-03
 -4.50865313E-03  1.22326799E-02 -4.94404497E-02  4.10354723E-02  3.73392101E-02
 -3.33805763E-02 -6.20969095E-02  3.91763356E-02  3.65532134E-02 -1.50166899E-17
 -1.31553086E-03  3.81271284E-03  7.58171813E-03 -1.27150798E-03  5.90847084E-03
  3.23277986E-02  4.81983030E-03  1.34040423E-02  4.60422489E-03 -1.38567415E-03
  4.87746901E-04  4.25584175E-04  2.15142675E-05  5.14577865E-06  4.33443544E-05
 -3.54693123E-03  4.77118713E-03 -5.50894764E-03  2.42192543E-03 -1.99045639E-03
  2.43447879E-03 -2.92173930E-02 -2.06116948E-02 -5.58634032E-03  1.00794200E-03
  2.16854666E-04  7.83196882E-04 -1.95314561E-04 -5.42488315E-04  5.36889374E-04
 -1.59360420E-03  1.16330461E-02  1.69331344E-02  1.88209827E-02 -1.80880069E-02
  2.18965153E-02 -1.14062624E-02  2.14684142E-02 -1.38600157E-02 -1.05005345E-03
 -8.23522224E-04  5.48038793E-04  2.15642764E-03 -3.40104466E-04  6.04919656E-04
 -3.84647008E-03  1.38960903E-03 -5.46711965E-04 -2.06691261E-02  1.08727009E-02
  3.13418971E-02  3.96691004E-04 -5.36281497E-03  3.72345165E-03 -2.04426804E-03
 -5.81866482E-04 -4.82125734E-04  6.86236746E-04 -1.82683141E-04  4.89101748E-05
 -2.64491550E-03  7.06178132E-03  1.74164137E-02  9.10607020E-03  4.75743283E-03
  7.14374049E-03  1.31087111E-02  7.80190698E-03  1.55616497E-03  1.10925237E-18
  1.09454457E-03 -2.14800729E-03 -2.54050783E-03 -4.31675869E-03  9.40291296E-03
  2.40003688E-03  8.03325736E-05 -8.58138664E-04  5.66031008E-03 -1.56568874E-04
 -5.63288226E-04  5.48551136E-04 -7.47817541E-05 -6.67612929E-06 -1.02329116E-04
 -1.73008052E-03  7.51138143E-04  7.95923270E-03  3.76319909E-03 -6.75300549E-03
  5.64097150E-03 -3.22224099E-03 -5.31568349E-03 -5.02026369E-03  1.53853962E-03
 -1.02230685E-03  1.52818235E-04  1.21296936E-04  4.61558088E-04 -3.50552852E-05
 -1.12200865E-02  2.50567835E-02 -3.31627528E-03 -1.34501238E-02  5.44405906E-04
  1.64423804E-02 -5.21344055E-04  6.40472051E-03 -4.56755439E-03 -1.20029905E-03
  2.72745028E-04 -1.59502114E-03 -9.54410817E-04  3.45930134E-04  2.57040158E-04
 -3.83662680E-03  3.37122322E-03  2.30889310E-02  2.96605102E-02 -4.48265877E-02
 -7.77194160E-03  1.64628995E-02  1.36221036E-02 -2.74395396E-02 -9.19621489E-04
  1.54428520E-03  1.34543082E-03  1.71540932E-04  2.50446239E-04 -2.68409358E-03
 -1.91795505E-03  4.87980819E-03  1.67574875E-02 -3.65392006E-02  7.23466748E-03
  5.31627461E-03  1.18324201E-02 -1.90691415E-02  1.26866759E-03 -5.98077075E-04
 -1.00302157E-18  2.47104399E-03 -3.13642437E-03 -4.48568542E-03 -3.35963328E-03
  7.24283663E-03 -2.12931069E-02  6.38961121E-03 -1.40164187E-02  4.75061774E-03
  1.92682475E-04 -5.00874126E-04  5.49698564E-04 -2.53627482E-04 -8.94069348E-05
  2.41610513E-05 -9.69813541E-04 -1.05445742E-03  4.55197229E-04 -1.33777342E-04
 -4.79231796E-03 -4.85249052E-03 -3.38648243E-03 -2.64348197E-04 -3.75372101E-03
  3.98046682E-04 -8.01480724E-04  2.88857497E-04  6.04722115E-04  8.00719161E-04
 -2.75077784E-04  7.29100599E-03 -8.57212618E-03 -1.86749869E-02 -8.26129285E-04
  1.18680207E-02  5.69472518E-03 -1.99051441E-03 -6.36635655E-04  6.92100131E-03
 -9.28590089E-04  4.37740014E-04  9.91392359E-04 -7.75359192E-04 -1.30005069E-03
 -3.24930857E-04 -2.89361824E-03  2.67289145E-03 -4.65578064E-03  7.83408495E-03
  1.75431188E-02 -1.15414182E-03 -3.24760360E-03  3.43619653E-03  1.18304867E-02
  6.46583491E-04  4.41511818E-04 -7.94343926E-04 -8.99263336E-04 -1.00136632E-04
  9.33369426E-04 -3.07682860E-03  6.48867012E-03  8.55855393E-03 -6.56532007E-03
  1.05544579E-02  1.38123566E-02  4.50494766E-03 -4.61230758E-03  5.26570592E-03
 -5.02229797E-04 -3.84314735E-04  1.33632352E-19  1.71524904E-03 -1.85674734E-03
 -3.20685063E-03 -5.72846506E-03 -1.33245917E-04 -2.73009875E-02  3.29230401E-03
 -2.01672696E-02  4.39655496E-04  4.47188243E-04 -2.18987857E-04  2.33597767E-04
 -4.75764739E-04 -1.77154785E-04 -2.39847472E-05  6.80673116E-04 -9.26936156E-04
  7.00353781E-03 -1.35296310E-03  6.11542040E-03 -1.31860469E-02  5.68622049E-03
  1.18675361E-02  6.74936606E-04  7.29359160E-05 -5.00991349E-04 -5.47446752E-05
 -1.19455374E-03  3.72047916E-04 -1.61816396E-04 -8.09331014E-03  8.31197903E-03
  6.75936228E-04  2.13951842E-03 -9.00740544E-03  1.69690467E-02 -3.44026240E-03
 -1.32755315E-02  2.36139930E-03  3.93425120E-03 -2.76721193E-03 -6.38949351E-04
  3.60079193E-03 -3.40125043E-03 -8.49071022E-04  4.21410692E-03 -9.46215973E-03
 -4.80471750E-02 -5.99040397E-03  2.30565836E-02 -2.51694522E-02 -3.36962689E-02
 -8.43121772E-03  2.06154971E-02  2.01133820E-03 -2.72482278E-04 -4.50258601E-04
 -1.42002647E-03  2.09489134E-04  4.66588397E-04 -4.05404261E-03  8.06300615E-03
  1.13228015E-02 -1.93914293E-02  2.55955614E-03  2.95215552E-02  9.73542539E-03
 -1.27157667E-02 -1.22826840E-03 -9.02977304E-04 -3.04322462E-03 -2.11792895E-04
  1.79458333E-19 -8.20869016E-04  1.06129931E-03  5.95348504E-03  2.89061085E-03
 -3.26125672E-03 -9.30374891E-03  1.44373235E-02 -1.28729016E-02  1.13276791E-03
  2.21584309E-04  2.45361376E-04 -1.72316192E-04  6.24883093E-05 -3.70453614E-04
  3.79257196E-04 -9.34725428E-04  2.82559611E-03 -1.49072615E-03  1.90998949E-03
  4.85569015E-04 -4.39889122E-03 -1.18589583E-02 -7.68974640E-03 -8.55769925E-03
  6.79846923E-05  4.34076864E-04  1.02879371E-04  5.15306619E-04  3.83046790E-04
  2.25805728E-04  5.65657227E-04 -1.18183514E-03  5.88544668E-04  3.61943993E-06
 -7.63941527E-03  1.35933405E-02 -3.36827016E-03  6.76399759E-03 -5.45811403E-03
 -1.07304397E-03 -1.09084188E-03  1.57736634E-03 -2.02342992E-03 -2.00976729E-03
 -9.14507162E-04 -2.30421660E-03  4.23134312E-03  2.41828990E-02  1.15146098E-02
  1.69219254E-02  1.38961510E-02  1.77187367E-02  1.26357757E-02  1.21672530E-02
 -1.15497335E-03  2.80695990E-04 -7.53430692E-05  2.44267488E-04 -1.27805255E-03
 -1.56384763E-04  1.57233782E-03 -9.44349776E-04 -9.76650122E-03  1.03749470E-02
 -2.68515395E-03 -1.47825486E-02 -5.17961864E-03  6.35592619E-03 -3.29690785E-03
  1.09002231E-03  9.96038184E-04  8.29545085E-04 -2.20589752E-04 -1.14241490E-19
  2.24173286E-03 -3.78023613E-03 -1.61216850E-02 -1.14728273E-02  3.28956321E-03
 -8.39306520E-03 -7.67548368E-03 -1.30224058E-02  2.04685558E-03  7.54897661E-04
 -7.41945317E-04  2.55662959E-04 -9.05090660E-04  2.06391016E-04 -1.47563998E-04
  9.39957099E-05  9.91607267E-05  9.66831706E-03 -5.02674098E-03  4.24218207E-03
 -2.00904238E-03  1.17679917E-02  3.08023626E-03 -1.77206181E-03  6.91993093E-04
 -7.04967827E-04 -4.29757582E-04 -8.38660326E-04 -5.22686171E-04  1.68955994E-04
  5.19512957E-03 -9.23189345E-03 -8.32088253E-03 -3.21358939E-03 -2.05486534E-02
  3.87947575E-03  3.94246683E-03 -9.99150793E-03 -5.63271921E-03  2.10079700E-03
 -9.66076859E-05 -3.63112610E-04 -9.39922972E-04  3.85414216E-04  1.08408717E-03
  1.99807972E-03 -2.95368558E-03  3.84391089E-04 -3.39111799E-02 -9.62249988E-03
 -4.55881361E-03 -2.89444419E-05 -2.12991122E-02 -5.26049361E-03  8.96391185E-04
 -2.61840641E-03  1.29586214E-03  5.11003706E-04  2.00991677E-04  2.26334190E-04
 -6.13059272E-04  8.94802459E-04  1.02347223E-02  1.22249950E-02 -5.57669963E-03
  5.01145167E-03  8.40932786E-03  6.71146316E-03 -1.87834373E-03 -7.13176509E-04
 -5.94195856E-04 -1.47965986E-04 -1.17208430E-03  8.52802766E-04 -7.31244570E-20
 -3.16829002E-02  6.91882937E-02 -4.14588486E-02 -8.20275838E-02 -4.23584659E-02
  1.30131312E-01 -5.06628678E-02  5.39473864E-02 -3.14211575E-02 -3.02679929E-03
 -5.28934260E-03  2.48213747E-03 -9.42975363E-03 -1.80061998E-03 -1.15219746E-03
 -5.32870355E-03  1.00357387E-02  1.64619558E-02  8.21172806E-02  7.54452715E-03
  1.91520414E-01  1.72026065E-02 -7.60763199E-04  5.73178868E-02 -2.15209834E-02
  5.63040710E-03  7.56078901E-03 -1.18962723E-02 -2.52852345E-03  2.72950484E-03
  1.94228938E-02 -3.43496556E-02  5.06240344E-02 -2.73744751E-02  2.44544156E-02
 -1.64557192E-01  5.76330913E-02  2.32221068E-02  6.03395695E-04  8.80310118E-04
  1.40233587E-03  8.33399981E-05 -9.28579071E-04 -6.86485350E-04  4.93215199E-04
 -4.67605700E-04  2.80134474E-03  1.00767584E-02  2.78646351E-02 -1.87897340E-02
  2.91710526E-02 -8.21027954E-03  2.89512968E-02 -1.80332251E-02 -5.09898878E-04
  2.26923998E-03  8.13651207E-04 -7.30787814E-04 -5.62185809E-04 -2.30730168E-03
 -5.92625558E-04  1.22005623E-02  4.04361359E-03  8.37096177E-03  1.09244600E-02
 -2.64682306E-02  2.48542147E-03  1.47373220E-02  3.27563599E-03  2.48764464E-03
  4.38321102E-03  4.54830546E-03 -1.80558163E-03  6.18175526E-04 -7.46383050E-04
 -6.89873745E-18  7.16962433E-02 -1.56543687E-01  1.05937295E-01  1.93199887E-01
  1.04880180E-01 -3.11891262E-01  1.23093695E-01 -9.99126286E-02  7.48768792E-02
  6.36728717E-03  9.74008944E-03 -5.66545170E-03  2.15075587E-02  3.01638975E-03
  1.33414565E-03  1.07488064E-02 -3.12293059E-02 -1.71564246E-02 -1.77272125E-01
 -1.13357128E-02 -3.89572756E-01 -5.20244624E-02 -1.78978652E-02 -1.08056806E-01
  5.10761073E-02 -1.52721291E-02 -1.76707469E-02  2.52871711E-02  7.49278114E-03
 -5.62347721E-03 -5.30671868E-02  9.34826130E-02 -1.57080984E-01  5.07404639E-03
 -3.70754156E-02  3.92003133E-01 -1.25352253E-01 -3.62586947E-02 -8.49505744E-03
 -2.06825558E-03 -3.38874594E-03 -4.14050464E-04  1.23467894E-03  8.93653557E-04
  4.19938986E-04  3.19520742E-03 -8.06934426E-03 -7.23314766E-02 -3.74857450E-02
  9.42211844E-03 -8.25222020E-02 -1.49853647E-02 -5.70494600E-02  2.23058592E-02
  3.10405470E-03 -4.29526082E-03 -8.96987762E-04 -2.02998461E-03  3.75007875E-03
  3.45391189E-03 -1.28949876E-03 -2.32807329E-02  8.80022871E-02 -1.86342523E-02
 -5.19783197E-03  6.23101988E-02  6.26077035E-02 -2.45037811E-02  2.22101425E-03
 -9.41098598E-03 -7.61543574E-03 -6.88522227E-03  4.52149730E-03 -3.72520751E-03
  3.24969455E-03 -9.47931564E-03 -1.12235873E-16 -3.29747235E-02  8.13715874E-02
 -2.78160135E-01  3.69629625E-02 -2.12648851E-03  4.10082477E-01 -3.82644038E-01
  6.30321486E-01 -6.40099706E-02  3.00984100E-03  5.36978408E-03 -2.72928314E-03
 -2.10871282E-02  3.93159205E-03 -1.00760732E-03 -1.44506322E-01  3.17643414E-01
 -2.27452968E-01 -3.09878816E-01 -5.65636710E-04  9.74387811E-01 -1.02598230E-01
 -4.05370044E-01  2.97912119E-01 -2.59311591E-02  7.58393311E-03  3.58875478E-03
  2.37040894E-02 -2.82786463E-03 -3.66810529E-03 -2.17176802E-02  1.35939898E-01
 -6.80052394E-02 -1.37208110E-01 -1.35598206E-01 -5.57038800E-01 -7.19647653E-02
  1.96792128E-01 -1.60514099E-01  2.83227020E-03 -1.16106520E-02  1.45407238E-03
  2.97168086E-02 -2.50262213E-02  2.67163896E-03 -4.06072699E-02  1.02699157E-01
 -3.23069962E-01 -1.43117157E-01 -1.30796438E-02  3.14767619E-01 -2.70939100E-01
  3.03074387E-02 -4.30590733E-02 -5.60387792E-04  9.45639575E-03  1.40777918E-02
 -3.12897562E-02  4.45685617E-03 -2.02097846E-02 -3.05751434E-02  1.14018252E-01
 -1.06126776E-01  4.56927758E-02  5.51029712E-02  8.87699999E-02 -4.54638989E-02
  9.76557594E-02  1.97652094E-02  5.94891319E-03  1.92666628E-02  1.02613091E-02
  9.15722379E-03 -2.71710703E-04  6.11127259E-03  1.22900249E-02  4.67309282E-02
 -2.84639501E-17  1.02283750E-01 -2.25279544E-01  6.65623189E-02  1.91998543E-01
  1.81550351E-01 -5.09502622E-01  1.28661055E-01 -5.32861459E-02  1.72148143E-01
  6.89105566E-03  1.72113082E-02 -8.78720228E-03  3.63009022E-02  9.83000516E-03
  1.00607308E-02 -2.86942690E-02  5.77137616E-02 -2.49214836E-01 -2.92310776E-01
  5.71270857E-03 -2.59894756E-01 -1.32274830E-01 -6.57002860E-02 -1.30497549E-01
  7.15090988E-02 -3.04994931E-02 -3.11833859E-02  2.71071869E-02  7.36835442E-03
 -5.91440556E-03 -6.35568175E-02  1.33442967E-01 -8.77440492E-02  1.02712256E-01
 -5.45274811E-02  6.37413733E-01 -2.21982475E-02 -2.47639663E-02 -1.96404253E-04
  8.01015481E-03 -1.99643436E-02  1.01828270E-02 -1.05861799E-02  1.15674966E-02
  4.50155263E-04  3.88991943E-02 -7.68196432E-02  2.58481867E-01  1.10466983E-01
  1.28451509E-01 -2.69535542E-01  2.08280740E-01  5.23413658E-03  1.28283401E-01
  4.08673842E-03  9.04194520E-03  1.07861476E-03  1.37297393E-02 -4.55651500E-03
  9.60431344E-03  2.49480917E-02 -6.72264333E-02  8.89223611E-03  7.38517960E-02
 -6.67841306E-02 -1.72014362E-01  5.56893517E-02  1.01885065E-01 -5.30265137E-02
 -2.07131612E-03 -2.63175557E-04 -9.77613260E-04  3.21355405E-04  1.55073304E-04
 -3.82607676E-04 -1.16128187E-02  4.58312809E-03  1.82694123E-01 -4.09861792E-17
  5.37454291E-03 -1.47523131E-02 -3.69586391E-03  2.81735994E-02 -8.73951814E-02
  3.10935779E-02 -2.85945579E-02  1.32116683E-01 -8.93337599E-02  1.81848519E-03
  3.16424260E-03 -8.62707505E-03  4.54285653E-03 -4.16525742E-03 -3.00887203E-03
 -8.79708076E-04 -1.31246920E-02 -2.16919492E-02  2.64209710E-02  1.25677217E-02
  8.84921802E-02  8.39989713E-02 -8.31356101E-02 -9.27398933E-03 -1.25204680E-02
  5.00123593E-03  4.44863548E-03 -1.74088426E-03 -2.90420303E-02 -7.25987724E-03
  1.70023112E-02 -1.99278893E-02  1.10184932E-02 -2.24213854E-02  5.12886779E-02
 -2.55520893E-01 -1.41460738E-02  8.63303004E-03  2.52680020E-03 -1.22202718E-02
  8.33772250E-04  8.21888559E-03  1.72673417E-02 -4.78374054E-03 -4.09976451E-03
 -2.20266496E-02  5.73740632E-02 -2.12832349E-01 -3.01331326E-02  8.96586763E-02
  1.20112657E-01 -1.60894141E-01  1.52765464E-02  5.31743474E-02 -1.14322248E-03
  6.41260279E-03  2.08756202E-03 -1.30535098E-02  5.27816347E-03  2.55329108E-03
 -1.34894121E-02  4.67170409E-02 -8.79384195E-03 -6.67492231E-02  2.60191133E-02
  5.85129636E-02 -1.50034423E-02 -6.40270010E-02  1.60010611E-02  5.02748159E-03
  3.17544264E-04  6.95434402E-03  4.95481799E-03 -9.68777261E-04  1.91678022E-03
  4.15809463E-03  2.84216054E-03  1.05031971E-02  3.13140275E-03  1.28165626E-16
  1.13530348E-01 -2.52646043E-01  1.33296322E-01  4.07717550E-01  1.55950593E-01
 -3.60686595E-01  1.70590955E-01 -1.32193735E-01  9.69964242E-02  1.76233596E-02
  6.94745437E-03 -1.26166247E-02  3.45817431E-02  8.03318286E-03 -5.95046741E-03
  1.38309054E-01 -2.33407793E-01  1.24016986E-01 -2.77035972E-01 -1.01675214E-01
 -8.91175231E-01  3.06011663E-02  4.00564204E-02 -2.60313639E-01  6.12046421E-02
 -9.21974746E-03 -2.09703840E-02  2.41151020E-02  6.01650373E-03 -9.44194710E-03
 -4.46667606E-02  9.79747070E-02 -8.92513230E-02  4.14651495E-01 -2.10046611E-01
  5.14618198E-01 -2.16454225E-01 -4.49018986E-02 -7.49627643E-03 -1.53742456E-02
  5.57683670E-03  1.50228374E-03  2.93376961E-02 -1.10212892E-03 -2.54629240E-03
 -4.97685379E-03 -3.08293371E-02  4.69221090E-02 -3.31491871E-01  2.31391984E-01
  5.63846936E-02  6.52770082E-02 -1.98987487E-01  1.40673474E-01 -3.03194097E-03
 -2.11331252E-02 -1.04767693E-02  1.39024573E-02 -2.61509277E-03  1.92448594E-02
  1.56264380E-02 -4.23271627E-02 -4.93641069E-01 -1.95357860E-03 -7.91632248E-02
 -3.98022185E-02 -3.26130745E-01 -5.24280645E-02 -1.96539887E-02  2.95626510E-02
 -1.96986593E-02 -1.87043448E-02 -8.76390700E-04  5.58821978E-03  9.81095499E-04
  4.53420456E-02 -1.18144293E-01  3.44705429E-01 -2.22014441E-01  8.12295285E-02
 -2.55441279E-16 -3.49392749E-02  7.63337138E-02 -2.52227804E-01  1.41745223E-02
 -2.79512472E-02  3.87685979E-01 -3.39452859E-01  5.24369175E-01 -6.96986194E-02
  2.92518093E-03  4.48943317E-03 -3.30298211E-03 -1.79768572E-02  3.95798037E-03
 -8.25911011E-04 -1.34823265E-01  2.94926053E-01 -1.93307990E-01 -3.26753669E-01
  3.08239734E-03  8.70383204E-01 -1.59397363E-02 -3.47931562E-01  2.44965739E-01
 -3.16569021E-02  1.43665043E-02  5.94625965E-04  2.43817545E-02 -7.82854617E-03
 -3.21520568E-03 -1.13925545E-02  1.02131876E-01  6.81057770E-02 -7.06028057E-02
 -1.30261393E-01 -5.62617253E-01  1.13202857E-02  1.48022702E-01 -1.21097111E-01
  1.12225114E-02 -1.72609260E-02  1.55738010E-03  2.81563578E-02 -1.31372062E-02
  4.22928777E-03 -8.81661324E-03  3.56941833E-02 -8.66667868E-02 -3.21635054E-02
  3.88775645E-02  2.15674989E-01 -1.07038874E-01  9.51076151E-02 -2.50966465E-03
 -4.60986159E-03  1.41773777E-02  1.08753962E-02 -1.73687787E-02 -1.40916456E-03
 -1.70906032E-02 -1.37739747E-02  8.26670886E-02 -2.20486289E-01  8.33971875E-02
  5.62099832E-02 -2.75691809E-02 -1.23300634E-01  1.09995307E-01  3.48933951E-02
  1.40991406E-02  1.99707381E-02  8.73838324E-03  3.40306077E-03  2.08449445E-03
  2.31771819E-03  1.85603061E-02  2.92868559E-02  1.82713891E-01 -7.44526251E-03
  1.80536106E-02 -3.41830870E-01 -8.89755364E-17  6.07616711E-02 -1.28222981E-01
  6.38429157E-03  1.35459642E-01  1.07102590E-01 -2.26268035E-01  4.13821162E-02
 -1.73066185E-02  8.52354565E-02  8.42969660E-03  6.73971611E-03 -6.86792846E-03
  1.79758253E-02  6.46664822E-03  1.87009532E-03  1.67108523E-02 -3.43607043E-03
 -6.67202539E-02 -2.18399901E-01  2.37164912E-02 -1.64032729E-01  2.13345196E-02
 -4.94729949E-02 -7.05491548E-02  3.15670497E-02 -8.50469255E-03 -1.79878320E-02
  1.28034014E-02  6.16395641E-04 -2.94062841E-03 -2.77999331E-02  8.28772582E-02
  5.66185083E-02  1.86562948E-01 -5.48183492E-02  3.11981709E-01  4.34188924E-02
 -1.25704194E-03  1.54581777E-02  9.00342450E-03 -2.33060464E-02  1.12682562E-02
 -1.12548534E-02  1.36083553E-02 -2.08456360E-03  4.17143048E-02 -9.94614350E-02
  4.35781189E-01  1.44236464E-01  2.00209066E-01 -1.75194764E-01  3.09971824E-01
  8.05072412E-02  1.51167400E-01 -4.40642019E-03  1.28634346E-02 -3.18863160E-03
  1.97492682E-02 -1.17170704E-02  8.44782946E-03  4.37502874E-02 -9.54487591E-02
 -2.25202980E-01  1.15554963E-01 -1.59693088E-01 -2.80100853E-01 -1.09019410E-01
  9.06464029E-02 -1.04473676E-01  1.52563272E-02  2.03876975E-03  4.71140500E-04
 -5.76225113E-03  9.31341526E-03 -5.68424178E-03  2.49933929E-02 -5.87918632E-02
  3.78545308E-01 -1.27337615E-01  4.96937349E-02 -1.39536541E-02  2.36168265E-01
 -3.16210884E-17  7.18314653E-03  5.23157071E-03 -3.45996467E-02  1.51391895E-02
 -8.54938266E-02  7.30611014E-02 -5.09497170E-02  1.27849504E-01 -7.84090423E-02
  1.07574027E-03  1.58841792E-03 -5.06180741E-03 -2.89672293E-04 -8.48407318E-04
 -6.72579993E-04 -6.16294035E-03  1.00792314E-02 -8.76770322E-02  7.37925468E-03
  1.75666655E-03  7.27541596E-02  5.88259663E-03 -6.30552360E-02  1.98765582E-02
 -1.38635146E-02  6.35426148E-03  4.82186569E-03  3.56186493E-04 -1.47526927E-02
 -4.43098174E-03  1.79091056E-02 -3.59824748E-02  1.09725668E-02  3.44070916E-02
  1.19975458E-01 -2.26715513E-01 -4.43943429E-02  1.69121603E-02  5.07482637E-02
 -9.47957086E-03 -4.65727474E-03  1.37767275E-02  2.64006210E-02 -1.01629672E-02
 -1.16077242E-02 -2.00103130E-02  4.59137770E-02 -2.89282258E-01 -9.65607894E-03
  2.11956336E-01  1.03367413E-01 -2.11613800E-01  2.20182087E-02  1.33500053E-01
  3.28894617E-03  7.11949994E-03 -6.93577527E-03 -1.47450340E-02  2.68187075E-03
  7.06080705E-03 -2.78083378E-02  7.14377966E-02  8.77872315E-04 -1.63570162E-01
 -5.40119945E-02  1.40570674E-01 -1.42163695E-02 -1.27980920E-01 -5.79330350E-02
 -1.24110282E-04 -4.76402105E-03  6.71589948E-03  9.80502779E-03  1.22409965E-03
  1.05407623E-03  1.10631211E-02 -1.11007557E-02  6.70000347E-02  4.40252784E-03
 -9.39557668E-03 -1.02324100E-01  3.42721430E-02 -4.41523722E-02 -6.38496583E-17
 -3.34248385E-03  5.06606263E-03 -1.77732054E-02  2.03776914E-03  2.61322604E-03
  1.81990539E-02 -2.18659303E-02  3.34581887E-02 -1.20336722E-03  5.36341717E-04
 -2.70596326E-04 -9.35629231E-05 -1.77480951E-03  1.55917051E-04 -3.98800303E-04
 -5.83559875E-03  8.56992249E-03 -4.76941218E-03 -7.37194752E-03  3.66586090E-03
  6.26309185E-02 -4.16287457E-03 -2.24701907E-02  2.00255805E-02 -1.02238070E-03
 -4.16229614E-04  5.86666014E-04 -2.61522490E-04  3.72664591E-04  2.27448687E-04
 -2.69980545E-03  1.01974286E-02 -1.16589400E-03 -1.26203837E-02  7.27226248E-03
 -1.78579016E-02  8.25625689E-03  2.01665569E-02 -6.22192804E-03  8.61856097E-04
 -2.01042772E-03  4.49167308E-04 -2.70974800E-03  6.21456861E-04  3.43712112E-04
  2.04499096E-03 -1.56123704E-03  1.66275971E-02  2.40727473E-02 -7.48216501E-03
  9.14943688E-04  9.29265748E-03  1.88999467E-02 -5.99190448E-03 -6.85411796E-04
  2.38897866E-03  8.99468204E-04 -1.01735444E-03 -4.42826612E-04 -1.62551230E-03
  7.50244224E-04 -6.15272672E-04  1.68056027E-02  1.27684310E-02  3.61988913E-03
 -1.64561986E-02  1.66045838E-02  1.51484411E-02 -2.16366212E-04 -5.26163425E-04
  2.01335201E-03  1.33131678E-03 -1.70864627E-04 -2.82965443E-04 -2.76792490E-04
 -2.25062415E-03  8.00991986E-03 -3.09665637E-02 -1.63963639E-02 -5.24553514E-03
 -7.91878161E-03 -3.66349262E-02 -2.33231898E-02 -7.26715532E-03 -2.65173376E-19
 -4.90041348E-03  1.02367471E-02  8.76821267E-03 -2.95787652E-02 -1.96568443E-02
  5.27991264E-03  5.24831321E-03 -1.40749749E-02 -6.31980381E-03 -1.66920525E-03
  9.38692047E-04  3.93819994E-04 -5.95495191E-04 -4.95079516E-04  1.71164817E-03
 -1.28316362E-02  2.50362950E-02 -1.45354566E-02  1.63519807E-02  7.51345148E-03
  2.24549867E-02 -8.23018000E-03  9.55467545E-03  5.57630313E-03 -9.86764218E-04
  7.01411226E-05 -1.60153867E-04  1.25607235E-03  3.16382920E-04  6.17455314E-04
  2.27079214E-03 -4.43380661E-03  1.76714376E-03 -1.49744643E-02  3.38598357E-03
 -1.06851413E-02  7.37290548E-04 -3.65664873E-03 -4.68626955E-04  5.08236681E-04
  8.47915788E-04 -7.57305906E-04 -4.49148581E-04 -5.42312554E-04  3.05212690E-04
  8.04159305E-04 -2.32931949E-03 -1.16162048E-02  3.34567839E-03 -1.40656983E-02
 -3.64037466E-03 -7.83506541E-03  1.42050134E-03 -9.23857820E-03  2.20894199E-04
 -3.08929006E-04  1.70852631E-04 -3.43379020E-04  3.59179568E-04 -6.57441679E-04
 -7.10689082E-04  4.08325646E-04  1.12374767E-02  2.86986958E-03  2.31852024E-03
  7.42207443E-03  5.28809543E-03  1.67331843E-04  2.39616062E-03 -9.53029579E-04
  1.44499347E-04  2.75937661E-05 -1.31295999E-04 -2.43906492E-04  7.01651183E-05
 -4.53186596E-03  9.62428847E-03 -1.92414305E-02  3.96473432E-02 -3.06761849E-03
  1.67040450E-02 -1.40857720E-02  2.03382173E-02 -3.97205671E-03 -1.34395442E-03
  9.75937807E-20  1.16930469E-03 -3.12789719E-03  9.34156127E-03  2.22335151E-03
  6.94161508E-03 -5.78885417E-03  9.64314028E-03 -8.15612603E-03  1.44026245E-03
 -3.75005985E-04 -2.77178789E-04  4.66828682E-04  4.98047765E-04 -4.89604976E-04
 -4.74265792E-04  2.02818015E-03 -7.15383549E-03  1.02292034E-02  4.10270390E-03
 -3.57769554E-03 -1.73235767E-02  3.20839687E-03  1.41859354E-03 -7.31525292E-03
 -3.43179228E-04  1.99738453E-04  5.62803993E-04 -6.23289492E-04 -6.54346179E-04
 -4.40712577E-04 -1.23133909E-03 -2.11143642E-03 -9.75101650E-03 -1.81812881E-02
  8.68082007E-03  1.70453723E-03 -4.32853729E-03 -9.50948860E-03  4.18836028E-03
 -7.93012745E-04  6.13969285E-04 -2.32879591E-04  7.63283983E-04 -1.17430543E-04
  1.17904686E-05  1.64739178E-04  2.38194365E-03 -3.01681319E-02  2.75851684E-03
 -6.51023745E-03 -7.09578394E-03 -1.88587235E-02 -2.17548939E-03 -2.33494046E-03
  8.26435995E-04 -1.53582324E-04 -5.15522113E-07 -1.12869712E-03  1.03579810E-03
  9.25779503E-06 -2.43299175E-03  1.28150092E-03  2.72436641E-02 -5.08920787E-03
  1.15415249E-02  1.82282034E-02  1.44187820E-02 -6.38238432E-03  8.20830614E-03
 -1.83651700E-03 -5.68278351E-04 -1.03958625E-04  4.59076739E-04 -9.57459980E-04
  4.79293732E-04 -6.61952950E-04 -3.75914804E-04 -1.44292631E-03  3.89167604E-03
 -1.36293841E-03 -3.76671342E-04  2.81293111E-03  3.04837533E-03  6.78922144E-04
 -5.97534264E-04  1.80699511E-04 -2.07225367E-19  8.85332084E-03 -1.87508417E-02
  1.94731862E-02  2.10527397E-02  1.69535125E-02 -4.03277146E-02  1.67794367E-02
 -2.05918220E-03  1.38555865E-02 -1.43843912E-04  1.68034054E-03 -5.36200882E-04
  3.23340649E-03  2.90627975E-04  6.08010806E-04 -1.50677107E-03  9.82203315E-04
 -7.27464992E-03 -1.98961404E-02 -4.72720396E-03 -2.26954106E-02 -8.99185847E-03
 -6.05484442E-03 -1.19934694E-02  5.29286659E-03 -2.74427501E-03 -1.84666940E-03
  1.87832178E-03  6.36456226E-04 -7.10500988E-04 -5.81253788E-03  1.28616051E-02
 -1.52806338E-02  9.09299432E-03 -5.01998500E-03  4.44862001E-02 -7.88699469E-03
  2.00671154E-03 -2.70976114E-03 -8.51683786E-04 -1.72285777E-04  2.92292790E-04
 -9.08742693E-04  5.00902391E-04 -1.04862690E-04  1.71461493E-03 -3.92387699E-03
  1.90658003E-03 -2.75370836E-03  2.49433660E-03 -9.25433444E-03  3.68113643E-03
 -4.64592921E-03  3.00324304E-03  1.32710171E-04 -2.74002256E-04 -1.58879683E-05
  1.78780217E-04  2.13902039E-04  6.02920812E-04  1.69073265E-03 -4.58797222E-03
 -1.68885940E-03  4.11155901E-03 -4.40481553E-03 -9.69345882E-03  1.86950047E-03
  3.58971371E-03 -2.53917345E-03  3.84633508E-04 -3.90576447E-04 -2.98983240E-04
  9.63651946E-07 -2.72046113E-05  9.41156498E-05 -1.31252256E-03  1.72708985E-03
 -1.30515613E-02  1.55949428E-02  2.83430873E-03  2.33772815E-02 -1.82180452E-02
  1.76702829E-02  8.97550062E-04 -1.22895948E-04 -3.04950032E-03  4.61949693E-05
 -4.10332284E-19  1.48922584E-03 -1.83417406E-03  1.54454990E-03  4.89963962E-03
 -5.98193480E-03 -2.51824878E-03 -3.78139560E-03  1.26111535E-02 -4.86297721E-03
 -5.03637395E-07  6.33186355E-04 -7.15824901E-04  5.50045248E-04 -2.82646148E-04
 -1.21115636E-04 -1.09965945E-03  2.06986704E-03  7.32741431E-04 -8.76640911E-04
 -3.37801850E-03  1.81734781E-02  7.99609813E-03 -5.17244297E-03  1.86111552E-03
 -1.01835937E-03  1.67370479E-04  3.47212084E-04  1.72595214E-04 -1.56846830E-03
 -9.39155752E-04  1.26519221E-03 -1.78996877E-03  4.89297243E-03 -4.98013062E-04
 -2.31659843E-04 -1.60742673E-02  6.68969763E-03  3.54403926E-03 -1.84402534E-03
  2.82628467E-04 -6.85391401E-04  5.56672184E-04 -2.18944297E-04  4.55773938E-04
  2.31674085E-04  1.91659488E-04  5.13228798E-05  6.32446165E-03  4.08629454E-03
  4.12828133E-03  3.31049477E-03  2.68328029E-03  5.08457026E-03  2.33763742E-03
 -3.84678349E-04  7.68304742E-04  3.33965297E-04 -1.55246193E-04 -1.33782239E-04
 -7.56401283E-05  3.34104681E-04  6.80353724E-04  1.69634893E-03  1.02976336E-03
  1.02845648E-03 -7.61778135E-03  2.42713282E-03  2.29538923E-03  6.21583420E-04
  3.13514878E-04  6.73582828E-04  6.35970468E-04 -7.67068708E-05  3.22636835E-05
 -1.10767688E-05  2.96792785E-04  5.46383785E-04 -1.78089025E-03  2.09680193E-03
  1.38727761E-02 -3.60203833E-03 -3.79610675E-03 -2.17957688E-03  6.82413089E-03
  3.48434550E-04 -2.89063450E-04  5.36256171E-04  2.26104385E-04 -7.98022299E-20
 -4.18098477E-03  1.02773590E-02 -1.75265017E-03 -2.25677916E-02 -2.39278853E-03
  1.05575264E-02 -9.19363284E-04 -1.16154820E-02  7.38344834E-04 -8.26935331E-04
  6.36834616E-04 -1.03515129E-04 -1.06287004E-03  1.36082097E-04  3.20652065E-04
 -1.60567727E-03  5.40122727E-03 -5.21084340E-03 -4.99173567E-03  2.72540341E-02
  2.54264270E-03 -7.91473484E-03  2.77427314E-03  1.49535817E-02  1.32820672E-04
  7.70567461E-04 -1.20201042E-03  1.07870884E-04  1.54103575E-03  1.19084462E-03
 -1.73952278E-03  2.94819655E-03 -1.93394416E-03 -1.53658812E-04 -1.32935129E-03
  1.08560457E-02  9.63608486E-05 -3.45068606E-07 -6.11092489E-04  7.80914903E-04
  6.24817321E-04 -1.29574180E-03 -1.34115253E-03 -4.67531868E-04  9.68628054E-04
  1.18351320E-03 -2.22768789E-03  1.19992765E-02 -3.79526255E-03 -1.56078806E-02
 -6.24142490E-03  9.41075765E-03 -4.69478231E-03 -1.09100087E-02  4.98375143E-05
 -3.87214461E-04  4.24538531E-04  6.32304249E-04 -1.97221010E-04 -5.74025586E-04
 -1.71821031E-04 -7.49589793E-04 -1.42633118E-03  6.77006142E-03 -2.45606426E-03
  1.48006822E-03 -1.17898166E-03  6.67532242E-03 -2.04399688E-03 -3.11127536E-04
  2.15691865E-04 -3.95840023E-04 -3.97752975E-04 -8.41153171E-05 -2.83239896E-04
  1.11817538E-03 -2.50500298E-03  1.31723676E-02  6.84210221E-04  6.05873236E-03
 -1.26343670E-03  1.09108647E-02 -2.51257035E-04  3.04912732E-03  4.95553754E-04
 -2.36623835E-04 -2.58266773E-04  4.31650248E-04  1.57298320E-03  5.43278415E-19
  1.71718449E-01 -3.34535297E-01 -5.35795146E-01 -7.05972402E-01  5.26212769E-02
 -2.56265909E-01 -2.34531545E-01 -3.82083889E-01  1.24179703E-02  3.31094393E-02
 -5.42883221E-02  1.74595645E-02 -3.43809934E-02  1.13475420E-02 -3.35176466E-04
  1.31232917E-02 -1.60458214E-02  1.57015411E-02  4.39641321E-02 -3.86292865E-02
 -1.31078704E-01  1.46998930E-02 -2.87039472E-02 -7.88322035E-02  1.72670905E-02
 -2.89663949E-02  9.72791943E-03 -1.55092765E-02 -1.14480335E-02 -6.89909987E-03
 -1.31704479E-02  8.68045008E-03 -4.43324112E-02 -2.33753002E-02 -6.48216876E-02
  1.70725740E-01 -2.14043886E-02 -1.20208831E-02 -2.95003498E-02  2.00886569E-03
 -1.35293741E-02  5.41810383E-03 -4.30003135E-03  3.50502180E-04 -8.66130480E-04
  7.77271330E-03 -1.42540145E-02  2.19757109E-02  2.00796175E-02  6.78367176E-02
 -6.66500288E-02  2.63682935E-02 -1.46422067E-03  6.70107760E-02  3.32950255E-03
 -3.31143548E-05  1.67531477E-03  1.34216121E-03 -1.33234935E-03  2.61911256E-03
  2.33009110E-02 -4.34606335E-02  1.22544039E-01 -9.12694685E-02 -2.21865721E-02
 -1.68177508E-01  1.03738188E-01 -7.93036889E-02  1.48742736E-02  6.67071581E-04
  5.09043535E-03  4.99500735E-03  3.30418069E-03 -2.66887231E-03  9.65593674E-03
  7.90007595E-02 -1.78885414E-01  5.67911417E-02 -2.31555736E-01 -2.86895605E-02
 -3.93623707E-01  4.42528020E-02 -1.52869391E-01  1.14953945E-03  6.61689792E-03
  1.63028531E-02  9.85117515E-05 -2.31544604E-02 -4.75313760E-03  1.25571217E-02
 -3.94118086E-17  1.12866236E-02 -7.35501432E-02 -6.55265759E-01 -5.42539332E-01
  4.88626482E-02  7.89422616E-02 -2.73465987E-01 -3.27686823E-01  5.65261203E-03
  3.91997410E-02 -5.56523619E-02  1.30175400E-02 -3.15020298E-02  1.59045021E-02
 -6.39536010E-03  1.43243356E-02 -3.64970269E-02  4.25278379E-02  8.64091950E-02
 -6.95509007E-02 -2.43246562E-01  7.93103544E-02  2.28029132E-02 -1.79580661E-01
  7.66704649E-03 -1.55294469E-02  1.35643633E-02 -3.24311689E-02 -1.76283491E-02
 -2.96463728E-03 -1.37028131E-02  2.47431014E-02  2.33175069E-02  6.21319663E-02
 -1.15019520E-02  1.44753017E-01 -3.38313004E-02 -5.87608242E-02  3.09739173E-02
 -1.06826365E-02  1.79767080E-02 -1.44746479E-02 -3.05671762E-03  2.60228507E-02
  1.72848946E-02  1.26689407E-02 -2.24049311E-02  2.04052539E-01 -4.14112234E-02
 -1.60569209E-01 -1.05450636E-01  1.64217584E-01 -5.76937148E-02 -1.08336020E-01
 -1.56711284E-03 -8.33740717E-04  9.78378616E-03  1.47163204E-02 -7.36186830E-04
 -1.93388216E-03  1.78676514E-02 -3.57792460E-02 -2.27521296E-01  3.73711479E-01
  4.84823846E-01 -1.58843211E-01 -1.52059916E-01  2.27715788E-01  4.06321422E-01
  2.12724542E-02  7.96145682E-03 -1.35357049E-02 -2.09774235E-02 -2.28993708E-02
  1.21264712E-04  1.60804333E-01 -3.56503052E-01  4.48192319E-01 -5.14520962E-01
  7.92633805E-03 -6.15607998E-01  3.85927592E-01 -2.84100748E-01  7.64120174E-02
  2.76403772E-02  1.41683692E-02 -5.33692936E-03 -4.33283535E-02 -2.54440393E-03
  1.25549012E-02 -2.29465408E-02 -3.16003446E-16 -3.60537530E-02  6.80276810E-02
  2.46034162E-02 -4.82596862E-02  1.80079980E-01  7.58072156E-02  3.19046346E-02
 -2.40817408E-02  9.58981387E-02 -8.49358922E-03 -1.07425537E-03  1.06824664E-02
  4.32288629E-03 -9.04934824E-03 -3.52452988E-03 -8.83579780E-03  2.53977865E-02
 -3.58410873E-02  2.11424516E-02  1.26608710E-02  3.46605099E-02 -6.15552944E-02
  1.23771971E-02 -1.56725598E-02  1.47704434E-03  7.42811112E-05 -3.44244045E-03
 -3.52603467E-04  3.89826894E-03  2.30160105E-04  4.82070810E-04 -9.27631974E-03
 -1.31265401E-04 -8.17979436E-03 -1.25237612E-02  3.98071137E-02 -9.97771153E-03
 -4.32552509E-02  9.92397102E-03  1.37866989E-03  3.12737018E-04  2.87846359E-05
  1.70278191E-03 -1.61765331E-03 -1.48075258E-04  5.05835602E-05  7.35783301E-03
  1.70620321E-02 -7.21772696E-03 -1.35120892E-02 -3.62169694E-02  5.32646935E-03
 -1.42073186E-02 -2.17572661E-03  2.07697054E-03  3.67122999E-04  3.12682478E-03
  8.64933072E-04  4.95191860E-04 -5.08079601E-04 -5.21702334E-03  2.13861887E-04
 -3.11421968E-02  1.82223741E-02 -3.93758014E-02  7.58452505E-02 -2.53866580E-02
  1.54160447E-02 -3.40709859E-02 -5.58293298E-03 -5.73304847E-03 -3.59740767E-03
 -2.48593131E-04  3.20096413E-03 -2.36781444E-03 -1.77109302E-02  3.85579379E-02
 -1.21087113E-02  3.83777665E-02  5.76608797E-02  6.33933524E-02 -2.98206039E-03
  2.48073870E-02  4.59410975E-02 -2.14905093E-03  3.17050897E-03 -2.73051745E-03
  2.34946481E-03  4.92892820E-03 -4.36288114E-03 -5.40114938E-02 -1.35709861E-01
  3.82169828E-17 -5.27321988E-03  1.80441206E-02  1.00010257E-01 -5.14702941E-02
  1.48107459E-01  2.17226751E-02  7.45023389E-02 -4.15916694E-02  7.71206283E-02
 -1.05358497E-02  9.59114404E-05  1.05852768E-02  5.65632365E-03 -9.65375963E-03
 -9.28440858E-04 -9.44206558E-03  2.29117055E-02 -5.37354175E-02  6.11758603E-02
  2.99871669E-02  1.58376117E-02 -4.43317915E-02  3.66859510E-02 -1.23925076E-02
  8.60555122E-05 -6.43828554E-04 -2.25394298E-03 -2.94347830E-03 -7.52968451E-04
  2.59551404E-03  2.62015132E-03 -2.33110234E-02  2.16803954E-02 -2.17004344E-02
 -5.17149791E-02 -2.03798261E-03 -3.02318823E-03 -6.05784115E-02 -1.00434918E-02
  1.21765463E-03  4.14605285E-03 -2.18934336E-03  3.73249267E-03 -5.21582373E-03
 -1.54428696E-03 -1.18233760E-02  3.29899921E-02 -9.13390428E-03 -1.89331121E-02
 -1.37564546E-02  5.00087479E-03 -1.43827951E-02 -1.61330039E-02 -1.38345706E-03
  9.28622327E-04 -1.34050329E-03  3.16925286E-03  8.33684590E-04  1.29588271E-03
 -3.88904034E-04  2.10136595E-04 -6.84473124E-03 -8.26381678E-02  2.10422565E-02
 -2.23842996E-02  5.43004527E-02 -6.24051479E-02  1.50447180E-02 -1.48598762E-02
 -1.87562648E-03 -4.74465543E-03 -4.75460241E-03 -1.54297633E-03  4.55000857E-03
 -6.69086885E-04 -2.55667835E-03  1.76061904E-03 -1.66611118E-03  1.54989596E-02
 -7.40583626E-03  1.70389264E-02  1.26135814E-02  1.79080641E-02 -2.07805302E-03
 -3.23493536E-04  5.22393974E-03 -5.50594102E-03 -4.10698011E-04  1.06779180E-03
  2.88025150E-03 -1.07885577E-01 -1.01685665E-01  4.64667381E-03  6.41137050E-18
 -9.48691021E-02  1.93309808E-01 -4.74215579E-01  6.92918608E-02 -1.29044307E-01
  1.26080515E-01 -2.62174204E-01  1.27153685E-01 -4.99592568E-02  1.07364040E-02
 -8.36895631E-03  2.39726805E-04 -4.39507003E-02  9.72904005E-03 -5.46751996E-03
 -3.75562216E-02  7.40213593E-02 -4.65942031E-02  3.49139311E-02  8.48969347E-02
  2.52743325E-01 -6.14430904E-02  3.03931936E-02  1.28821039E-01 -6.17503424E-03
 -3.18370282E-03  2.67740037E-03 -8.65037215E-03  5.60204173E-04 -1.76135165E-03
 -1.61254279E-02  6.40026329E-02 -2.78461372E-02  6.15154642E-02  4.28363453E-02
 -2.78427161E-02 -1.21196856E-02  8.41385182E-02  4.16686195E-03 -1.96730661E-03
  3.35611565E-03 -3.61169347E-03  7.51027704E-04  2.13872186E-03 -2.98091088E-03
 -4.33153475E-03  3.33282717E-03  1.20534307E-02 -8.45369847E-03 -3.64292983E-02
  6.83257866E-02  1.36553949E-02  8.42853319E-03 -4.28012176E-02 -4.55655716E-03
  1.26288376E-03 -1.61954949E-03 -1.94665630E-03 -2.31312258E-04 -1.35692699E-03
 -1.20457717E-02  3.22824654E-02 -1.14437103E-01  1.02833293E-01  4.51218549E-02
  6.45463063E-02 -7.44494917E-02  8.68297322E-02 -1.63840381E-03  6.23610285E-03
  9.08222058E-04 -9.57553037E-04 -1.38990817E-03  1.74669374E-03 -8.31032606E-03
 -2.28590686E-02  5.77776823E-02 -1.48078722E-01  4.79452529E-02 -4.77647460E-03
  2.86240362E-02 -1.41421697E-01 -1.24612568E-02 -2.31133651E-02 -9.29326274E-03
  7.24348682E-03  6.58536682E-03  1.24240296E-02  9.50981656E-04  4.83521815E-04
 -2.70093594E-01 -4.85787677E-01  2.77689110E-02  4.78199736E-02  3.38582622E-17
 -3.30178682E-02  9.06091315E-02 -4.32127270E-01 -1.94640172E-01 -1.78927173E-01
  1.19165341E-01 -2.13832059E-01 -5.61916142E-02 -9.96690376E-02  4.98493337E-03
 -1.22472865E-02  4.11646397E-03 -4.98686683E-02  6.20242805E-03 -1.35220560E-03
 -4.86110243E-02  1.16441484E-01 -7.86893033E-02  8.70442294E-02  1.64763602E-01
  1.51280833E-01  1.42664212E-02  1.10130672E-01  9.22323172E-02 -3.07511609E-02
  9.63710011E-03  8.78086881E-03 -2.87083861E-02 -7.44075117E-03 -2.00139491E-03
  1.33978723E-02  3.00874155E-03  9.23590814E-02  1.38899837E-01  1.40327775E-01
 -9.05548904E-02  3.26649484E-02 -3.83210035E-02  1.12811555E-01 -3.34905729E-03
  1.96214151E-02 -1.53941076E-02 -4.95249084E-03  1.48256519E-02  6.70890093E-03
  1.08842385E-02 -2.43889285E-02  1.76995949E-01 -1.75190455E-02 -1.18552303E-01
 -6.27728246E-02  1.34580773E-01 -3.54715360E-02 -1.03725768E-01 -2.76342722E-03
  4.46270202E-03  1.51650096E-03  1.14597193E-02 -2.63450376E-03  1.28979307E-03
 -7.17251536E-03  1.09194869E-02 -2.83594350E-01  2.46761393E-01  2.89091650E-01
  9.08430232E-02 -2.19052194E-01  1.65985655E-01  1.88484799E-01  1.30016292E-02
 -1.28499997E-03 -1.27953382E-02 -1.25732739E-02 -9.84598318E-03 -1.24504564E-02
  1.01106087E-01 -2.17195960E-01  5.18237071E-01 -2.88550103E-01  1.11197145E-01
 -3.73341186E-01  4.39851344E-01 -1.77815879E-01  1.01247439E-01  2.32959451E-02
  9.22746875E-03 -3.15463589E-03 -1.44686430E-02  1.06992406E-02  3.09317235E-03
 -4.55532067E-01 -5.39513605E-01  2.26503590E-02  4.23532895E-02  3.06974421E-02
  2.92558642E-17 -3.19698352E-03 -2.26843161E-03  3.27692621E-02  9.51481362E-03
  7.14997023E-03  6.21175164E-02  4.48036174E-02  2.12910266E-02 -1.61536856E-03
 -2.54397991E-03 -2.87261467E-03  4.45978057E-03  1.21159084E-03  9.48463409E-04
  5.38327308E-03  1.81500264E-02 -4.21900819E-02 -9.69819170E-03 -2.87214223E-02
  9.80964176E-02  5.47501527E-03  6.65672076E-02 -3.68062854E-02  2.52616903E-02
  6.42679739E-04  4.40074829E-03 -8.41997758E-03  6.73201940E-03 -9.42189673E-03
  6.15474858E-03  2.29782205E-02 -4.85944603E-02  7.31419441E-03 -6.27455214E-02
 -2.30858733E-02 -1.91478334E-01  2.69483761E-03 -1.06194876E-01  6.08731541E-03
  2.76234470E-03  2.98107796E-03 -3.29638184E-03  1.11542956E-02 -4.49934756E-03
 -3.73023438E-03 -2.71280112E-03  9.52723736E-03 -9.25204541E-02 -9.60728942E-03
  9.05823863E-03  8.41917406E-03 -7.23912164E-02  1.16083139E-02  1.26731399E-02
  3.96210203E-03 -3.55106277E-03 -5.61487721E-04 -3.39589465E-03  3.87988940E-03
 -1.17048573E-04 -5.55365499E-03  6.83785762E-03  8.45920111E-03 -6.67864986E-02
  7.53264761E-02  7.09241459E-02 -1.50902187E-02 -8.41190991E-02  6.94237648E-02
 -1.78981744E-03 -4.91567862E-03 -3.65587198E-03  3.36221107E-03  1.70673727E-04
  4.50846087E-03 -3.39620745E-02  8.05410189E-02 -4.85625548E-02  1.27593748E-01
 -4.66092539E-02  1.33381189E-01 -3.90272920E-02  1.01203803E-01 -4.19183501E-02
  3.18437438E-04 -6.54564710E-03 -4.67026043E-03  4.64516204E-03 -4.23079303E-03
  2.01889692E-02 -3.90498733E-02 -6.33735269E-02 -6.70912450E-03 -1.36084805E-02
  6.85630813E-03 -5.57669916E-04  9.90232998E-18 -7.84570456E-03  1.14783023E-02
  5.48390569E-02 -2.64549089E-02  3.03819413E-02  4.66347097E-02  5.98093079E-02
 -2.26046106E-02  3.08873688E-03 -4.92927136E-03 -4.43727482E-03  8.80544127E-03
  2.54773685E-03 -1.95483935E-03  3.65217059E-03 -1.19032831E-03 -6.55140747E-03
 -1.44360960E-01 -1.22366636E-02  5.42874824E-02 -3.34752665E-02  2.48061196E-02
  2.51618585E-02  5.43035053E-03 -1.11301178E-02  1.01541343E-02 -5.30515048E-03
  6.40049481E-03 -1.49370122E-02  4.55201893E-03  4.64007262E-02 -1.10734877E-01
  1.18099512E-01 -9.02232190E-02 -1.37744146E-01 -2.64466247E-01  8.23333582E-03
 -1.67355045E-01 -3.13756409E-02  3.93438979E-03  7.02216753E-03 -3.54299019E-03
  2.99598882E-02 -1.95858840E-02 -6.99376775E-03 -1.03200606E-02  2.88608609E-02
 -1.96927528E-01 -5.72502050E-02  4.50896766E-02  2.98364159E-02 -1.53630992E-01
 -1.22880647E-02  4.75301711E-02  4.98710256E-03 -6.55596543E-03  1.78138387E-03
 -3.03495690E-03  4.17605193E-03  3.07497285E-04 -4.20110806E-03  1.79391457E-02
 -1.90319798E-01 -8.58472016E-02  7.88253525E-03  8.34568760E-02 -1.59982442E-01
 -9.00051851E-02  3.07248113E-02  4.94583534E-03 -4.54871456E-03 -5.36360093E-03
  9.12192327E-04  8.16738410E-03  5.79465736E-03 -1.53227381E-02  3.62596597E-02
  1.34150944E-01  1.57721225E-01 -6.69621688E-02  2.70262733E-02  1.29834793E-01
  1.07894727E-01 -6.56368353E-02  9.40880552E-03  9.26348742E-04 -1.04039192E-02
  5.36310364E-03 -3.41654660E-03  1.87348230E-02 -4.77248017E-02 -2.88460227E-02
  1.11353875E-02  8.56512742E-03 -1.54141278E-02 -3.12236031E-02  2.60323772E-02
 -2.91222155E-18 -1.91059127E-02  2.57288661E-02  3.99465132E-02  1.89640890E-02
 -1.28937149E-02  1.97457821E-01  2.59376374E-02  9.49075125E-02 -3.69472477E-04
 -5.16394811E-03  2.21608135E-03 -8.12751769E-04  3.32928658E-03  6.80794052E-04
  1.62296149E-03  9.54156540E-03 -1.48859065E-02 -1.14713061E-01  3.43078744E-02
 -2.08568381E-02 -3.51739066E-02 -1.57351592E-01 -8.99192551E-02 -3.08445786E-02
  1.12715478E-03  7.83697262E-03  1.29621196E-03  6.93532975E-03 -1.29767661E-03
  1.33846424E-03 -4.15200711E-03  2.74949899E-02 -1.26292559E-02 -7.48052517E-02
  5.82700353E-02 -1.20687678E-01 -1.05508486E-01  1.58461600E-01 -6.63437050E-02
 -6.53809368E-02  3.11099464E-02  1.59519684E-02 -2.15585352E-02  1.18577033E-03
 -2.10767686E-02 -4.32760763E-02  8.69391247E-02  2.85315712E-01  3.28779629E-01
 -1.18181669E-01  2.84799629E-01  2.25384622E-01  2.81654179E-01 -1.09283169E-01
 -2.86941208E-02  1.67832011E-02 -3.37380162E-03  5.77343671E-03 -6.21724060E-03
 -1.24074038E-02 -7.32136337E-02  1.90401437E-01 -5.24055470E-01  6.55930545E-01
 -4.53969431E-01 -9.95807159E-02 -3.63409371E-01  3.29420728E-01 -2.46590742E-01
  3.55899388E-02  3.64174021E-02  8.53646760E-03 -3.01568551E-02  2.66637531E-02
 -3.34744648E-02 -5.75458913E-03  3.67077386E-02  9.60842564E-02 -1.48257068E-02
  3.09629120E-02 -5.48782480E-02  3.43694862E-02 -1.06207255E-01  5.94477434E-02
  4.19877806E-04  2.27946845E-03  8.46205549E-03 -1.69313966E-03 -4.07668914E-04
 -1.27995301E-03  1.53060524E-02 -9.22290303E-02 -1.39614337E-03 -1.37299621E-02
 -2.18527051E-02 -8.31937403E-02  7.26153505E-03 -1.40420005E-02 -1.52133744E-16
  1.06204133E-02 -1.09985763E-02 -2.02580086E-01 -1.18528429E-01  4.44550066E-02
  1.22498384E-01 -9.39335443E-02  6.70383857E-03  8.72373690E-03  2.50855283E-03
 -8.88814490E-03  4.26593723E-03 -1.03456915E-02  5.17668675E-03 -1.79640842E-03
  9.85474246E-03 -1.10242210E-02 -7.39170163E-02 -9.90264202E-02  9.15508826E-03
  4.17240612E-02 -5.68474946E-02 -1.44229366E-01  1.63058334E-03 -3.27385217E-03
  7.14555838E-03 -4.21848906E-04  3.06751588E-03 -4.78657751E-03 -7.00512571E-04
 -4.00551674E-02  1.13907248E-01  8.72565601E-02 -1.32440782E-01  1.30540520E-01
 -3.53557187E-02  2.78110314E-02  1.33735341E-01 -2.49902551E-02 -4.33947546E-02
  2.96071403E-03  1.26541906E-02 -3.99185763E-02  1.42294739E-02 -1.32060836E-02
 -8.15942445E-03  1.42299869E-02  5.19044867E-01  5.56281494E-01 -1.35563129E-01
  3.53826707E-02  3.68170516E-01  3.70010264E-01 -8.83481827E-02 -2.49517825E-02
  3.39223566E-02 -9.90122793E-04  1.04879942E-02 -9.85422041E-03 -1.71780329E-02
  6.25251760E-02 -1.37405199E-01 -3.48347475E-01  2.60794258E-01 -3.05024593E-01
 -3.90669077E-01 -2.28301902E-01  1.19610116E-01 -1.88673201E-01  2.77311015E-02
  1.93126371E-02  1.13565798E-02 -7.27342989E-03  1.47070068E-02 -1.41740498E-02
  9.39919117E-03 -3.52610900E-03  2.97372885E-01 -5.71121306E-02  4.30631535E-02
 -9.45377312E-02  1.77632655E-01 -1.26292504E-01  7.74167436E-02  8.11309269E-03
  1.50977391E-03  3.24017272E-03 -3.88431479E-03 -1.08067976E-03  2.02987617E-03
 -1.19756911E-01 -1.65201150E-01  4.64178447E-02  3.54354290E-02  1.04958813E-01
  3.22116325E-02 -1.46818500E-02 -4.67243070E-03  4.79788391E-03  3.00224810E-17
  5.87933421E-03 -1.25761757E-02 -6.92121244E-03  5.54121949E-02 -3.94764873E-02
  2.30365858E-02 -4.08252743E-02  9.46132531E-02 -6.70359870E-02  1.53760424E-03
 -1.58593458E-03 -8.76616818E-04  6.88265057E-04 -4.36700582E-03 -5.31975041E-03
  5.71253763E-03 -3.09512652E-02  6.37947753E-02  4.21653008E-02 -6.52077807E-02
  2.64288769E-02  1.24594017E-01 -4.06788887E-03 -1.36457163E-02 -1.92889331E-02
  1.10622878E-02  1.10794483E-02  4.80074687E-04 -2.56449820E-02 -1.77332065E-02
  2.64889708E-02 -5.16096402E-02  4.34857732E-02 -5.20293676E-02  4.39869429E-03
 -2.70585464E-01  9.62515724E-03 -3.99342895E-02 -7.02335534E-04 -5.77253385E-03
  2.14867659E-03  3.16037575E-03  1.32544222E-02 -1.08638370E-03 -2.21209185E-03
 -1.91474114E-02  4.32511379E-02 -1.40551944E-01 -3.57271206E-02  2.66616524E-02
  8.90518174E-02 -1.10816379E-01  5.36986217E-03  1.50751012E-02 -2.07107092E-04
  8.80174810E-04  1.47356675E-03 -7.45525160E-03  3.45047734E-03 -3.13389628E-04
 -1.06390599E-02  2.88182035E-02  3.34103800E-03 -4.13472653E-02  6.28705952E-02
  7.35776851E-02 -1.76960213E-02 -5.34611063E-02  5.21374473E-02  8.19706307E-04
 -4.62417911E-04  1.74466396E-03  2.65153614E-03 -1.39708905E-03  2.24626152E-03
 -5.10760437E-02  1.11531856E-01  7.36854453E-02 -1.56708208E-01  3.58405298E-01
  1.26921749E-02  9.75447864E-02 -1.23828377E-01  2.02468012E-01 -4.54956053E-03
  5.52840508E-03  1.62800665E-02 -5.28996371E-03  7.69974497E-03 -1.90862858E-02
  1.22511223E-02 -3.34967918E-02 -2.48156531E-02  3.69485360E-02  4.73865075E-03
 -8.72656609E-02  1.10995417E-01  1.53330124E-01 -2.15360249E-02 -1.50791878E-02
 -2.79218981E-17 -9.93986597E-03  1.51429637E-02 -6.36132115E-02 -4.50416268E-02
  2.72990442E-02  2.90873454E-02 -6.21656736E-02  1.76974540E-02 -8.15615861E-03
  1.60361627E-03 -8.57333813E-03  6.49783109E-03 -6.02086715E-03 -4.62634692E-03
 -4.55791653E-03 -2.03685714E-02  2.78720700E-02  1.61221230E-01  7.72422396E-02
 -8.01405484E-02  2.49398368E-01  2.16950439E-01  2.93131310E-03 -1.84541925E-02
 -2.10800014E-02  2.81170072E-03  1.18493661E-02 -8.43698899E-03 -2.23386288E-02
 -1.01748788E-02  1.38291024E-02 -1.53662807E-02  1.43882938E-01 -1.39121314E-01
 -6.07311049E-02 -1.98620810E-01  1.84679485E-01 -4.42006831E-02 -3.36760454E-02
  1.53436856E-02 -1.20251539E-02 -3.39618904E-03 -2.68934584E-02  2.37932433E-02
  9.05935127E-03  3.35287816E-02 -5.56804852E-02  3.86546044E-01  2.14773267E-01
 -1.22529836E-01 -1.10769700E-01  2.53501979E-01  1.48623478E-01 -6.65219576E-02
 -8.07831827E-03  1.25231389E-02  1.07331781E-02  1.21225606E-02 -4.78080901E-03
 -9.85371736E-03  3.81828020E-02 -7.56922905E-02  3.40570445E-02  2.13696836E-01
  1.11851910E-01 -2.39880085E-01  3.77995147E-02  1.46171420E-01  1.06664153E-01
  2.56508753E-03  1.50499910E-02  3.11933612E-03 -1.18128345E-02  3.76967498E-05
 -3.57687670E-03  9.39884156E-03 -1.66611207E-02  5.86761402E-02 -7.79791676E-02
  2.18197494E-01 -1.17942422E-01  6.82342818E-02 -6.22832526E-02  1.19152053E-01
  4.00210818E-03  3.87892138E-03  7.95033808E-03 -1.94715539E-03  3.77669456E-03
 -9.91155446E-03 -7.87468755E-02 -9.17617310E-02  3.60311409E-02  4.70899650E-02
  3.18884908E-02 -3.43350127E-02  1.32442686E-01  9.20557972E-02  9.77125491E-02
  1.38910602E-01 -1.55735466E-02 -6.10493677E-17 -7.36609632E-02  1.54547220E-01
 -3.61852763E-02 -1.98823307E-01 -1.00430787E-01  4.13423337E-01 -4.83452980E-02
 -4.38710438E-02 -9.26280386E-02 -4.49743424E-03 -6.68372519E-03  5.40801356E-03
 -2.37595195E-02 -2.27184638E-03 -1.28822286E-04 -7.43882587E-03  2.93905469E-02
  3.72194103E-02  7.02549150E-02  9.53173560E-02  2.79965482E-02  3.10597292E-02
  4.37472236E-02  8.78121316E-02 -3.54098928E-02  3.72068276E-02  4.46362053E-03
 -1.68905295E-03  1.66251254E-02  2.41056968E-02  2.66263115E-02 -5.46816702E-02
  5.68227216E-02 -4.94791422E-02  1.70455817E-02 -2.25798264E-01 -1.18658029E-02
 -3.04022417E-02  2.43542540E-02  4.02708837E-03  8.41781938E-03 -8.46256762E-03
  3.03659242E-03 -1.06261499E-02  2.31805968E-03 -1.30374607E-02  2.99832786E-02
 -6.65940983E-02 -5.16770849E-02 -7.19751696E-02  4.86687106E-02 -5.06979151E-02
 -2.25274432E-02 -6.30304217E-02  1.96698466E-03 -2.22117745E-03  2.00768050E-03
 -2.12518974E-03 -1.05166179E-05 -5.50352013E-03 -1.32033708E-02  2.60097200E-02
 -3.71926982E-02 -1.37466633E-02 -4.95104374E-03  1.19152848E-01 -5.21975130E-02
 -2.14072791E-02 -4.71394076E-03 -3.33680355E-03  3.39430438E-04 -2.94551604E-03
 -4.18477662E-04  3.32270186E-04 -5.11510583E-04 -1.05178762E-01  2.28696924E-01
  3.40505453E-01 -5.21430899E-01 -4.87241231E-01  8.79498207E-02  3.04438979E-01
 -3.33741706E-01 -2.40677914E-01  5.43476002E-03  3.25060946E-02 -9.57165434E-03
 -2.39986764E-02 -1.76369835E-02  3.12004524E-02 -1.48283674E-01 -3.15257240E-01
  3.83858860E-02 -2.42089683E-02  3.94065417E-02 -1.42737291E-01 -5.26721523E-02
 -8.31403192E-02 -1.06458137E-02 -5.56119852E-02 -5.34124246E-02 -7.41055114E-02
 -6.54067832E-17 -8.24153228E-02  1.81085601E-01 -3.82673164E-02 -3.42950908E-01
 -1.72622639E-01  3.98416297E-01 -6.56956543E-02 -6.91129333E-02 -1.17938595E-01
 -8.77293410E-03 -4.06453505E-03  4.34232145E-03 -2.53892440E-02 -2.85054395E-03
  4.65884748E-03 -3.12903947E-02  8.97865828E-02 -4.24234853E-02  1.46026313E-01
  1.88823270E-01  1.94776303E-01  5.46090235E-02  6.30396923E-02  1.47388299E-01
 -4.47522712E-02  3.06548413E-02  6.11128776E-03 -9.24366751E-03  8.41836301E-03
  2.28326128E-02  3.68137275E-02 -7.26397376E-02  1.84016067E-01  6.59369034E-03
  1.49581389E-01 -2.91744813E-01  9.20898538E-02 -1.53831312E-02  9.06677363E-02
  1.19826155E-02 -1.27529267E-02  5.65235558E-03 -6.98395313E-03 -2.62560953E-03
 -6.92985831E-03  1.79477049E-02 -3.49977565E-02  1.56588516E-01  2.07453027E-01
  1.09517836E-01 -6.05853211E-02  9.63541445E-02  1.41981345E-01  6.75987937E-02
 -1.49287500E-03  1.69344890E-02 -5.45554356E-03  4.95494317E-03 -9.36800987E-03
 -1.10559933E-03  3.71782122E-03 -2.76829750E-03 -6.10503579E-02 -4.18525594E-02
 -1.98391845E-01 -2.10769374E-02 -5.25882771E-02 -4.41220237E-02 -1.53315416E-01
 -9.54331481E-04  3.43976772E-03  6.34065735E-03 -7.33220680E-04  9.80310261E-03
 -7.85678412E-03  2.55748059E-02 -5.06733968E-02  4.21994457E-01 -2.78937760E-01
 -3.27200674E-01 -2.14370105E-01  3.64415797E-01 -1.95308457E-01 -1.55557254E-01
  2.03953215E-02  2.21768755E-02 -1.42290478E-02 -1.29981356E-02 -6.90208652E-03
  2.23948390E-02 -2.21426882E-01 -3.84456858E-01  2.33200204E-02 -3.48465875E-02
  3.19272931E-02 -1.71164735E-01 -5.73347419E-02 -8.00676743E-02  5.52408630E-02
  3.17216483E-02 -7.91221062E-02 -6.86066011E-02  6.45601649E-03 -2.74336368E-17
Grdnt Energy                               R     -3.237303314981865E+02
Grdnt NVar                                 I               54
Grdnt IGetFC                               I                4
Internal Forces                            R   N=          54
  5.37999075E-06  7.40136322E-06  4.01842979E-06  4.26147298E-06  1.96748718E-05
 -4.13980132E-05  3.41947587E-06  3.64240590E-05 -2.01090498E-05  6.92772658E-06
  1.09270582E-05  1.22635281E-05 -1.15606059E-06  7.18750565E-06  1.65664563E-06
 -3.65543108E-06 -2.18701191E-06 -2.06200247E-06 -5.95422470E-06  9.53103352E-06
 -4.77568874E-06 -2.31391929E-06  2.90034766E-06  4.30497069E-07 -1.20268719E-05
  1.44951885E-05 -2.38546439E-06 -6.95166891E-06 -1.08964871E-08  7.11513786E-06
 -4.35575981E-06 -1.38577459E-07 -5.98107458E-07  2.53195988E-06  3.20133547E-07
 -1.39396453E-07  2.99067088E-06 -2.51732001E-06 -2.97685001E-06  1.53217330E-07
  6.19736046E-06  1.96233088E-06 -1.07771187E-07 -4.34280077E-06 -1.17295955E-06
 -5.40798913E-06  6.30251052E-07  2.18581924E-06 -1.65396012E-06 -9.83919309E-08
  8.43175465E-07  2.39874365E-06  7.88464523E-06  3.95517245E-06
Internal Force Constants                   R   N=        1485
  2.72259100E-01  3.66472704E-03  3.39729880E-01  6.08233709E-03  2.63507457E-03
  3.39929514E-01  3.93301335E-03  2.33204284E-03  2.42234367E-03  3.47684482E-01
  1.50664914E-02 -1.11007099E-03 -5.39817810E-04 -9.48988530E-04  2.40415864E-01
  1.60983058E-02  6.18686119E-04  1.22094477E-03 -4.81707088E-05  2.06649329E-02
  3.42504251E-01  6.16705437E-03  7.21828708E-04 -8.90224976E-04  4.81539744E-04
  5.71955328E-03  9.86967249E-03  3.24560813E-01 -4.04009748E-04 -4.65979430E-04
  1.33152374E-03  5.19697070E-04  3.29163928E-02  3.38282900E-03 -2.05739956E-05
  8.89854284E-01  1.89832112E-03  2.18767539E-03 -8.02106593E-05  5.13554648E-05
  1.88644388E-02 -9.54950329E-06  3.72369235E-03  8.21233337E-02  3.85147196E-01
 -3.24300645E-04  2.35404977E-04  8.26186742E-05 -1.25032053E-04 -9.25407701E-04
 -3.52358591E-04  7.97680577E-05 -3.26209949E-03  2.39680355E-03  4.98993214E-01
  1.06337296E-03 -1.63718944E-04  2.04059591E-04 -4.85671922E-06 -2.41425435E-03
  3.17882032E-03 -1.08250466E-03  1.09731994E-03 -1.46271674E-04 -1.44684922E-04
  4.36114585E-01  7.92122851E-05  2.46863975E-04 -1.95504518E-04 -1.64977605E-04
 -1.06352279E-03  7.06746427E-04  4.39341197E-04  1.01046958E-03 -7.61590079E-04
  7.31856264E-05 -1.53111960E-03  4.38532101E-01  1.34717642E-02  4.04478339E-04
 -5.50871778E-03 -4.81815490E-03  2.17639229E-03  7.83885983E-03 -7.39482149E-04
 -1.39537284E-03  3.04075698E-03 -6.76207522E-04 -1.41982150E-04  1.50861284E-03
  1.07305813E-01  1.62102306E-02 -5.98403794E-03  1.71816488E-03 -5.05068585E-03
 -3.97934767E-03 -3.38665882E-03  3.50073184E-03  8.05443633E-04 -1.16209891E-03
  4.27611682E-05  1.04427752E-03 -8.33917112E-04 -2.07481845E-02  1.08187643E-01
  1.67502321E-02 -5.74585016E-03 -5.44848560E-03  5.47553227E-04  1.04180907E-03
 -3.45547177E-03 -1.32164531E-03  3.34758034E-03  1.73318979E-03 -8.00300389E-05
 -7.35445867E-05 -6.27960351E-04 -2.04949191E-02 -1.82875058E-02  1.02692111E-01
 -1.59377693E-02  5.77064446E-03  4.81268967E-03  2.72988255E-04  4.98763259E-04
 -1.75532652E-03 -1.06323597E-03 -2.31942466E-04 -8.38435700E-04  4.35426705E-04
 -5.18804551E-04 -1.79924265E-04 -4.11912184E-02 -4.33384747E-02  1.30882176E-02
  5.39655501E-02 -1.59458895E-02  5.71168676E-03  8.61313519E-05  4.49541836E-03
 -7.32849645E-04 -1.08790818E-03  3.00504054E-04 -7.32646744E-04 -2.58317063E-03
  2.32813022E-04 -3.69839115E-06 -2.18006501E-04 -4.10479536E-02  1.29223292E-02
 -4.05944911E-02  1.00033425E-02  5.23624101E-02 -1.64744033E-02  1.27433248E-04
  4.83819586E-03  5.01278241E-03  9.87525565E-04  1.75510560E-03 -7.00520652E-04
 -1.91462557E-03 -3.58086907E-04  7.66313193E-05 -3.29715329E-04  3.35920434E-04
  1.32204241E-02 -4.08083149E-02 -3.96157980E-02  9.92014245E-03  9.37751967E-03
  5.10395059E-02  1.03995093E-02 -4.31094639E-03 -3.42587378E-04  4.09532437E-03
  3.73059943E-03 -1.71186611E-02 -2.57286516E-03  3.47663715E-03  8.13172147E-04
 -8.29905166E-04  2.32130971E-03 -2.02737603E-04 -3.38713839E-03 -3.27354932E-03
  1.18284856E-02  1.89530258E-03 -3.86589864E-03 -3.46390911E-03  7.38685144E-02
  6.82150243E-03  5.41625225E-03 -9.83915718E-04 -3.85334559E-03 -1.43446652E-02
  1.26267281E-02 -6.18572068E-04 -2.30004154E-04 -2.84211594E-03  1.47458787E-03
  5.35448411E-04  5.80600383E-03  1.24903032E-02 -6.39240369E-03 -8.61448751E-03
 -2.42853786E-03 -1.92681616E-04  5.18499047E-03 -3.92507272E-02  8.56748227E-02
  4.39973246E-03 -4.30544296E-04  1.70276191E-03 -5.36680081E-04 -2.37738442E-03
 -6.10973113E-03  7.10644463E-04 -2.09462777E-03  2.67397595E-04 -6.53918992E-04
 -1.49002309E-03 -1.53848493E-03 -4.57079359E-03  9.39554657E-03 -3.34674571E-03
 -1.63645056E-03  2.28788428E-03 -2.09856802E-03 -1.39346031E-02 -1.75259846E-02
  2.91450838E-02 -1.25742481E-02 -3.04043754E-04  2.70188293E-04  1.73882921E-04
  1.53178415E-02  8.79467752E-03 -1.58796048E-03 -4.12397767E-03  2.63289551E-03
 -6.54733383E-04 -4.74372959E-03 -4.76008605E-03 -6.18410615E-03  5.48439538E-03
 -1.75243920E-03  1.02912708E-03  2.53804092E-03 -9.50786945E-04 -3.26554962E-02
 -3.78941068E-02  2.60104721E-02  7.38441022E-02 -4.96719766E-03  1.05280936E-03
 -5.64324080E-04 -9.53701902E-04  1.06701495E-03 -3.82008885E-03  3.10157787E-03
  2.67606512E-03  1.50676113E-05  6.35770432E-04  3.19404783E-04  1.28431134E-03
  3.39478037E-03 -3.16176683E-03 -1.85298253E-03 -9.82907609E-05 -6.52482204E-05
  1.82396486E-03 -1.59817206E-02  2.85718253E-02 -1.16092834E-02 -1.52650280E-02
  2.50152709E-02 -4.01260386E-03 -1.46024185E-03  1.97806246E-05  1.02816400E-03
 -3.84768238E-03  5.19177187E-03  1.21315856E-03  2.92548446E-04 -9.32931877E-04
  1.42927171E-05  3.13124242E-03 -6.28692629E-04 -1.95502786E-03 -1.59886443E-03
  3.55437201E-03  1.14666650E-03 -5.76555342E-04 -5.84360531E-04  2.75854055E-02
 -2.00865104E-02 -1.10828626E-02 -1.39692788E-02 -1.08530627E-02  2.84030955E-02
 -1.60894086E-04  1.74563828E-03  5.38289216E-04  1.07641540E-04  2.08267612E-02
 -1.37249301E-02  4.15406855E-03  1.77725589E-02 -4.70105585E-02  5.80746635E-04
 -2.18150526E-03 -9.26327151E-04 -1.74664398E-03 -1.13015984E-03  3.25372062E-03
  1.00228196E-03 -7.52766523E-04 -6.52017497E-04 -1.93395220E-03  3.26750828E-03
 -3.65676582E-03 -1.75195897E-03  5.09877127E-03 -1.11538125E-03  1.64550208E-01
  3.08733883E-03 -1.43977784E-03 -2.57919279E-04  1.34962271E-04  1.09309252E-02
  1.31287516E-02 -1.68721455E-03 -4.42902106E-02  1.24851680E-02 -1.26849333E-02
  7.93399049E-04  1.73953902E-04  4.27324424E-03  3.05897482E-04 -1.61027987E-03
 -2.02025933E-03 -1.09132335E-03  1.01325563E-05  2.15932833E-03 -9.76739708E-03
  4.97163587E-03  9.38901252E-03 -5.86679478E-03 -8.87334283E-04 -6.72781271E-02
  1.64423550E-01 -2.94737761E-03 -3.17830415E-04 -2.83194687E-04 -2.48611983E-04
 -3.17623635E-02  6.14762377E-04 -2.44929300E-03  2.65226155E-02  3.45311462E-02
  1.21013410E-02  1.39186859E-03  7.51954408E-04 -2.49986181E-03  8.19608053E-04
 -1.68181518E-03  1.01180080E-03  1.84922209E-03  6.59960924E-04 -3.10070957E-04
  6.52332679E-03 -1.30986510E-03 -7.61304988E-03  8.24142015E-04  1.98046647E-03
 -9.72862024E-02 -9.70969688E-02  1.94357776E-01  2.28113291E-03  9.56924214E-04
 -5.53689290E-04 -3.03464806E-04  5.23422371E-03 -4.15414265E-03  2.61601130E-03
  1.06724208E-02  4.42810444E-02  1.59573320E-02  1.23652459E-04 -2.61318293E-06
  2.82366073E-03 -9.78250646E-04 -4.16595133E-04 -9.17005743E-04 -1.16248968E-03
  5.85465011E-04  1.18660866E-03  7.60016168E-04 -2.24755698E-04 -2.32326968E-03
  1.33075941E-03 -7.01584389E-04 -1.47540568E-02 -7.97407322E-03  2.27254208E-02
  1.81962601E-01 -1.46675689E-03 -5.75986245E-04  1.38662559E-03 -3.10326410E-04
 -4.00268455E-03  3.81564556E-02  3.74672175E-03  3.72863146E-03 -4.60183937E-03
 -4.79688049E-05  1.23510869E-02 -2.66351507E-03 -1.04327138E-03  1.59092568E-03
  3.21138500E-04 -3.98034884E-04  3.93487117E-04 -8.91228913E-04  5.05521210E-03
 -5.59746755E-03 -2.27461710E-03 -3.49329165E-03 -2.59616158E-03  9.02992522E-03
 -3.94770662E-03  2.34124930E-03  1.58064516E-03 -1.34935211E-03  1.63144788E-01
  4.45173074E-03  9.14559518E-04  5.23398708E-05  2.52910391E-04 -2.83026485E-03
  3.78903373E-02 -4.83502337E-04  1.90590581E-03 -1.99757892E-03  3.40522195E-04
 -2.70974040E-03  9.28858987E-03  5.27642060E-03 -1.41321659E-03 -1.61015977E-03
 -1.50251898E-03 -1.67147355E-03  8.06426009E-04 -5.94734822E-03  1.28568318E-02
 -1.90809184E-03 -3.76797055E-03  3.55859688E-03 -4.94241730E-03 -9.85008591E-04
 -1.45439548E-04  1.15026869E-03  1.07617410E-04 -2.77463677E-02  1.62373257E-01
 -1.23442596E-03 -1.39130402E-04 -7.62167676E-04  5.98312786E-05  2.93946569E-04
 -2.01748386E-02 -1.25029862E-03 -4.72751300E-04  4.45623700E-04 -8.06346596E-05
  6.35379190E-03  7.43026007E-03 -1.69072528E-03 -1.05256197E-04  5.16147083E-04
  9.74609764E-04  4.01287759E-04 -4.20254529E-05  1.32454873E-03 -2.84091812E-03
  1.22817051E-03  1.51475173E-03 -2.93681148E-04 -9.09827274E-04 -9.80464078E-05
  3.56194370E-04 -2.53340374E-04  3.68033078E-04 -5.42305221E-02 -5.19144859E-02
  5.61153879E-02  2.06110967E-03 -6.37553903E-04  3.68212830E-03 -2.84512798E-03
 -3.74662987E-03 -9.14058380E-03  2.83158178E-03  2.00403161E-03 -2.33689121E-04
  2.29907995E-04  1.58374112E-03  8.56665196E-04  5.26721258E-04  4.44591414E-03
 -3.59798620E-03  5.33577893E-03 -6.31973673E-03 -4.39587057E-04  1.00953085E-02
  5.17264263E-03 -4.18711560E-03 -2.11855408E-02  7.90291162E-03  2.49727378E-03
  1.12909554E-03 -3.03988619E-03  1.92710753E-03  1.26243136E-03  8.67980368E-04
  1.57409718E-04  2.51191035E-04  1.65862459E-02 -1.99156198E-03 -2.57245555E-04
  3.10903576E-03 -2.46021972E-03  8.33492251E-03 -1.08646676E-03 -1.38215322E-03
 -9.82801878E-04  1.70163326E-03 -1.54242312E-04 -2.45686903E-03 -1.30724457E-03
 -1.02380770E-03  4.72530470E-03 -3.60719297E-03  6.27064673E-03 -5.90283923E-03
 -4.54270600E-04 -7.43355043E-03 -1.07764193E-02  7.06444709E-03  2.37087392E-02
 -2.74026949E-03 -1.00446820E-02 -1.69257691E-04  3.60467561E-03 -3.43091801E-03
 -3.38567015E-04 -3.93606016E-03  1.55845131E-04  1.12312959E-03  2.73403470E-04
  1.77511532E-02 -4.23150575E-04  7.92376680E-04  3.56365501E-03 -3.70796226E-03
 -5.76416617E-03  8.74628213E-03  1.39950116E-04 -1.97342616E-03 -8.69502720E-04
  3.16272684E-04  7.49839659E-04  3.21232142E-04  1.02434321E-03  4.63531106E-03
 -6.12881511E-03  5.33255562E-03 -5.38049587E-03  5.52871486E-04 -4.45749971E-03
  3.24562483E-03  7.17681956E-04  5.82589290E-04 -6.40019333E-03  6.37873002E-03
 -1.78508017E-03 -9.49345973E-05  1.87386716E-03 -8.84024423E-04  2.45322869E-03
  3.58262902E-04 -8.63222138E-04  3.77194514E-03  3.67633585E-03  1.35976531E-02
  2.17202904E-03 -4.10928261E-03  5.34887849E-05  3.48759601E-03 -3.08647224E-03
 -9.79145107E-03  2.26221633E-03  2.67122113E-03 -3.90647115E-04  9.73559006E-05
  1.61751768E-03  6.56442021E-04 -4.23666335E-03 -1.25077466E-03  6.00452826E-03
 -5.93124059E-03 -6.28826752E-04  6.27966690E-03  1.21949900E-02  4.35391113E-03
 -5.54096184E-03 -2.21570568E-02  7.94810422E-03  3.44224746E-03  1.79612370E-03
 -3.52691686E-03  1.74038142E-03  1.22288822E-03  9.71179497E-04 -4.69821463E-04
  2.10604410E-04  6.40488494E-03 -1.02560877E-02 -6.86642793E-03  1.76078461E-02
 -1.88064260E-03 -3.72897426E-03 -5.19603750E-04  3.87250427E-03  8.99508013E-03
 -1.73733404E-03 -1.95151868E-03 -3.15612355E-04  1.54467527E-03 -2.86794407E-04
 -2.42309247E-03 -1.50746774E-03 -5.78719231E-03 -9.71384099E-04  5.99532149E-03
 -4.99637278E-03 -2.11929251E-04  6.26498335E-03 -5.33386895E-03 -1.15951508E-02
  5.71060085E-03  2.27372232E-02 -2.69507689E-03 -9.09970832E-03  4.97770473E-04
  3.11764495E-03 -3.61764411E-03 -3.78110158E-04 -3.83286103E-03 -4.71386050E-04
  1.08254296E-03 -9.90795751E-03  7.22166196E-03 -6.96203722E-03  9.46873415E-04
  1.80764929E-02 -3.12231202E-04 -2.67935202E-03 -6.49845052E-05  2.62476173E-03
 -5.10400855E-03  8.09541485E-03 -4.29415341E-04 -1.30623664E-03 -1.02646071E-03
  1.83720589E-04  7.83616213E-04  1.21008967E-04 -3.73904140E-03 -1.06137774E-03
  3.47369935E-03 -5.93446389E-03  3.10414111E-04  7.27212544E-03 -2.35781823E-03
  2.42689332E-03 -6.36164282E-04 -3.88926685E-04 -6.35500074E-03  7.32370370E-03
 -1.11805201E-03 -5.81965265E-04  1.68714105E-03 -9.23567566E-04  2.55642782E-03
 -2.68968279E-04 -9.03808763E-04 -6.40941583E-03 -6.85315536E-03  2.95928007E-03
  4.33653323E-03  3.89279370E-03  1.37052291E-02  2.24883549E-03  2.88898983E-03
 -3.55903964E-03  6.06534395E-05 -2.53281837E-03 -7.76770462E-03  1.81844554E-03
  2.46948604E-03 -3.16565015E-04  2.68818480E-05  1.43564853E-03  1.13546668E-03
  4.72217727E-03 -5.37598390E-03  2.37613443E-03  4.89836504E-05  5.06309939E-03
 -7.20694261E-03  1.11355562E-02  7.16779089E-03 -6.58768039E-03 -2.32278745E-02
  8.76492368E-03  2.93631722E-03  1.27491356E-03 -2.73280228E-03  1.47176673E-03
  1.35323169E-03  9.03973446E-04  3.87515885E-04  7.93724706E-06  6.47159518E-03
 -1.03345829E-02 -6.57213722E-03  6.97204033E-03 -9.83413775E-03 -6.07169208E-03
  1.75895717E-02 -1.80383615E-03  3.26929818E-03 -4.13213218E-03  4.45561698E-04
  9.54873400E-03  2.86412423E-04 -2.39528946E-03 -5.17347445E-04  1.61875737E-03
 -3.57268459E-04 -2.60496162E-03 -1.02844308E-03  3.17164832E-03 -5.09659334E-03
  2.36692766E-03  9.83851453E-04  5.47999689E-03 -7.22162615E-03 -6.39330273E-03
 -8.78127107E-03  4.66388230E-03  2.16664055E-02 -1.87825743E-03 -9.60563856E-03
 -2.34396737E-05  3.91175953E-03 -3.88625880E-03 -2.47766688E-04 -3.90006708E-03
  3.85951297E-04  8.79875800E-04 -9.84124727E-03  7.14316681E-03 -6.66774652E-03
 -9.68893235E-03  7.29548172E-03 -6.51543161E-03  7.83393569E-04  1.77678076E-02
 -2.35424752E-04  4.31892041E-03 -3.67751293E-03 -8.02180837E-04 -4.55035468E-03
  1.01191613E-02 -8.73186125E-04 -1.50797173E-03 -9.52378614E-04  1.13246537E-04
  6.01747066E-04  6.00033630E-04  5.21979922E-03 -5.18658698E-03 -1.54694479E-04
  4.57603458E-05  6.00234025E-03 -6.21448407E-03 -3.41725201E-03  5.24077309E-03
 -1.68288284E-03 -1.45974437E-03 -5.53818128E-03  6.81777346E-03 -1.63926216E-03
  2.12149319E-04  1.41852636E-03 -7.93224096E-04  2.48922177E-03  5.88369068E-04
 -1.10647593E-03 -6.34270559E-03 -6.93165052E-03  3.25357078E-03 -6.29927254E-03
 -6.88821747E-03  3.29700383E-03  4.54583925E-03  3.95689432E-03  1.41421156E-02
 -1.77427357E-03  1.72957984E-03 -1.08731283E-03 -1.00276013E-03 -2.72151113E-03
  1.05524460E-02 -1.20034240E-03 -9.03521398E-05 -3.37446443E-04  7.33140418E-04
  1.01182559E-04  1.93335800E-03  4.44229410E-03 -5.12880263E-03 -2.81912152E-03
  3.96876366E-04  2.21746374E-04  2.99156764E-03 -1.55118847E-02  2.86538495E-02
 -1.14918234E-02 -7.44745902E-03  9.88115792E-03 -4.61710684E-03 -1.27768394E-04
 -2.27250518E-03  2.61561529E-03 -4.22967822E-04 -2.84793925E-03  5.35383910E-03
 -8.54949402E-04 -1.60553667E-03 -1.96169078E-03  1.99549737E-03 -1.53069304E-03
 -1.88684715E-03  2.07034100E-03 -3.60888402E-04 -7.17042508E-04  3.24014564E-03
  1.82485575E-02 -6.67666761E-04  2.34947423E-03 -9.38250385E-04 -6.92071407E-04
 -2.05558097E-03  9.56651187E-03 -2.06100746E-03 -6.30182979E-04 -1.14455174E-03
  7.33281364E-04 -1.12586458E-04  1.94382502E-03  3.10078390E-03 -4.90281883E-03
 -8.28464476E-04  7.02700019E-04 -6.48036439E-05  2.05724938E-03 -1.11778489E-02
  2.73819332E-02 -1.17393938E-02 -8.58707012E-03  7.00958542E-03 -3.50477134E-03
  2.10322631E-03 -3.71016661E-03  1.36520343E-03 -5.89250312E-04 -1.55409219E-03
  4.32363656E-03 -1.09809801E-03 -2.46162395E-03 -2.15073147E-03  2.28381269E-03
 -2.03885432E-03 -1.72796184E-03  2.70658232E-03 -1.08636054E-03 -7.75468062E-04
  3.65907610E-03  7.19676658E-03  1.95550114E-02 -9.44387620E-03 -1.87991879E-03
  2.50822789E-04  8.33118790E-04  2.28956509E-03  6.67227562E-04  2.62871106E-03
  5.42578078E-04  8.84344360E-04 -1.00540781E-04  1.03580872E-03 -2.07991571E-03
 -4.86786160E-03  1.70904734E-03  8.15839679E-04  1.41296322E-03  1.54451659E-03
 -4.89383194E-04  3.66465993E-03 -2.65321851E-02  3.18399248E-03  1.37288267E-02
 -4.52506594E-03  1.08315442E-02 -1.69213930E-03  2.15666981E-03 -2.33744701E-04
 -6.47122974E-04  3.12542213E-03 -4.23967838E-03  7.75651451E-04 -8.34324063E-04
  7.75165927E-04  6.81510662E-04 -5.68636943E-04  1.04085305E-03  9.47197781E-04
 -1.50422461E-03  1.05265379E-04  1.16101136E-05 -2.13055684E-03 -1.39412834E-02
  1.98441721E-02 -8.33726939E-03 -1.26002440E-03  3.99885239E-04  1.14380751E-03
  2.95549526E-03 -3.18706596E-04  1.76804601E-03  2.74723843E-06  7.72390618E-05
 -1.00399835E-04  8.22039706E-04 -2.06944869E-03 -6.20937180E-03  1.93503114E-03
  2.80649672E-03  1.71878687E-03  1.25796657E-03 -1.42370146E-03  7.99869575E-03
 -2.78041015E-02  2.93642208E-03  1.25892156E-02 -7.39663844E-03  1.19438797E-02
  5.38855409E-04  7.19008382E-04 -1.48415656E-03 -8.13405464E-04  4.41926919E-03
 -5.26988093E-03  5.32502842E-04 -1.69041134E-03  5.86125234E-04  9.69825979E-04
 -1.07679822E-03  1.19973835E-03  1.58343910E-03 -2.22969675E-03  4.68398256E-05
  4.30540571E-04 -1.31823478E-02 -1.58303852E-03  8.03344556E-03  1.96327548E-02
  6.42389641E-03 -5.80730350E-04  4.37964241E-04  8.36189477E-05 -2.87447424E-03
 -8.55268326E-03  1.94214342E-05  8.89314596E-04  4.46007078E-04 -1.45559631E-04
 -2.07049372E-04  7.19375949E-04 -9.62588590E-04  2.48787218E-03 -1.31453233E-03
 -5.67500469E-04  7.73795307E-04 -4.00712304E-04 -3.15104571E-04  2.31472645E-03
  8.97966678E-03 -3.30768075E-03  1.56092996E-03 -8.83838961E-03 -2.63455606E-03
  1.49239053E-03  1.34886904E-03  7.42373928E-04 -4.26680156E-03  1.81253094E-03
  1.18789184E-03  3.59130456E-03  7.80358047E-04 -3.34820440E-03  3.23844277E-03
  4.27496261E-04 -3.70106618E-03  3.03509963E-03  2.24153118E-04 -3.90440933E-03
  1.53864286E-03 -9.06076738E-03  1.10752191E-03 -9.49188833E-03  1.30504101E-02
  7.53050322E-03  3.91640350E-05  5.87026690E-04  3.94307672E-04 -2.20854408E-03
 -9.53861742E-03 -8.41243625E-04  3.49483756E-04 -3.61098220E-04 -1.45418685E-04
 -4.20818390E-04  7.29842967E-04 -2.30409878E-03  2.71385597E-03  6.76124714E-04
 -2.61676816E-04  4.87245290E-04 -1.33503057E-03  4.01893125E-03  1.04281009E-03
  8.73209637E-03 -4.44729185E-03 -1.31064254E-03 -7.72605411E-03 -4.03561351E-04
  5.47290997E-05  9.84571841E-05  5.76091439E-04 -2.97295450E-03  7.82328392E-04
  9.44743233E-04  2.73521728E-03  5.91317353E-04 -3.05988908E-03  2.73028150E-03
  5.86381569E-04 -3.06482487E-03  2.30962749E-03  1.65727564E-04 -3.48547887E-03
 -9.51314807E-03  3.29747748E-03 -1.07032046E-02  2.10742091E-03  2.45099985E-03
  1.52616254E-02 -4.81577918E-04  1.45670627E-03  6.11562480E-04 -1.74674334E-03
 -7.70038671E-03  1.09721148E-02  1.84350698E-03 -1.47205969E-05 -2.51461324E-03
  1.08738059E-04  6.47994677E-03  6.04979875E-03  1.49916684E-04  3.93907269E-03
 -5.06895470E-03 -1.24114130E-03  1.91111614E-03  3.90784980E-04 -2.15877738E-02
  1.02343489E-02  1.01525969E-02  5.36000276E-03  2.21826157E-03 -5.78344791E-03
 -2.26397363E-03  4.10931510E-04  1.87539235E-03 -3.69064784E-04  2.46488668E-03
  4.01417394E-03  5.76905229E-03 -3.40885603E-04 -1.37292555E-03  3.32143530E-03
 -1.57735813E-03 -2.60939808E-03  2.08496277E-03 -1.31617338E-03 -2.34821333E-03
  2.34614752E-03  1.12984261E-03 -4.11605081E-05  8.10032704E-05 -1.08999985E-03
  2.56360996E-03  1.39260684E-03  1.58707168E-02 -5.03772693E-04  1.45898512E-03
  7.66440178E-04 -1.78369515E-03 -4.58423066E-03 -3.85191145E-03  1.62707904E-03
 -2.32106454E-03  3.16407447E-04  5.80159312E-05 -5.92723027E-03 -5.90024429E-03
  3.36598922E-05  3.95100291E-03 -5.03513518E-03 -1.42863613E-03  2.07272114E-03
  4.94848852E-04 -2.27643132E-02  1.00208163E-02  1.08318598E-02  7.25466078E-03
  2.11933444E-03 -6.88372975E-03  3.63436336E-04 -1.13245901E-03  7.89102522E-04
 -1.61814473E-04 -3.87338223E-03 -1.93041779E-03 -6.21593411E-03 -1.15763128E-03
 -7.47626138E-04  2.89576033E-03 -2.08713826E-03 -1.67713312E-03  1.96625335E-03
 -1.98150301E-03 -1.57149787E-03  2.07188860E-03  9.22154966E-04 -1.14240605E-04
 -3.15588864E-04 -1.35198444E-03  2.45755079E-03  1.42115522E-03  5.86291481E-03
  1.60770432E-02  9.17739311E-03 -3.29844744E-04 -3.70552582E-04  8.26444929E-04
 -2.69414903E-03  4.35085144E-03 -3.06704700E-03  1.41090737E-03 -1.71027935E-03
 -3.35603858E-04  6.53906781E-03  6.73195711E-03  6.54496806E-04 -1.16985923E-03
  2.63660353E-03  1.40603301E-04 -1.44997509E-03 -9.25820299E-04  2.20011838E-02
 -3.86288681E-03 -2.54200307E-03 -1.29485967E-02 -8.08172991E-03  5.22205103E-03
 -3.58393662E-03  2.59240621E-03  9.38454723E-04  9.30382710E-05  2.40408021E-03
  3.17729060E-03  6.44837247E-03  1.63147043E-03 -2.26937704E-03  3.62265037E-04
  1.82343676E-03 -2.07741071E-03  5.54231368E-04  2.04167818E-03 -1.85916929E-03
  7.72472785E-04 -2.98919492E-03 -2.91661265E-04 -5.14629792E-03 -2.44876427E-03
  1.53805382E-03  4.23558747E-03 -7.33349150E-04 -1.10875888E-02  1.57756999E-02
  9.15519834E-03 -3.27565892E-04 -2.15674884E-04  7.89493115E-04  4.22007012E-04
 -1.04731748E-02 -3.28347494E-03 -8.95436572E-04  1.12074134E-03 -3.86325985E-04
 -5.86810923E-03 -5.21808593E-03  5.38240014E-04 -1.15792902E-03  2.67042305E-03
 -4.68915293E-05 -1.28837009E-03 -8.21756428E-04  2.08246445E-02 -4.07641947E-03
 -1.86274019E-03 -1.10539387E-02 -8.18065703E-03  4.12176919E-03 -9.56526649E-04
  1.04901569E-03 -1.47835110E-04  3.00288582E-04 -3.93418870E-03 -2.76730113E-03
 -5.53661392E-03  8.14724753E-04 -1.64407763E-03 -6.34099307E-05  1.31365663E-03
 -1.14514575E-03  4.35521950E-04  1.37634855E-03 -1.08245384E-03  4.98213862E-04
 -3.19688256E-03 -3.64741362E-04 -5.54289006E-03 -2.71074886E-03  1.43199465E-03
  4.26413585E-03 -1.07411511E-02 -8.73460455E-04  5.42146021E-03  1.52891509E-02
 -7.19965160E-03 -1.73769980E-04 -8.95835815E-04  4.28707976E-04  5.27484653E-03
  8.33139951E-03  6.34825167E-04  2.45142734E-03 -7.29637931E-04  7.01148147E-05
  6.16438482E-03  5.05173352E-03 -1.40136742E-04 -2.86301889E-03  1.64135502E-03
  1.39690651E-03 -3.89637233E-04  3.80272453E-04  8.50049027E-04 -4.46248756E-03
 -8.68981923E-03  3.16780252E-03  6.61246251E-03  2.19884176E-03  9.54673542E-04
  3.56997978E-04 -1.29542106E-03 -1.14907866E-04  3.07252777E-03  2.05528457E-03
  6.38974092E-03  3.80362608E-04  1.90041263E-03 -3.00335562E-03  6.71904854E-04
  2.19195488E-03 -2.71181338E-03  9.25818557E-04  2.44586858E-03 -2.45789967E-03
  1.74504067E-03  9.31053196E-04  4.66165837E-03  3.84767089E-03 -4.37160719E-03
 -5.18559466E-03  1.40285065E-03 -8.66646678E-03  1.43179682E-03 -8.63752061E-03
  1.30013183E-02 -7.22184637E-03 -1.71491127E-04 -7.40958117E-04  3.91756162E-04
  8.39100258E-03 -6.49262670E-03  4.18397229E-04  1.45083397E-04  2.10138276E-03
  1.93926872E-05 -6.24279222E-03 -6.89830953E-03 -2.56393534E-04 -2.85108868E-03
  1.67517454E-03  1.20941168E-03 -2.28032229E-04  4.84336325E-04 -3.26490326E-04
 -4.67602022E-03 -8.01055635E-03  5.06246054E-03  6.51353539E-03  1.09855992E-03
  3.58208351E-03 -1.18639254E-03 -2.38171090E-03  9.23424454E-05 -3.26574114E-03
 -3.88930716E-03 -5.59524547E-03 -4.36383067E-04  2.52571205E-03 -3.42903059E-03
  1.62124729E-04  3.12421984E-03 -2.83052279E-03  2.60488926E-04  3.22258404E-03
 -2.73215860E-03  1.53735303E-03  8.57973099E-04  4.26506623E-03  3.58568630E-03
 -4.47766636E-03 -5.15704629E-03 -8.60495134E-03  1.54766160E-03 -8.92244286E-03
  1.23017008E-03  2.93200091E-03  1.30846139E-02 -1.62071177E-03 -1.14661807E-03
 -5.48104309E-05  2.02082697E-05 -4.65250909E-04  4.51513386E-04  1.41455198E-03
  8.11935298E-05  2.67093915E-04  1.70816501E-04 -1.25165919E-05  1.10358816E-04
 -1.18146928E-03 -1.88166984E-04 -9.70237463E-04  6.02360190E-04  1.35237217E-03
  4.83935807E-04 -3.66329307E-03  1.89121393E-03 -3.83256329E-06  9.12136090E-04
  2.10794775E-03 -1.21172672E-03  1.06624157E-03  2.19631290E-05 -9.31290980E-04
 -5.37501917E-04 -1.10121815E-03  9.21087474E-04  1.33811372E-04  1.69725836E-05
 -4.82236828E-05 -4.41327223E-04  1.67366811E-04  1.02170545E-04 -2.90932995E-04
  2.85453142E-04  2.20256876E-04 -1.72846664E-04  4.21194206E-03 -3.80449877E-03
  3.83190952E-03 -4.18453132E-03  3.38828375E-03 -4.62815708E-03  9.56390871E-04
  9.05303643E-04 -1.74492463E-03 -1.79601186E-03  6.16068922E-04  5.64981693E-04
  8.98658394E-03 -5.91116650E-04 -5.79667609E-04  7.71853212E-05  3.14375217E-04
 -5.28692941E-04 -2.89830482E-04  4.95321305E-04 -3.60876390E-04  6.09996638E-04
  3.15520878E-04 -1.68876732E-04  1.43387882E-04 -2.47820392E-03  5.59985353E-05
  8.76199830E-04  8.94790442E-04  1.11103218E-03 -3.97037912E-04  5.30089150E-04
  7.02691704E-04 -2.05443113E-04 -2.54948685E-04 -7.18049474E-04 -1.00454016E-04
 -4.07357921E-04 -1.61160521E-03  1.73606456E-03 -1.95863795E-04  2.20741346E-04
 -4.10890131E-05 -1.01869712E-04 -7.98590703E-04 -2.70995918E-04 -1.14359886E-04
 -3.25549717E-04  2.02045067E-04  3.58681099E-04 -4.12336939E-04  1.15257846E-04
  2.71893878E-04 -6.38463322E-03  8.07048946E-03 -7.50804658E-03  6.94707610E-03
 -6.75272514E-03  7.70239754E-03 -1.13489536E-04 -8.69798368E-05  9.13938078E-04
  9.40447778E-04 -1.97206404E-04 -1.70696704E-04  1.24774167E-03  1.51810148E-02
Mulliken Charges                           R   N=          13
 -4.39831981E-01 -1.04066317E-01  5.80554290E-01 -4.42545321E-01 -5.63938745E-01
 -6.85441951E-01  1.37077446E-01  1.64695849E-01  1.79930615E-01  1.46068198E-01
  4.11095846E-01  3.09762012E-01  3.06640058E-01
Optimization MaxStp                        I                2
Optimization MaxJob                        I                1
Optimization Job offset                    I                0
Optimization Num results per geometry      I                2
Optimization Num geometry variables        I               39
Optimization Reference Energy              R     -3.230000000000000E+02
Opt point       1 Results for each geome   R   N=           2
 -7.30331498E-01  0.00000000E+00
Opt point       1 Geometries               R   N=          39
 -2.25181686E+00  2.39764273E+00  9.33232084E-01 -1.22709127E+00  2.58611373E-01
 -7.51753701E-01  1.51897176E+00 -3.62281446E-01 -6.30544351E-04  2.13328305E+00
 -2.27053082E+00  1.08250561E+00  3.28325272E+00  1.41724586E+00 -5.85334818E-01
 -2.90123936E+00 -1.92073466E+00 -6.10841395E-01 -1.10442663E+00  4.11688227E+00
  8.06174818E-01 -2.27338702E+00  1.80052370E+00  2.91647634E+00 -4.18754494E+00
  2.84358224E+00  3.67850763E-01 -1.21511601E+00  9.18718122E-01 -2.72314839E+00
  2.49348067E+00  2.81342538E+00 -1.47956679E+00 -2.71232916E+00 -2.70332941E+00
  1.14233521E+00 -2.26466937E+00 -3.28221599E+00 -1.81668557E+00
Opt point       1 Gradient at each geome   R   N=          39
 -3.29622299E-06  8.23540057E-06  5.28244747E-07  5.41180546E-05  5.23670458E-05
  4.51588254E-06 -2.11441446E-05 -6.21550686E-05  1.20980503E-05 -5.64152131E-06
  3.20606786E-05 -1.72997217E-05 -1.25519648E-06  2.85065026E-05 -8.23056572E-07
 -2.49467501E-05 -4.83918257E-05  1.18913015E-05 -3.38347206E-06 -6.73609719E-06
  3.93381992E-07  3.89837645E-09 -4.26165667E-06 -5.18763817E-06  3.09199994E-06
 -4.24104811E-06  2.08823697E-06  1.09733167E-09 -8.37969283E-06  8.09299054E-07
  7.33697312E-06 -6.48279650E-06 -2.97386145E-06 -1.77771111E-06  6.23262610E-06
 -9.02291626E-06 -3.10700464E-06  1.32459321E-05  2.98279707E-06
Optimization Number of geometries          I   N=           1
           1
ONIOM Charges                              I   N=          16
           0           0           0           0           0           0
           0           0           0           0           0           0
           0           0           0           0
ONIOM Multiplicities                       I   N=          16
           1           0           0           0           0           0
           0           0           0           0           0           0
           0           0           0           0
Atom Layers                                I   N=          13
           1           1           1           1           1           1
           1           1           1           1           1           1
           1
Atom Modifiers                             I   N=          13
           0           0           0           0           0           0
           0           0           0           0           0           0
           0
Int Atom Modified Types                    I   N=          13
           0           0           0           0           0           0
           0           0           0           0           0           0
           0
Force Field                                I                0
Atom Modified Types                        C   N=          13
                                                            
                                                            
                                    
Link Atoms                                 I   N=          13
           0           0           0           0           0           0
           0           0           0           0           0           0
           0
Atom Modified MM Charges                   R   N=          13
  0.00000000E+00  0.00000000E+00  0.00000000E+00  0.00000000E+00  0.00000000E+00
  0.00000000E+00  0.00000000E+00  0.00000000E+00  0.00000000E+00  0.00000000E+00
  0.00000000E+00  0.00000000E+00  0.00000000E+00
Link Distances                             R   N=          52
  0.00000000E+00  0.00000000E+00  0.00000000E+00  0.00000000E+00  0.00000000E+00
  0.00000000E+00  0.00000000E+00  0.00000000E+00  0.00000000E+00  0.00000000E+00
  0.00000000E+00  0.00000000E+00  0.00000000E+00  0.00000000E+00  0.00000000E+00
  0.00000000E+00  0.00000000E+00  0.00000000E+00  0.00000000E+00  0.00000000E+00
  0.00000000E+00  0.00000000E+00  0.00000000E+00  0.00000000E+00  0.00000000E+00
  0.00000000E+00  0.00000000E+00  0.00000000E+00  0.00000000E+00  0.00000000E+00
  0.00000000E+00  0.00000000E+00  0.00000000E+00  0.00000000E+00  0.00000000E+00
  0.00000000E+00  0.00000000E+00  0.00000000E+00  0.00000000E+00  0.00000000E+00
  0.00000000E+00  0.00000000E+00  0.00000000E+00  0.00000000E+00  0.00000000E+00
  0.00000000E+00  0.00000000E+00  0.00000000E+00  0.00000000E+00  0.00000000E+00
  0.00000000E+00  0.00000000E+00
Cartesian Gradient                         R   N=          39
 -3.29622299E-06  8.23540057E-06  5.28244747E-07  5.41180546E-05  5.23670458E-05
  4.51588254E-06 -2.11441446E-05 -6.21550686E-05  1.20980503E-05 -5.64152131E-06
  3.20606786E-05 -1.72997217E-05 -1.25519648E-06  2.85065026E-05 -8.23056572E-07
 -2.49467501E-05 -4.83918257E-05  1.18913015E-05 -3.38347206E-06 -6.73609719E-06
  3.93381992E-07  3.89837645E-09 -4.26165667E-06 -5.18763817E-06  3.09199994E-06
 -4.24104811E-06  2.08823697E-06  1.09733167E-09 -8.37969283E-06  8.09299054E-07
  7.33697312E-06 -6.48279650E-06 -2.97386145E-06 -1.77771111E-06  6.23262610E-06
 -9.02291626E-06 -3.10700464E-06  1.32459321E-05  2.98279707E-06
Cartesian Force Constants                  R   N=         780
  5.76132828E-01  3.43978961E-02  5.22976948E-01  3.08307332E-02 -4.93755425E-02
  5.36506541E-01 -9.42966225E-02  1.92461525E-02  1.92838277E-02  4.34741544E-01
  3.34336063E-02 -1.22587318E-01 -4.12613846E-02  2.86179185E-02  5.08845244E-01
  3.17869160E-02 -3.87640607E-02 -1.14654632E-01 -1.31231604E-02 -5.66660029E-02
  5.77891211E-01 -1.16247877E-02  1.75932253E-02  5.08053793E-03 -1.38708724E-01
  1.16629164E-02 -1.72987916E-02  5.58683913E-01  2.71529777E-02 -7.30969837E-03
  5.51126191E-03  1.48443532E-02 -7.84474060E-02 -1.82557962E-03 -1.01745810E-01
  8.38160626E-01  2.07792976E-02 -2.00276665E-03  9.84803688E-03 -1.38924104E-02
 -4.14729615E-03 -9.78071822E-02  1.10698416E-01 -3.28174191E-01  4.08173386E-01
 -2.70333606E-03 -1.23954890E-03 -3.10485866E-03 -7.11731828E-03  3.01036523E-02
 -2.29280119E-02 -1.70987724E-01  1.67129966E-01 -1.02953773E-01  1.59502921E-01
 -4.06206231E-04  1.70441417E-03  2.11548770E-03  8.83231335E-03 -1.81012547E-02
  2.22193368E-02  1.78628866E-01 -5.56647548E-01  2.78172859E-01 -1.68563490E-01
  6.43500414E-01 -4.64227376E-03 -6.47278114E-04 -4.88143194E-03 -1.13105981E-02
  2.44183986E-02  1.06600738E-02 -1.08336202E-01  2.75735124E-01 -2.32700667E-01
  1.09905564E-01 -3.41974193E-01  2.22939898E-01 -1.18817064E-03 -1.75877544E-03
 -1.66138158E-03 -1.59807422E-02 -3.03253327E-02  9.80046769E-03 -2.27663198E-01
 -5.17797648E-02 -6.47033233E-03  3.10098218E-02 -1.58492465E-02  1.17611708E-02
  3.64560184E-01 -2.21743227E-03 -3.26607295E-03 -1.46539796E-03 -3.75681949E-03
  2.27595677E-03  7.31915254E-03 -1.10293329E-01 -1.47934368E-01  3.22426514E-02
 -2.94666986E-02 -7.62230507E-02  3.95193591E-02 -2.59111957E-02  4.98339906E-01
 -2.20679876E-03 -1.17633248E-03 -5.25131684E-04 -4.36731276E-03  3.41419240E-03
  1.25433523E-02  2.35587833E-02  4.30329251E-02 -6.40624864E-02  1.89329499E-02
  4.18317232E-02 -6.16796663E-03  7.88755664E-02 -2.54839353E-01  1.73621900E-01
  7.27084691E-03  3.77813239E-03 -1.04662365E-03 -1.12153125E-01 -4.11370213E-02
  5.34328616E-03 -3.12788000E-02 -3.12635727E-02 -2.25094948E-03 -1.12088371E-03
 -3.87797872E-03  2.87265551E-03 -1.38764895E-02 -2.71878720E-03 -6.63457886E-04
  2.45160341E-01 -1.93718529E-02 -3.32096977E-02 -2.55375603E-03 -9.77725394E-02
 -1.69475395E-01 -2.38786480E-04 -1.15424988E-02 -8.38016748E-03  9.02503051E-04
  5.21650838E-03  5.06845792E-03  2.69906618E-05 -4.86898278E-04  2.17655882E-03
 -7.05526595E-04  6.96283567E-03  5.67973214E-01 -1.47531881E-02 -2.30965324E-02
  1.85653041E-03  1.85690633E-02  1.06419574E-02 -1.03987072E-01 -4.50535659E-03
 -3.45987918E-03  2.34813002E-03 -1.18499340E-03 -3.13130876E-03  3.47134540E-04
 -2.35839324E-03 -8.90086637E-04  2.14135147E-03 -6.40390384E-02  2.75173658E-02
  6.44711487E-01 -1.32135553E-01 -1.21560811E-01  1.07742041E-02  6.94433142E-03
  1.07356642E-02 -2.73988478E-03  9.07110453E-05  1.70347678E-04 -4.67285818E-04
  1.31557134E-04 -6.68049571E-05  1.65815248E-04 -9.44136955E-04  2.93941879E-04
  3.89787855E-04 -2.97303103E-04  1.38884179E-03  1.21506744E-03  1.40866451E-01
 -1.20131494E-01 -2.28845282E-01  1.49217451E-02 -1.39678358E-02 -1.59072093E-02
  5.49298330E-03 -3.14274657E-03 -3.05597231E-03  4.90168651E-04  7.95698604E-04
  9.03687940E-04 -2.80519129E-04  9.71847561E-04  2.65652102E-03  8.14479148E-04
  2.29777271E-03 -3.55040436E-03 -5.00981116E-03  1.33731881E-01  2.47928376E-01
  1.09347147E-02  1.48994508E-02 -5.07090580E-02 -1.33495799E-02 -1.36835485E-02
  1.95190089E-03 -2.73180349E-04  1.99297824E-04  4.76625947E-04  6.93103347E-05
  8.96117417E-05  4.74642663E-05  2.58452167E-04 -1.42420916E-05 -3.08159481E-04
  1.25400694E-03 -3.61599958E-03 -2.74565945E-03 -1.34587150E-02 -1.44558667E-02
  5.07248276E-02 -5.05395012E-02 -1.61963910E-04 -1.78756586E-04 -1.70427382E-03
 -3.75367556E-03  1.34147495E-02  7.49256824E-04 -1.46703552E-03  2.20695064E-03
  1.06609229E-04  1.95889624E-04 -7.85649414E-04 -2.48654100E-04  1.81456771E-04
 -2.76737157E-04 -3.87187068E-05 -6.02473870E-04 -9.73937749E-04 -3.94179597E-04
 -5.00775554E-03  1.87387069E-02  4.89875214E-02 -1.04157415E-03 -7.35399607E-02
  7.66625308E-02  8.92948589E-04  6.88561197E-03 -2.55330536E-02 -1.27970211E-03
  1.75522966E-03 -8.98217639E-04 -2.52820504E-04 -2.49533657E-04  4.64826800E-04
  1.72951747E-05 -6.98208849E-05  1.55522377E-04  2.85436775E-04  2.38651764E-03
  3.45508599E-04  1.07387277E-03 -7.68333651E-03  2.66226309E-02 -1.18091584E-03
  7.72238750E-02  6.40326869E-04  7.59628593E-02 -2.89367124E-01  1.79414763E-03
  5.14582958E-03 -1.93360655E-02 -1.88392581E-03  1.39574273E-03 -1.06944917E-03
  6.21037533E-04 -1.00416531E-03  1.02180567E-03  4.21459852E-04 -1.12484342E-04
  2.19636277E-04 -2.29981346E-04  8.11112138E-04  1.73775864E-03 -4.36367556E-05
  5.49740844E-04 -4.07571887E-04 -3.09210380E-03 -8.06490053E-02  3.15154207E-01
 -2.88651700E-01  5.40502113E-02 -7.25670724E-02 -1.26481317E-02  2.98771717E-03
 -2.52247633E-03  1.09646219E-03  8.72560490E-04  2.85323985E-03 -3.49799185E-04
  5.01702794E-04 -6.92291869E-04 -3.62086158E-04  7.30326340E-05 -1.48207120E-04
  1.63878250E-03 -1.23104244E-03 -8.90605706E-04 -1.47317056E-02  3.92344953E-03
 -4.49318461E-03  2.51149399E-03 -7.55546690E-04  4.34030063E-04  3.10849929E-01
  5.22645493E-02 -5.94886001E-02  1.80733776E-02  2.60172849E-02 -7.62324452E-03
  5.03295779E-03 -2.64452270E-03 -4.28297492E-03 -4.31606367E-03  1.27523681E-03
 -2.01659973E-04  1.48721042E-03  8.14718594E-04  1.62194069E-03  7.49879658E-04
 -4.76383974E-04  1.96205692E-03  9.79575242E-04 -2.62740308E-02  7.63842171E-03
 -8.33633263E-03  9.51739151E-03 -2.68883599E-03  2.55408506E-03 -5.98171949E-02
  6.21050742E-02 -7.42205545E-02  1.82958816E-02 -7.09678506E-02  2.23949645E-02
 -6.48186778E-03  4.04453326E-03 -1.35913966E-03 -3.09851895E-03 -3.78101651E-03
  1.26779334E-03 -7.96911436E-04  1.97924266E-03  8.00829258E-04  5.42481028E-04
  3.57173679E-04 -4.50478477E-04  1.57173719E-03  4.43619327E-04  3.78878572E-03
 -1.02037451E-03 -1.22472500E-04 -3.02181136E-02  5.85867817E-03 -7.40686919E-03
  7.80380709E-02 -1.60092351E-02  7.44262321E-02  3.83171298E-04 -3.15972842E-03
  1.26684969E-02 -5.06775771E-02 -3.24008583E-04 -1.01135336E-02  3.03827068E-03
  9.53983591E-03 -3.19954672E-02 -6.31349088E-03  4.26197149E-03  7.70323919E-04
 -3.31510215E-04 -7.60141571E-05  2.92325077E-03 -3.08527120E-03 -1.10203663E-02
  2.35530820E-02  4.46886050E-04  1.05963848E-05 -5.89400915E-04 -2.15161406E-04
  2.05240685E-03  1.72236035E-03  3.38923214E-04 -9.58100539E-04  1.34181104E-04
  5.87445252E-02  6.12811993E-04  6.84489272E-03 -2.65211016E-02 -4.97297806E-04
 -6.89675919E-02  7.02430759E-02  5.24804377E-04 -4.11096047E-03  1.09993659E-02
  2.43200874E-03 -1.09902628E-04 -5.21611690E-04  1.07788960E-04  9.82395351E-05
 -1.91498102E-03 -5.72251391E-03 -1.39992335E-02  2.90705231E-02 -6.36579221E-04
  1.13843318E-03  8.40792235E-04  2.35639892E-03 -3.54296086E-03 -3.18195661E-03
 -4.43059522E-04  1.01940181E-03  9.48678867E-04  4.30608613E-03  8.56237903E-02
  4.06812991E-04  3.94711355E-03 -1.93805642E-02 -3.51089713E-03  7.45822767E-02
 -2.73587624E-01  2.79506554E-03  6.20898309E-03 -9.30780788E-03 -2.19395939E-03
 -7.16738251E-04  3.14296582E-04 -1.17673370E-03 -1.39248334E-03  2.32440445E-03
  1.92870161E-03  2.16538561E-03 -2.67182892E-04 -5.76838079E-04 -2.63475060E-04
  6.49513468E-04  1.54128191E-03 -3.47671324E-03 -7.59442899E-04  1.83046130E-04
  3.97116935E-04  1.09388203E-03  1.81623927E-03 -8.08423757E-02  2.97226515E-01
 -9.84335854E-04 -5.82983292E-04  2.94566494E-04 -2.95878922E-03 -2.58467667E-03
  1.48884886E-03  1.64133881E-02 -2.36701286E-02  1.67530888E-02 -3.50288435E-03
 -7.83993852E-03  2.01103929E-03 -1.37767555E-01  1.70160869E-01 -1.15580359E-01
  8.84656497E-04  1.10494270E-03 -6.24479229E-04 -5.93589063E-04  1.10175153E-03
  8.32252120E-04  3.92791500E-04  1.48775250E-04 -2.68461130E-04  2.36405359E-04
  2.88534212E-04 -1.25097407E-04 -8.28176128E-04 -4.90072137E-04 -1.26167017E-03
  1.28376734E-01  5.27643126E-04  1.34543221E-03  2.60466911E-04 -6.54796242E-04
  1.71170770E-03 -5.97388795E-05  2.15127488E-02 -2.97881861E-02  1.56937506E-02
 -8.07590921E-03 -1.02548319E-03  3.01729332E-03  1.23554984E-01 -2.79983937E-01
  1.68696878E-01  1.60946287E-03  2.38285457E-04 -7.05623124E-04  4.09653477E-04
 -3.55337817E-04 -3.47502943E-04  3.08351570E-05 -2.82581722E-04 -1.58120447E-04
  4.75079160E-05 -3.05412467E-04 -1.04085696E-04 -1.07202529E-03  5.53491015E-04
 -1.11025497E-03 -1.37931557E-01  3.07853526E-01  4.42656669E-04  1.57864933E-03
 -2.70388393E-04  1.54045077E-04 -1.28594205E-03  2.45550284E-03 -7.33841694E-03
  6.20157507E-03 -1.27588432E-02  2.13092638E-03  3.06398347E-03  6.44379055E-03
 -9.06592709E-02  1.78151929E-01 -1.19766945E-01 -4.56514105E-04 -2.77145871E-04
 -9.65339830E-04  6.19546542E-04 -1.65544894E-03 -1.39891283E-04 -1.02971338E-04
 -2.13738341E-04 -7.71380677E-05 -4.21464974E-04 -5.72234436E-04  1.14280629E-04
 -6.45558673E-04  3.16762443E-05 -8.73525122E-04  9.62639186E-02 -1.85082466E-01
  1.25651806E-01  5.00262412E-04  1.05196160E-03 -8.10795494E-04 -5.52635508E-03
 -1.62153175E-02  2.59172182E-02 -3.26092038E-04 -5.21816798E-03  5.35334709E-03
  1.14473683E-03  2.30868215E-03 -2.13477070E-03  1.73822842E-03  2.38981349E-03
 -1.41633355E-03 -2.29112698E-02  2.35257965E-02 -7.09328405E-02 -2.51003183E-04
 -2.25273522E-05  2.60060024E-04  6.27434024E-04  3.16227931E-05 -4.19448142E-05
 -1.80446514E-04  2.68614239E-04 -2.38835328E-04 -2.21255683E-03 -3.32178982E-03
 -1.36528385E-04  2.31309949E-04  2.33738505E-04 -3.45940565E-06  2.90717537E-02
  3.39161601E-04  7.19546136E-04  1.78240822E-03  3.60553457E-03 -1.54407671E-02
  3.33383956E-02  3.92055607E-04 -6.84700644E-05  6.23561323E-04  4.91366116E-04
  5.67935811E-04 -9.08578138E-04  1.39724501E-04 -5.71364128E-05 -1.97258674E-04
  1.23685463E-03 -1.18252948E-01  1.31567464E-01  6.23573638E-05  5.34549087E-04
 -7.36169093E-04  3.34363837E-05 -5.34934536E-04 -1.33583944E-03 -1.63866868E-05
 -1.96731842E-04 -3.97090175E-05 -4.17926510E-03 -5.07039565E-03  1.77656158E-05
  1.76199143E-04  2.56542676E-04  2.64856610E-04 -1.43751627E-03  1.25574695E-01
 -1.56322398E-04 -1.98001101E-04  1.77605581E-03 -1.27086999E-03  2.11803195E-03
 -2.92022047E-03 -1.48880486E-03  3.32817519E-04 -2.45140667E-04 -1.13171958E-03
 -1.82338213E-03 -1.59900288E-04 -6.26258604E-04 -2.86489949E-05  1.05054804E-04
 -1.78991064E-02  1.18233773E-01 -3.51939851E-01  8.62599102E-05  2.67336488E-05
 -7.03599371E-05 -2.87613052E-04  4.21011898E-04 -1.59800021E-04  7.36264218E-05
  3.23573417E-05 -6.56954707E-05  1.45909915E-04  3.56985719E-04  2.04938711E-03
  2.07719832E-04 -4.90459342E-05  9.20536079E-05  2.87099178E-02 -1.33638128E-01
  3.77084757E-01 -2.16310179E-03 -1.65376825E-03  4.37122028E-04  8.57831899E-05
 -2.32014427E-02 -1.90256279E-02  5.17323994E-04 -4.56556156E-03 -6.14121573E-04
  1.99790634E-04  1.87423888E-03  4.15216575E-04  1.05430867E-03  1.34116246E-03
 -2.11324387E-05 -7.01927667E-02  1.03828747E-01  1.16925620E-01  8.67533896E-04
 -5.60637192E-04 -1.83442373E-04 -2.34618135E-04  8.20110047E-06 -7.33086416E-05
  2.51872757E-04 -2.76096668E-04  1.87594200E-04  7.11967260E-04  7.71413289E-04
  1.85479408E-04  1.00043910E-04 -1.92286039E-04  1.65631240E-05 -1.90600190E-03
 -8.43521852E-04 -6.36273904E-03  7.07078642E-02 -5.56008630E-03 -5.34460313E-03
  1.84990457E-03  1.45927832E-02 -2.31683338E-02 -2.05586798E-02  3.33992361E-04
  1.09895723E-04  4.13675222E-04  1.54029571E-04  8.13523645E-04 -3.37022750E-04
  5.04855082E-04  3.65262945E-04  1.37851857E-04  6.90257628E-02 -2.32937245E-01
 -1.63829153E-01  6.71666183E-04 -1.40244647E-03 -1.46212196E-03 -1.41588124E-04
  3.40730612E-04  2.22017640E-05 -1.92951622E-04  4.40564532E-04  3.33245663E-04
  6.18611587E-04  5.22796495E-04  4.83399033E-04  1.18284022E-04 -2.18046571E-04
 -2.05693380E-04 -3.59491031E-03  1.19681148E-02  1.42154955E-02 -7.65304484E-02
  2.48509786E-01  1.57679447E-04  5.76559302E-04  7.69016186E-04 -1.37121957E-03
  3.20535542E-03  2.74622156E-03  3.51015274E-04 -2.05955813E-03  8.86414080E-04
  5.69733920E-04  1.95369685E-03  1.56260145E-04  1.03442427E-03  9.67123110E-04
 -4.82184524E-04  7.56374995E-02 -1.43837652E-01 -1.93680906E-01  2.46893575E-04
  3.89644862E-04  6.52840374E-04  1.41937516E-05  2.40018542E-04  4.50052775E-04
  1.53289683E-04 -7.26941529E-05 -1.15059406E-04 -3.89883855E-04  4.90928601E-04
  5.18148815E-04  8.63250650E-06 -5.15500850E-05  9.46368272E-05  1.54749650E-02
 -3.07387688E-02 -2.55463402E-02 -9.18872235E-02  1.68936897E-01  2.13550899E-01
Nonadiabatic coupling                      R   N=          39
  0.00000000E+00  0.00000000E+00  0.00000000E+00  0.00000000E+00  0.00000000E+00
  0.00000000E+00  0.00000000E+00  0.00000000E+00  0.00000000E+00  0.00000000E+00
  0.00000000E+00  0.00000000E+00  0.00000000E+00  0.00000000E+00  0.00000000E+00
  0.00000000E+00  0.00000000E+00  0.00000000E+00  0.00000000E+00  0.00000000E+00
  0.00000000E+00  0.00000000E+00  0.00000000E+00  0.00000000E+00  0.00000000E+00
  0.00000000E+00  0.00000000E+00  0.00000000E+00  0.00000000E+00  0.00000000E+00
  0.00000000E+00  0.00000000E+00  0.00000000E+00  0.00000000E+00  0.00000000E+00
  0.00000000E+00  0.00000000E+00  0.00000000E+00  0.00000000E+00
Dipole Moment                              R   N=           3
 -5.01542085E-01  9.22562958E-01 -5.75906078E-01
Dipole Derivatives                         R   N=         117
  3.44520730E-02  4.66412415E-02  8.18157939E-03 -1.37080962E-02  4.76252121E-02
 -4.05780589E-02 -6.93132476E-02 -1.37978107E-02  8.16927278E-02  1.77295381E-01
  1.49875310E-01  4.25679369E-03  2.44611786E-01  3.80413098E-01  5.28920124E-02
 -7.59378714E-04  1.32192896E-02  2.36924306E-01  1.23703310E+00  1.92664047E-01
 -4.70662365E-02  1.84775387E-01  1.27594876E+00 -5.01644898E-01  6.19434980E-02
 -5.54814126E-01  4.40583348E-01 -6.74726034E-01  1.58872653E-01 -1.05950456E-01
  6.22879714E-02 -8.77741351E-01  2.52209546E-01 -9.34031228E-02  3.21732512E-01
 -4.64704249E-01 -8.64218172E-01 -5.69565470E-01  2.39321788E-01 -3.69500948E-01
 -7.81647999E-01  1.52537146E-01  1.38841238E-01  1.16208224E-01 -3.98976046E-01
 -6.84347346E-01 -2.12648070E-01 -6.39986526E-02 -1.05396583E-01 -4.32295482E-01
 -1.25412762E-02 -6.21146658E-02 -3.79197579E-02 -2.19600755E-01 -1.28482937E-02
 -1.25776079E-01  1.88379252E-02 -8.78039019E-02 -9.10641952E-02 -1.35044180E-02
  3.09024894E-02  1.33714858E-02  4.04994852E-02  6.44499401E-02  1.87735807E-02
 -6.22767907E-03  3.17058936E-03  2.42994999E-02  7.20426380E-02  2.14184019E-02
  2.08808808E-02 -1.02619612E-01 -9.06667089E-02  6.54803034E-02 -2.83725335E-02
  5.12770550E-02  5.14659684E-02 -4.89185322E-03 -2.49711725E-02 -9.28525041E-03
  4.71226321E-02 -2.81895040E-03 -2.80670159E-02  3.67744978E-02 -2.28744985E-02
 -1.67513502E-02  4.78395265E-02  2.41864409E-02  5.42697539E-02 -1.36440982E-01
  2.90737469E-01  1.12749663E-01 -9.01063418E-02  8.68152654E-02  2.52499438E-01
  3.82130457E-02 -8.87751089E-02  4.81012354E-02  2.83874814E-01  3.02786892E-01
  6.54149810E-02 -1.03063741E-01 -3.92128472E-02  1.25345547E-01  2.45202259E-02
 -2.65156668E-02  3.91708075E-02  4.82304812E-02  2.22870647E-01  1.25584856E-01
  1.37413056E-01  5.55882085E-03  4.19028490E-02 -6.70936369E-02  8.85602950E-02
 -1.11372444E-02  1.43413852E-01
Polarizability                             R   N=           6
  4.27770358E+01  8.22467227E-01  4.91359064E+01 -2.63228205E-01 -3.56452012E+00
  3.76397334E+01
AAT                                        R   N=         117
  7.38658631E-03  3.39465409E-02  2.95412101E-02  4.86205342E-02 -3.29535348E-03
 -3.56777013E-02 -8.06103089E-02  7.35742732E-02 -4.06638918E-02  7.49807002E-02
  1.58519070E-01 -1.66563840E-02 -4.63370714E-02 -3.13031666E-01 -9.82670858E-02
 -1.97774279E-01 -4.36089138E-01  2.52373087E-01  4.92391008E-02  6.02727666E-02
  3.01503074E-01 -1.34383315E-01  4.97279293E-02  9.57838815E-01 -3.35773269E-01
 -6.76195785E-01 -7.42227782E-02 -6.52465221E-02 -2.13888921E-01 -3.51282967E-01
  4.18861553E-01  3.43387838E-02 -6.00982818E-01  9.09779246E-01  7.35698794E-01
  5.33010419E-02  4.89317662E-03 -2.31415520E-02  8.86214597E-02 -2.85797183E-01
  2.62306338E-01 -7.68041937E-01 -4.99491717E-01  9.34161180E-01 -3.10242207E-01
 -1.66951441E-02  8.58297219E-03 -4.82022382E-01 -9.85410481E-02  2.78429563E-02
  3.86109766E-01  4.24037327E-01 -2.94673196E-01 -2.95570941E-02  5.85281173E-02
 -2.38098163E-02  1.35320079E-02  6.25152431E-02 -2.94915105E-02  2.46074194E-01
  8.92039629E-02 -2.53893493E-02 -3.26529271E-02 -9.32482421E-04  1.29942286E-01
  1.18200613E-02 -9.23660298E-02  5.64034498E-02 -1.98878043E-02 -1.62533435E-01
 -8.08398917E-02 -3.27259372E-02 -3.88460715E-02 -8.99957683E-02  5.21003586E-03
  3.94805297E-02 -1.59752579E-02 -1.84347790E-01  1.57200612E-02  9.08016272E-02
  3.71059393E-02 -3.72803936E-02 -1.32874184E-01  1.44513105E-02  8.38909339E-02
  4.81776365E-02 -1.34944946E-02  3.43058126E-02 -2.54112166E-02 -1.59437286E-02
 -1.04391322E-02 -1.24675244E-01 -2.66167793E-01  1.82347585E-01 -1.19516481E-01
  3.85653389E-02  2.68276446E-01 -1.57366272E-01  1.57235269E-01  5.45670958E-02
  1.57047600E-01  2.79932477E-01 -2.26937262E-01  4.21600637E-02 -9.67700263E-02
 -7.57706874E-02  5.48599163E-03 -6.62748498E-02 -8.90541268E-02 -8.28746789E-02
  1.75949797E-01  1.98450311E-01 -5.96570631E-02  6.93515846E-02 -1.65667697E-01
  8.55375233E-03  1.19708465E-01
Optical Rotation                           R   N=           9
 -4.08044049E-01  3.02545508E+00  1.01759384E+01 -1.39935572E+00 -7.96243250E+00
  1.21337537E+01 -5.61729809E+00 -1.85651416E+01  8.32080983E+00
DQ Polarizability                          R   N=          18
 -3.25730418E+01  1.71968879E+01  1.53761538E+01  2.13258365E+01  2.05684536E-01
 -6.14863212E+00 -2.58364570E+00  1.39138879E+01 -1.13302422E+01 -2.06299122E+01
 -1.78582221E+01 -5.99502208E-01  5.31058369E-01 -1.21508908E+00  6.84030707E-01
 -1.58194287E+01 -3.27998990E+01  6.41677122E+00
Quadrupole Moment                          R   N=           6
 -5.70043702E+00  3.11202259E+00  2.58841443E+00  1.76886410E+00 -2.48289521E+00
 -9.08844338E-02
NMR shielding                              R   N=         117
  3.13789125E+00 -7.21565065E-02 -1.34916604E-01 -2.03920326E-02  3.33130093E+00
  2.29280948E-01 -1.44203302E-01  3.46826281E-01  3.04000500E+00  2.90017099E+00
  3.22802174E-01  3.96914695E-02  1.66971417E-01  2.62616407E+00 -8.01987773E-02
  9.19903047E-02 -3.94000030E-02  2.22518861E+00 -7.19689198E-01 -1.01234581E+00
  9.34686635E-02 -1.15623417E+00  7.28452346E-01  2.46581538E-01  1.96216995E-01
  3.33246499E-01  1.35032751E+00 -3.23975042E+00 -1.60040970E+00 -9.64642687E-01
 -1.00223716E+00 -4.36982870E+00  5.21745446E+00 -8.76922239E-01  4.56864713E+00
  3.90545212E+00  3.19270115E+00  1.22715368E+00 -7.66869133E-01  2.22070201E+00
  1.58695923E+00  1.41659244E+00 -1.17569582E+00  1.21248445E+00  3.13254898E+00
  3.84976617E+00  2.03215690E-01  4.08296518E-02  1.74210353E-01  4.32004317E+00
  1.90726283E-01 -6.64638774E-02  1.53443885E-01  4.18556787E+00  5.68206488E-01
  3.05892324E-02 -1.97793796E-02  4.14778547E-02  6.68663167E-01  1.09927774E-02
 -1.33786105E-02  4.11211469E-02  5.21894006E-01  5.34668613E-01 -5.94446594E-03
 -2.58996817E-02 -1.69664830E-02  5.58342877E-01  2.15604201E-02 -2.67709601E-02
  8.58821671E-03  6.62961816E-01  6.41431245E-01 -5.70356843E-02  2.95534584E-02
 -7.01598165E-02  5.67862855E-01  5.14781425E-04 -1.61451832E-03  8.23155897E-03
  5.15011914E-01  5.17888862E-01  3.70502229E-02 -1.91588609E-02  3.97440129E-02
  5.32987602E-01 -2.67818502E-02 -1.27770371E-02 -2.61031443E-02  5.97694581E-01
  5.27467012E-01 -1.00111474E-04 -6.48856508E-03  4.39897435E-02  5.40135518E-01
 -4.61303516E-02 -2.25111244E-02 -6.59321998E-02  4.58037081E-01  5.14737474E-01
  4.35928120E-02 -1.57432260E-02  1.88387000E-02  5.96936204E-01 -9.70540799E-02
 -1.13006666E-02 -8.87938359E-02  6.54674432E-01  4.97768298E-01  1.67978387E-02
 -3.23416927E-02  7.13981121E-03  6.78183579E-01  1.27286907E-01 -1.63221663E-02
  1.16215540E-01  5.97144333E-01
Spin-rotation tensors                      R   N=         117
 -1.86482816E-04 -6.23349451E-07 -8.38093359E-06  4.88970725E-06 -1.73764892E-04
  1.53938016E-05 -9.36999212E-06  2.79126981E-05 -1.95274340E-04 -2.20450862E-04
  3.14304011E-05  4.14244130E-06  1.48340033E-05 -2.45907227E-04 -1.26169225E-05
  9.71240893E-06 -8.27174255E-06 -2.71549718E-04 -6.03096683E-04 -1.08633495E-04
  5.84023661E-06 -1.23957994E-04 -4.53282233E-04  4.58288681E-05  1.67832123E-05
  5.50589213E-05 -3.54906915E-04 -1.12303539E-03 -1.55250289E-04 -1.10647375E-04
 -9.15432926E-05 -1.27861339E-03  5.77385403E-04 -1.01304910E-04  5.08285664E-04
 -3.70828035E-04 -4.57103845E-04  1.15180441E-04 -7.84028390E-05  2.20996030E-04
 -6.32831199E-04  1.67633004E-04 -1.21943988E-04  1.45894950E-04 -4.38289156E-04
 -2.33160985E-04  4.81283537E-06  7.55097682E-06  1.72368840E-06 -2.04852871E-04
  1.79356541E-05 -3.87607470E-06  1.39649778E-05 -2.01448089E-04  2.52668046E-05
 -1.97499583E-05  2.71690706E-06 -1.85902906E-05  5.53567494E-06 -3.89493923E-07
  3.39860631E-06  2.81925904E-06  3.95240946E-05  3.94190206E-05  1.58660125E-06
  3.24863380E-06  4.12726579E-07  3.56745028E-05  1.23406057E-05  3.15584029E-06
  1.09590309E-05 -5.69800772E-06 -5.05617611E-06  1.21948550E-05 -8.95080705E-06
  1.07970994E-05  3.60528534E-05  1.48029061E-06 -1.22702810E-05  2.30214832E-06
  3.47442447E-05  3.61514469E-05  2.76617895E-06 -4.19841516E-06  3.05307488E-06
  3.30201655E-05  1.59508540E-05 -3.51873364E-06  1.60231380E-05 -9.87473966E-06
  3.28594489E-05  1.48981725E-05 -1.08073170E-05  1.95938615E-05  3.95483700E-07
  2.86671415E-05 -1.25137630E-05  2.65581911E-05  2.87271372E-05  4.14369644E-05
 -1.55089295E-06 -1.45028616E-06 -4.18727294E-06  3.11249041E-05  1.74646639E-05
 -9.77141549E-07  1.83444023E-05  3.10307704E-06  3.58453481E-05  8.74724345E-06
  7.92525194E-06  7.71863736E-06  1.65750400E-05 -2.09252207E-05  9.63137490E-06
 -2.21043513E-05  2.40990491E-05
QEq coupling tensors                       R   N=          78
  2.75329104E-02  2.18672375E-02 -3.24885969E-02  4.36430601E-02 -4.36149131E-02
  4.95568652E-03 -5.45984881E-02 -7.12317737E-02 -3.22249206E-02 -7.48879365E-03
  4.65643669E-03  8.68234087E-02  1.97207882E-01 -1.43011229E-01  2.58706100E-02
  1.68196896E-01 -2.23493261E-01 -2.23078492E-01  1.36141537E+00  6.33316623E-01
 -5.22984506E-01  9.54493507E-02 -6.62432299E-02 -8.38430860E-01  2.65676424E-01
 -2.59341995E-01 -8.96740484E-01 -4.88107104E-02  1.06636696E+00  6.31064060E-01
  7.87825765E-01 -4.53774286E-01 -4.47992717E-01  2.80541373E-01 -7.28529036E-02
 -3.39833048E-01  8.25975385E-03 -1.98104567E-01 -1.51383673E-01  2.31709904E-02
  2.11111321E-02  1.43123919E-01  1.46067880E-01  1.85257377E-03  1.02665349E-01
  5.13306576E-03  1.17222094E-01 -2.48733229E-01 -2.35317869E-01  9.14394648E-02
  1.25213068E-01 -1.12058907E-01  2.46531368E-02  1.10104801E-01  1.34250324E-01
 -8.29177366E-03  9.29033977E-02  4.46570539E-03  1.24566725E-01 -2.27153722E-01
  7.89297165E-02  1.96901773E-01 -1.57624644E-01 -1.35060123E-01  2.46523587E-01
  7.86949272E-02  2.06886439E-01  6.74735267E-03  6.90388308E-02 -4.71367300E-02
  1.89572785E-01 -2.75925270E-01  1.45517654E-01  1.15661794E-01 -1.03692936E-01
  1.32082512E-01 -2.35678457E-01 -4.18247182E-02
Number of Normal Modes                     I               33
Vib-LE2Fix                                 I               14
Vib-NDFDPol                                I                0
Vib-NumROA                                 I                0
Vib-NDim                                   I               13
Vib-NDim0                                  I               13
Vib-LFlags                                 I                8
Vib-IFlags                                 I   N=         264
           0           0           1           0           0           0
           0           0           0           0           2           0
           0           0           0           0           0           0
           3           0           0           0           0           0
           0           0           4           0           0           0
           0           0           0           0           5           0
           0           0           0           0           0           0
           6           0           0           0           0           0
           0           0           7           0           0           0
           0           0           0           0           8           0
           0           0           0           0           0           0
           9           0           0           0           0           0
           0           0          10           0           0           0
           0           0           0           0          11           0
           0           0           0           0           0           0
          12           0           0           0           0           0
           0           0          13           0           0           0
           0           0           0           0          14           0
           0           0           0           0           0           0
          15           0           0           0           0           0
           0           0          16           0           0           0
           0           0           0           0          17           0
           0           0           0           0           0           0
          18           0           0           0           0           0
           0           0          19           0           0           0
           0           0           0           0          20           0
           0           0           0           0           0           0
          21           0           0           0           0           0
           0           0          22           0           0           0
           0           0           0           0          23           0
           0           0           0           0           0           0
          24           0           0           0           0           0
           0           0          25           0           0           0
           0           0           0           0          26           0
           0           0           0           0           0           0
          27           0           0           0           0           0
           0           0          28           0           0           0
           0           0           0           0          29           0
           0           0           0           0           0           0
          30           0           0           0           0           0
           0           0          31           0           0           0
           0           0           0           0          32           0
           0           0           0           0           0           0
          33           0           0           0           0           0
Vib-AtMass                                 R   N=          13
  1.20000000E+01  1.20000000E+01  1.20000000E+01  1.59949146E+01  1.59949146E+01
  1.40030740E+01  1.00782504E+00  1.00782504E+00  1.00782504E+00  1.00782504E+00
  1.00782504E+00  1.00782504E+00  1.00782504E+00
Vib-E2                                     R   N=         462
  5.75635174E+01  2.10984906E+02  2.19268411E+02  2.43267010E+02  3.07640292E+02
  3.83874444E+02  4.91827964E+02  5.01183468E+02  6.36184064E+02  7.34071357E+02
  7.98949473E+02  9.25858285E+02  9.50461075E+02  1.03041614E+03  1.09639665E+03
  1.15274062E+03  1.18514386E+03  1.28714609E+03  1.30631896E+03  1.35424860E+03
  1.42677252E+03  1.44086870E+03  1.51442156E+03  1.53023595E+03  1.71231369E+03
  1.87406179E+03  3.02545134E+03  3.05584384E+03  3.11960442E+03  3.15008879E+03
  3.46063438E+03  3.53766280E+03  3.72519276E+03  3.90888802E+00  1.11913453E+00
  1.16378989E+00  3.26524651E+00  2.90185642E+00  3.09430650E+00  1.77918929E+00
  1.64201447E+00  4.81144892E+00  4.59889622E+00  3.36957471E+00  2.22105346E+00
  1.57736168E+00  1.40750203E+00  1.53471690E+00  2.49349277E+00  1.93177427E+00
  1.51270546E+00  1.52494865E+00  1.94374728E+00  1.21968406E+00  1.30657193E+00
  1.04819273E+00  1.05056846E+00  1.08628916E+00  1.01680382E+01  1.08405648E+00
  1.03631876E+00  1.10229937E+00  1.10210258E+00  1.05077179E+00  1.09043268E+00
  1.06572660E+00  7.63129213E-03  2.93518359E-02  3.29668099E-02  1.13849889E-01
  1.61812680E-01  2.68653147E-01  2.53570539E-01  2.43008046E-01  1.14733873E+00
  1.46009249E+00  1.26725473E+00  1.12175560E+00  8.39556946E-01  8.80490223E-01
  1.08696080E+00  1.95218741E+00  1.59863280E+00  1.47659115E+00  1.53321792E+00
  2.10032639E+00  1.46287434E+00  1.59820447E+00  1.41639671E+00  1.44941036E+00
  1.87655935E+00  2.10404577E+01  5.84631831E+00  5.70171983E+00  6.32046184E+00
  6.44344033E+00  7.41429812E+00  8.04047916E+00  8.71351749E+00  8.61639084E+00
  5.10264386E+01  8.67211357E+00  1.21004470E+01  1.43988002E+01  1.34013604E+01
  3.31369181E+01  6.43027374E+01  1.08054457E+01  9.33066088E-01  6.85446534E+00
  7.78744242E+00  1.50844883E+02  1.28902392E+00  7.02050479E+01  3.03573689E+01
  4.74670579E+00  1.38890887E+02  1.20712907E+02  1.11791087E+02  1.45295488E+00
  4.02002669E+00  5.72802826E+00  1.02353249E+01  2.45344240E+01  2.11851682E+02
  2.47108519E+01  1.67570126E+01  2.94651131E+01  1.38806014E+01  5.87182667E-01
  7.68231537E-01  2.58408076E+01  0.00000000E+00  0.00000000E+00  0.00000000E+00
  0.00000000E+00  0.00000000E+00  0.00000000E+00  0.00000000E+00  0.00000000E+00
  0.00000000E+00  0.00000000E+00  0.00000000E+00  0.00000000E+00  0.00000000E+00
  0.00000000E+00  0.00000000E+00  0.00000000E+00  0.00000000E+00  0.00000000E+00
  0.00000000E+00  0.00000000E+00  0.00000000E+00  0.00000000E+00  0.00000000E+00
  0.00000000E+00  0.00000000E+00  0.00000000E+00  0.00000000E+00  0.00000000E+00
  0.00000000E+00  0.00000000E+00  0.00000000E+00  0.00000000E+00  0.00000000E+00
  0.00000000E+00  0.00000000E+00  0.00000000E+00  0.00000000E+00  0.00000000E+00
  0.00000000E+00  0.00000000E+00  0.00000000E+00  0.00000000E+00  0.00000000E+00
  0.00000000E+00  0.00000000E+00  0.00000000E+00  0.00000000E+00  0.00000000E+00
  0.00000000E+00  0.00000000E+00  0.00000000E+00  0.00000000E+00  0.00000000E+00
  0.00000000E+00  0.00000000E+00  0.00000000E+00  0.00000000E+00  0.00000000E+00
  0.00000000E+00  0.00000000E+00  0.00000000E+00  0.00000000E+00  0.00000000E+00
  0.00000000E+00  0.00000000E+00  0.00000000E+00  0.00000000E+00  0.00000000E+00
  0.00000000E+00  0.00000000E+00  0.00000000E+00  0.00000000E+00  0.00000000E+00
  0.00000000E+00  0.00000000E+00  0.00000000E+00  0.00000000E+00  0.00000000E+00
  0.00000000E+00  0.00000000E+00  0.00000000E+00  0.00000000E+00  0.00000000E+00
  0.00000000E+00  0.00000000E+00  0.00000000E+00  0.00000000E+00  0.00000000E+00
  0.00000000E+00  0.00000000E+00  0.00000000E+00  0.00000000E+00  0.00000000E+00
  0.00000000E+00  0.00000000E+00  0.00000000E+00  0.00000000E+00  0.00000000E+00
  0.00000000E+00  5.97152796E+02  9.64831057E+02  1.57781576E+02  1.98438346E+02
  1.86719851E+02  1.39273051E+02  2.68785786E+02  5.11846960E+02  6.77590490E+01
  5.07085895E+00  3.42264356E+01  3.35550380E+01  6.33145682E+02  4.99063406E+00
  2.55451256E+02  1.05060614E+02  1.59782292E+01  4.30480332E+02  3.68647999E+02
  3.29318546E+02  4.06260683E+00  1.11304297E+01  1.50891846E+01  2.66839819E+01
  5.71610162E+01  4.50978059E+02  3.25840414E+01  2.18762482E+01  3.76804420E+01
  1.75789484E+01  6.76900620E-01  8.66329495E-01  2.76735412E+01  6.72996774E+00
  2.99783598E+01 -2.99507230E+01 -1.41373888E+01  2.54590478E+00 -9.95439504E+00
  6.07505782E+01 -5.49254632E+01  2.82960863E+01 -1.67264885E+01 -5.30303224E+00
  1.69956128E+00 -8.15347482E+00  5.97034120E+00  4.39259671E+00  2.58696096E+01
 -1.72776404E+01  2.11001401E+01  6.62603523E+01 -1.25987994E+02 -5.95526319E+00
  8.34301912E+00  1.03872603E-01  3.98826781E+00  1.15990794E+01  1.36617288E+00
  9.66409951E+00 -2.80933718E+00  3.25778874E+00 -1.59839176E+00 -2.61191630E+00
  2.58803975E+00 -7.81778404E-01  1.00000000E+02  1.00000000E+02  1.00000000E+02
  1.00000000E+02  1.00000000E+02  1.00000000E+02  1.00000000E+02  1.00000000E+02
  1.00000000E+02  1.00000000E+02  1.00000000E+02  1.00000000E+02  1.00000000E+02
  1.00000000E+02  1.00000000E+02  1.00000000E+02  1.00000000E+02  1.00000000E+02
  1.00000000E+02  1.00000000E+02  1.00000000E+02  1.00000000E+02  1.00000000E+02
  1.00000000E+02  1.00000000E+02  1.00000000E+02  1.00000000E+02  1.00000000E+02
  1.00000000E+02  1.00000000E+02  1.00000000E+02  1.00000000E+02  1.00000000E+02
  0.00000000E+00  0.00000000E+00  0.00000000E+00  0.00000000E+00  0.00000000E+00
  0.00000000E+00  0.00000000E+00  0.00000000E+00  0.00000000E+00  0.00000000E+00
  0.00000000E+00  0.00000000E+00  0.00000000E+00  0.00000000E+00  0.00000000E+00
  0.00000000E+00  0.00000000E+00  0.00000000E+00  0.00000000E+00  0.00000000E+00
  0.00000000E+00  0.00000000E+00  0.00000000E+00  0.00000000E+00  0.00000000E+00
  0.00000000E+00  0.00000000E+00  0.00000000E+00  0.00000000E+00  0.00000000E+00
  0.00000000E+00  0.00000000E+00  0.00000000E+00  0.00000000E+00  0.00000000E+00
  0.00000000E+00  0.00000000E+00  0.00000000E+00  0.00000000E+00  0.00000000E+00
  0.00000000E+00  0.00000000E+00  0.00000000E+00  0.00000000E+00  0.00000000E+00
  0.00000000E+00  0.00000000E+00  0.00000000E+00  0.00000000E+00  0.00000000E+00
  0.00000000E+00  0.00000000E+00  0.00000000E+00  0.00000000E+00  0.00000000E+00
  0.00000000E+00  0.00000000E+00  0.00000000E+00  0.00000000E+00  0.00000000E+00
  0.00000000E+00  0.00000000E+00  0.00000000E+00  0.00000000E+00  0.00000000E+00
  0.00000000E+00  0.00000000E+00  0.00000000E+00  0.00000000E+00  0.00000000E+00
  0.00000000E+00  0.00000000E+00  0.00000000E+00  0.00000000E+00  0.00000000E+00
  0.00000000E+00  0.00000000E+00  0.00000000E+00  0.00000000E+00  0.00000000E+00
  0.00000000E+00  0.00000000E+00  0.00000000E+00  0.00000000E+00  0.00000000E+00
  0.00000000E+00  0.00000000E+00  0.00000000E+00  0.00000000E+00  0.00000000E+00
  0.00000000E+00  0.00000000E+00  0.00000000E+00  0.00000000E+00  0.00000000E+00
  0.00000000E+00  0.00000000E+00  0.00000000E+00  0.00000000E+00  8.19958924E+01
  8.08035839E+01  1.15524359E+02  1.02408264E+02  8.70134933E+01  1.05127701E+02
  6.92609695E+01  1.04652958E+02  4.12294619E+01  1.62594526E+02  1.09330200E+02
  8.46801505E+01  9.13920445E+01  7.29107047E+01  8.58353357E+01  7.36066134E+01
  1.09068634E+02  8.35908164E+01  5.11070820E+01  1.67262888E+02  1.16279281E+02
  6.80419160E+01  8.80511011E+01  6.79514655E+01  7.78225005E+01  8.97779749E+01
  5.19035140E+01  9.40779056E+01  8.80263091E+01  9.20937329E+01  1.61046028E+02
  5.14319700E+01  9.10379221E+01
Vib-Modes                                  R   N=        1287
 -7.60747768E-03 -1.06455423E-01  1.83701393E-01  1.30691536E-03  4.26956019E-02
 -1.11064812E-03 -7.11656248E-03  2.84781669E-02  7.11565759E-03 -6.46825037E-02
  1.38157736E-01  2.34080834E-01  4.34090849E-02 -9.32723211E-02 -2.08748747E-01
  2.46427667E-02  1.19351912E-02 -1.71764010E-01  2.09710246E-02 -1.13115556E-01
  3.53372579E-01 -3.14222439E-02 -2.99701537E-01  1.24735555E-01  1.64755290E-03
 -3.89614332E-02  2.04527782E-01 -6.52585112E-03  2.00363831E-01  5.28276329E-02
  8.05918172E-02 -1.80342982E-01 -3.78153041E-01  1.22551775E-01 -1.81018817E-01
 -2.67975578E-01 -3.28293070E-02  1.54673267E-01 -3.63625839E-01  2.20108189E-02
  2.92513513E-02 -3.00045046E-02 -1.04056800E-02 -1.02522437E-02 -6.56005161E-03
 -7.49959949E-03 -1.10840488E-03 -1.40264671E-02 -1.39020088E-02  2.23838551E-03
 -2.76052971E-03 -1.02990573E-02  1.13637749E-02  2.52317426E-02  7.98806528E-03
 -2.48799515E-02  6.56708467E-02  1.56943810E-01 -4.96173453E-02  9.45805592E-02
 -1.62663116E-01 -2.12277731E-02 -4.86875792E-02  9.26567192E-02  1.80110106E-01
 -1.49624410E-01 -4.15728535E-02 -4.38714512E-02 -1.53630082E-02 -4.01221721E-03
  1.15928818E-02  2.05412220E-02  5.67117069E-01 -3.79724100E-01 -1.51932338E-01
 -3.84253860E-01  2.19530755E-01 -4.16223998E-01  6.92987660E-02 -4.23048318E-03
  7.32149669E-03 -7.01453642E-03 -7.20304269E-03 -3.92354591E-02 -1.55058827E-02
  1.26942373E-04 -2.50232821E-02 -4.71302415E-02  1.51240859E-02  2.03450448E-02
 -1.05077317E-02  1.26695921E-02  3.95570887E-02  3.76189404E-03 -1.70864777E-02
 -5.69105037E-03 -2.06553258E-01  1.48597632E-01 -4.16099053E-01  5.95547179E-01
  1.80510605E-01  6.88005513E-02 -1.18040305E-01 -3.34987323E-01  3.88371660E-01
 -5.33011188E-02 -2.95282557E-03 -3.60819253E-02  1.17483429E-02  1.01150696E-03
  2.11152536E-03  1.71809137E-01 -1.12113865E-01 -6.54921634E-02 -9.57043537E-02
  5.08594906E-02 -1.35285461E-01  2.50831311E-01 -5.24164176E-02  1.73807360E-03
  5.93874426E-03 -1.10001681E-01 -7.22678566E-02 -1.14364988E-02 -5.76095886E-02
 -2.08536043E-02  9.83722521E-02  4.09013331E-02  8.58868844E-02 -1.61238247E-01
  1.22464100E-01  4.87550437E-02 -1.52840112E-01  1.94264907E-02 -6.95936343E-02
  5.04530931E-01 -2.16505564E-01  1.20858675E-01  1.62675047E-01 -1.62933735E-01
 -3.17649534E-02  3.18980547E-01  2.67816278E-01  2.25564039E-02  2.03422749E-02
 -9.39567968E-02 -6.71369886E-02 -2.37738782E-01 -3.79347074E-02 -1.31354496E-01
 -3.60410346E-01  8.80367934E-02 -1.73334555E-02 -2.08181292E-01 -8.73367363E-02
  2.23543759E-02 -9.87023398E-02  6.96227603E-02 -3.12997245E-02  2.21146071E-02
 -1.08151765E-02  1.27865425E-01  4.71322743E-02 -6.32720047E-02  1.17621934E-01
  2.25865046E-01 -5.85944044E-02  2.85142884E-02 -4.51874744E-02 -2.92782851E-02
 -7.09070027E-02 -1.16319591E-01  8.21944993E-02 -9.00509853E-02 -2.90712182E-01
  1.81317180E-01 -2.79704931E-01  3.37239398E-03  3.16862149E-01  4.33305366E-02
 -1.57272080E-01 -2.09581829E-01 -5.10516326E-02  1.70746733E-01 -3.08815779E-03
  1.29985444E-01 -1.86079968E-01  6.70378904E-03  1.12500053E-01 -1.21415576E-01
 -2.14636648E-01 -2.21686177E-01 -3.19217265E-01  2.28144800E-01 -3.59665687E-01
  9.13764051E-02  1.73195264E-01  2.49008736E-02 -8.10635957E-03  2.60338380E-02
  1.19638917E-01 -7.72591726E-02 -1.18829719E-02  8.68248596E-02 -5.46058059E-02
 -6.47473553E-02 -1.25211568E-02 -1.61957497E-01 -7.53345389E-03 -6.68250542E-02
  1.81244215E-01 -1.24216450E-01 -1.05434283E-01  2.54888213E-01  5.38424834E-02
 -1.33843673E-01  5.34998965E-02  3.61153963E-01  7.97141807E-02  1.39075389E-01
  3.45334901E-01 -8.01738172E-03  6.60500789E-02  5.40546721E-02  1.25766092E-01
 -2.87945437E-01 -1.31358844E-02  3.98514767E-02  5.03289614E-02 -1.49890309E-01
 -1.02771433E-01  5.71278636E-01 -9.00233330E-03 -3.12956993E-02  2.10939609E-02
 -7.45066786E-02 -2.61967885E-02  1.04991591E-01  2.37397856E-02 -6.16408681E-02
 -9.36017124E-04 -2.50712949E-02  2.80450432E-02 -4.77042539E-02 -3.90827566E-02
  3.92196556E-02 -8.99586053E-02 -1.78403845E-03 -8.16487880E-02  6.36905306E-02
  1.00891469E-01  4.55186271E-02 -1.18531363E-01  3.27763311E-02  1.26628700E-01
  1.29228760E-02 -2.13796075E-01 -6.74127257E-02 -2.09483990E-03 -1.91247292E-01
 -3.35191933E-02  1.69075547E-01 -7.64546036E-03 -6.88429411E-02 -3.60757104E-01
  3.40639351E-01  6.95743667E-01  1.63224873E-01  1.43011312E-01  5.40344413E-02
 -5.41031202E-02  4.60184292E-02  4.62378248E-02  3.04708257E-02  1.92960138E-02
  5.28432739E-03 -8.47022499E-02 -4.37436793E-02  1.21560804E-02 -1.20130776E-02
  6.19870397E-02  1.16438354E-02  8.43867655E-03  6.78280300E-02 -2.53598481E-03
  1.01816338E-01 -4.00527833E-02 -3.52257127E-02 -7.41345898E-02 -9.48573400E-02
 -3.53952308E-02  1.51908901E-01 -6.18248289E-02 -6.77876969E-02  5.91612853E-02
  8.36911780E-02  2.48121988E-02  5.37061656E-02  1.90332829E-01  5.98537848E-02
 -9.38273211E-02 -5.45608794E-02  1.35914484E-02  5.79218653E-02  4.54664685E-01
  7.74486889E-01 -1.58639966E-01 -1.12314754E-01 -3.43078062E-02 -1.24413845E-03
 -6.97953442E-02 -2.58506447E-02 -6.31451252E-02  1.04521200E-01  4.49445630E-02
 -1.54131939E-01  1.41419718E-01 -2.10192182E-01 -1.00189321E-01 -1.23131281E-01
 -1.24273710E-01  2.53158452E-01  7.71145948E-02  5.61823639E-02 -1.08691286E-01
 -2.12608198E-01  1.10331994E-01  7.19647015E-02  1.25122573E-02  8.36344633E-03
 -2.78383102E-02  9.10386936E-02  1.86272622E-01  7.48976101E-02 -1.49616115E-01
 -3.02263049E-02 -1.00664382E-01  2.26738178E-01  2.61050238E-01 -2.14554481E-01
  1.62338894E-01 -1.98827541E-01  6.93189816E-02 -2.55637639E-02  2.50400947E-01
  4.11116702E-01  2.29169063E-01  7.41353448E-02  2.75040205E-01 -1.98461321E-02
  1.45567200E-01  6.43959400E-02 -1.30633164E-01 -1.04166229E-01 -2.69735367E-02
  2.50116869E-02 -3.74694610E-02 -1.83278272E-01  2.36919777E-01  3.64463922E-01
  6.76735826E-02  4.92055676E-02 -1.51220907E-01 -3.57642736E-02 -1.33398868E-01
 -1.06557799E-02  8.63384061E-03  4.03224496E-02  1.89014365E-02  1.66752693E-01
 -1.93819829E-01 -2.37290268E-03  2.97073433E-01 -3.66592478E-01 -1.67461336E-01
  8.84861742E-03  2.27947809E-02  2.20874203E-01  3.08723363E-01 -1.86075340E-01
 -1.05291442E-01  2.50858726E-01 -1.45157333E-01 -2.78963979E-01  1.29648504E-01
  3.53716813E-02  5.13891684E-03 -5.16099968E-02  4.60866907E-02 -1.86237381E-02
  7.39788156E-02 -9.47000066E-02 -1.23299409E-02  1.21880016E-01 -6.24701296E-02
  1.79122148E-01 -1.33757998E-01  1.95871195E-02 -1.70805581E-01  3.52353366E-03
  1.79178966E-01 -5.27403198E-02 -8.92688812E-02 -1.40968989E-01  7.56158009E-02
  5.33358842E-02  6.66659159E-02  3.87818415E-03 -5.15522732E-02 -2.91736664E-02
 -2.09258443E-01 -2.38305002E-01  2.59077069E-01  8.55934920E-02  1.50243545E-01
 -3.60459193E-01 -4.76937363E-01 -8.15788316E-03  1.28754939E-01  2.39496158E-01
  2.89366479E-01  8.22530800E-02  9.59599243E-02 -2.36846379E-01 -7.73877540E-02
 -3.52790014E-02 -2.43990293E-02  1.02413288E-01 -6.87235492E-02  3.04519383E-02
  1.73024896E-01  6.41616871E-02  1.79559720E-01 -3.03686066E-02 -5.47394461E-02
 -2.83019621E-02  3.63134279E-02  3.13971635E-03 -1.24931097E-02  4.29381183E-02
 -3.31542397E-02 -2.80459691E-02 -3.52721677E-02  8.53820794E-03 -9.73658340E-02
 -1.25811840E-01 -8.55183721E-03 -3.43434708E-01  4.52195711E-01  4.92351672E-01
 -8.19676772E-02 -2.05938559E-01 -4.75561074E-02 -4.98149115E-02 -2.28017861E-01
  2.13135513E-02  3.10291307E-01 -2.41071453E-01 -1.21551530E-01  7.84223717E-02
 -5.44708108E-03 -3.72075595E-02 -1.42770705E-02 -9.95153303E-02  2.98985859E-03
 -6.65859313E-02 -1.76757616E-01  4.95835498E-02  6.64349189E-02 -6.13435886E-02
 -2.78697985E-02  1.22339031E-03  8.65296827E-02  3.49871467E-02  9.19205259E-03
 -7.72543918E-04  6.88789355E-03  7.22425924E-03 -1.23527335E-02  8.79388145E-03
  6.94843550E-03  1.36660141E-02 -5.03604856E-03 -1.64162224E-01 -3.24471677E-02
 -1.19761584E-02 -5.80591342E-02  1.67405001E-02 -6.26939327E-02 -9.62758859E-02
  2.17901833E-02 -8.03935612E-03  8.78563081E-02 -2.14772900E-01 -2.24708542E-01
 -1.38215295E-03  2.00749243E-01  7.58407222E-02 -3.40088002E-03  7.71329411E-03
 -5.43210238E-03  5.91990108E-01  9.36665919E-03 -3.41946652E-02  6.20224023E-01
  9.77146583E-02  1.99231267E-01 -2.66823947E-02 -1.37754701E-02  1.11691857E-01
  5.49635747E-02 -4.37180965E-02 -1.09426356E-01 -7.26090775E-03  3.25982625E-02
  5.56733864E-02  1.64574993E-03 -4.17272339E-03 -1.43198203E-02 -7.70310725E-03
 -8.22102513E-03 -7.76431932E-03 -1.06638390E-02 -2.02736743E-02 -2.39732407E-02
  6.13223252E-02 -9.39014538E-02 -2.84428120E-01 -1.82649268E-01  4.69271246E-01
  2.48977553E-01  7.93603628E-02  7.34877133E-02 -1.88511224E-01  7.16129756E-02
  3.40055462E-01  2.32304063E-02  1.01208440E-02 -3.02540030E-03 -1.21972733E-02
  2.83708347E-01  2.90339055E-01  8.58089223E-02 -3.29458595E-01 -3.01415190E-01
  1.20835248E-01 -1.26789517E-01 -1.93949625E-03 -9.12935968E-03  9.73424307E-02
 -7.02985516E-02  5.99276681E-02  2.49722212E-02 -8.04638650E-03 -6.98393432E-02
 -1.92131180E-02  3.31944066E-02 -6.24688191E-03 -2.25183171E-02 -1.33344947E-02
  1.11986584E-02 -4.99973385E-02  3.84970097E-02 -1.65820124E-02  2.48230182E-01
 -2.51112572E-01 -9.03937215E-02  2.48907406E-01  1.32812333E-02  4.19350620E-03
 -1.27338583E-01  4.39880909E-01  3.60137870E-01  4.62916861E-01 -2.13863630E-01
  9.45833012E-03  7.42759285E-02  3.92752433E-02  9.83548734E-03  3.18071449E-01
  6.50267381E-02 -2.25036772E-02  1.85206897E-01  1.33629314E-02  1.07798545E-01
 -2.12727862E-02 -3.26216194E-02 -4.35603203E-02  5.94823103E-02  1.01729942E-01
  1.17820492E-02  2.43039710E-01  1.16902981E-01 -6.73331404E-03 -3.45454072E-02
  5.76927907E-02 -3.67509815E-02 -7.05711567E-02 -1.20281554E-01  4.92657521E-02
 -3.98695646E-02 -6.57545225E-02  9.82300739E-03  6.04628245E-02 -7.34535645E-02
 -3.18249989E-02  1.00966932E-01 -1.68502196E-02 -3.78749555E-02 -1.11303671E-02
  1.55173661E-01  7.52482447E-02 -3.16612736E-01  2.21484615E-01  4.24766785E-02
 -6.50927188E-01 -4.18446881E-01  9.49875480E-02 -1.76562063E-01 -9.99249283E-02
  6.44778790E-03 -1.32745997E-01 -7.58419422E-02 -2.60122559E-02 -1.76160224E-02
 -2.79333156E-02 -7.78752961E-02  6.09320928E-02  1.96829266E-01  6.04647953E-02
 -6.67069715E-02 -6.18543901E-02 -2.99672076E-02  1.43454666E-02 -2.68441004E-02
  2.51906341E-02 -6.79309256E-03  3.57315630E-02 -1.38103078E-02 -7.86129604E-03
 -1.20077776E-01  1.60498372E-02  1.22330622E-01 -1.19560580E-01 -2.43564658E-02
  1.89602739E-01 -1.71766926E-01 -1.21018421E-01 -3.95587029E-02  7.34512975E-02
  9.54311231E-02  2.97868905E-01  5.30383411E-01  1.77244910E-01  2.82701798E-01
  1.86930240E-01 -2.44178952E-02 -1.68211777E-01  1.33008251E-02  8.06103865E-02
 -4.16856189E-01 -2.59911592E-01 -2.29914767E-02 -3.88778082E-02 -3.39584184E-02
  4.35406316E-02  9.72464172E-02  6.47125460E-02 -9.17223488E-02  4.67497462E-02
  2.88956999E-02  2.11544859E-02  3.57875187E-03 -4.82271851E-02  2.04808862E-02
 -7.55851728E-02 -4.50366961E-03 -1.45369404E-02 -2.63567054E-02 -8.36225112E-03
  5.10016454E-02  4.96288640E-02 -9.80427612E-02 -1.44360752E-01  5.55476816E-03
  1.65082026E-01  9.94103596E-02  3.22844678E-02  1.47821067E-01 -5.44698644E-02
 -3.14379901E-01 -1.68434817E-01 -1.71217271E-01  5.39075031E-01  2.99277201E-01
 -5.93852495E-02 -2.97790076E-01 -3.31729656E-01 -6.78346350E-02  2.43004051E-01
  2.28851641E-01 -8.33034314E-02 -8.27130231E-03 -5.37152208E-02  6.77996596E-02
  7.64977053E-03  1.24922002E-01 -4.80319089E-02 -8.30736531E-02 -5.30179050E-02
 -1.59175718E-02  6.65968742E-03  3.48451812E-02 -1.23273841E-02  6.74919791E-02
  1.43471261E-02  9.29519662E-03 -7.36337060E-03 -2.99101032E-02  4.01271250E-02
  2.31347948E-02 -9.37792196E-02 -2.16543166E-01 -4.06966297E-02  1.81522574E-01
  1.29472434E-01  8.78273760E-02  4.30153415E-02 -1.79907989E-01  4.57379258E-01
 -3.96707796E-01 -2.28045120E-01 -4.54594328E-01 -2.49234071E-01  3.81810419E-02
 -2.29226674E-01 -1.90312601E-01 -1.51351927E-02  7.81889212E-02  1.23787782E-01
 -8.32827398E-02  6.29666322E-02 -3.02330361E-02  2.51753250E-02 -1.64490133E-01
  6.86349641E-02  4.01782471E-02  1.68008593E-01  4.99035975E-02 -3.75556062E-02
 -2.09779019E-02 -1.52863364E-02  1.10244338E-02 -8.56655549E-02 -3.05121306E-02
  5.07674178E-03  2.26217126E-02 -1.56318993E-02 -2.65555016E-02 -1.35730789E-01
  8.94364585E-02 -7.66988187E-02 -1.98647566E-01  5.00930963E-02  4.68506285E-02
  6.96577643E-02 -9.36814400E-02 -7.38966761E-02  6.09790392E-01 -4.07588907E-01
 -1.24467999E-01  3.68727896E-01  1.85552402E-01 -3.52975106E-02  7.23196682E-02
  1.88489766E-01  5.30265271E-02 -1.99548917E-01 -1.19690147E-01 -7.06766773E-03
  3.59989037E-02 -4.70762477E-02 -4.23221416E-02 -3.66020116E-02 -6.61475144E-02
 -6.20844528E-02  1.69785096E-02  2.14362895E-03 -1.17121617E-03 -5.09893697E-03
  7.69979135E-03 -4.38533343E-03 -1.70825806E-03 -2.81282075E-03  1.59771608E-03
 -1.19744592E-03  2.30487030E-03  5.77127906E-02 -2.80307597E-01  1.90504580E-01
  1.68898854E-01 -1.90666183E-01  2.42643141E-01  4.86035071E-02 -1.67413346E-03
  2.59415091E-01  2.80964605E-01  4.08339253E-01  4.91382007E-01  1.20615915E-01
 -3.02068878E-03 -1.68453491E-02 -1.83820945E-02 -1.97152989E-01 -1.83300285E-01
 -1.23153238E-02  1.94176094E-01  2.29228482E-01 -8.89287802E-02  3.83541689E-02
 -9.40594674E-02 -6.54053349E-02  4.28939839E-02  5.94895990E-02  5.06941888E-02
 -4.26143969E-02 -2.04175592E-02  6.84326431E-04  6.75980409E-03 -1.08801190E-03
  2.96540846E-03  1.29980361E-02  1.00754778E-02 -1.56223335E-03  1.15033750E-03
 -4.94615413E-03 -4.03146556E-02 -2.91761593E-01  1.69645344E-01  3.04315127E-01
 -1.59670524E-01  4.41693864E-01  1.06368031E-01  1.25665518E-02  3.20901466E-01
  3.24216239E-01 -3.30321728E-01 -3.50143681E-01 -8.09037582E-02 -4.57996474E-03
 -1.53101908E-03 -9.44016179E-03  1.34188967E-01  1.51094462E-01  1.79448187E-02
 -1.49981670E-01 -1.50848567E-01  4.23911772E-02 -2.09818333E-02  1.51647216E-02
 -4.31590750E-02 -1.77466571E-02  9.74211741E-03 -2.01566241E-02  1.23883629E-02
  3.07772455E-03  7.42544991E-04 -1.62477343E-03  5.28467020E-04 -4.64855292E-04
 -4.20637768E-03 -3.13495193E-03  2.12708902E-04 -5.99847582E-04 -6.19986114E-03
  7.81073478E-03  4.16930967E-01 -2.39378637E-01  5.01396759E-01  7.83909727E-02
  4.62921879E-01  1.12491927E-01 -1.59541734E-01 -4.86846781E-01  7.17872685E-02
  7.94200526E-02 -3.32809627E-03 -2.90881635E-02  3.13914206E-03  5.66757911E-03
  7.67499919E-03 -3.23725192E-02  5.45150815E-03  1.24263435E-02  2.85395946E-02
  4.98149951E-02 -3.61646494E-02 -4.06468628E-02 -3.20306126E-02  7.08812207E-03
 -2.74525586E-02 -1.57853037E-02  5.03967273E-03  6.42860422E-03  6.99393667E-03
 -1.32240697E-03 -4.65149500E-05 -3.50722662E-03  1.21036184E-03 -2.06760527E-03
 -7.51303287E-04  2.31031553E-04  3.26707046E-03 -9.51539155E-04 -8.34603691E-04
 -2.00475996E-01  1.25196273E-01  3.37322518E-01  6.57745700E-01  1.19355907E-01
  5.30578632E-02  1.88088442E-01  2.23729779E-01 -5.33015788E-01  4.19848248E-02
  3.33058674E-02  2.34205002E-02  2.44788818E-02  5.70586072E-03 -1.40265951E-02
  1.42780854E-02  4.21209468E-02  1.50022447E-02 -3.63728471E-03  1.74526595E-02
 -2.16983273E-02 -3.10445136E-03  3.31166559E-03  3.67290347E-03  2.49242453E-02
 -9.56042140E-03  6.55568975E-03 -1.51033069E-04 -4.87130861E-03  4.03256282E-03
 -2.01911427E-03  3.94168783E-03 -3.24423991E-03 -3.36299335E-04  3.24670272E-05
 -1.52512057E-04 -1.35219306E-02 -7.09776296E-02  8.97270028E-03  4.16688436E-03
 -6.54076792E-03 -5.06580603E-02 -1.79288083E-02 -3.91922055E-02 -5.02019863E-03
 -4.34196757E-03  1.31746113E-02  1.46716799E-02 -4.95796609E-02 -2.74315568E-02
  3.96771121E-04  4.95902631E-03  3.32907743E-03  7.70354113E-04 -4.13376781E-02
  6.47218198E-01  3.01913298E-01  7.13165443E-02  4.64962666E-01 -5.02639907E-01
  5.31723861E-03 -7.15364620E-03 -2.37195197E-03  2.83915435E-02 -2.62932182E-02
  2.45029553E-02 -2.26452447E-01  6.04501939E-01 -3.50588114E-01  1.35677650E-01
 -3.80579511E-01  2.18233989E-01  3.59898287E-02 -3.14327257E-02  2.35391975E-02
 -6.99375874E-03 -8.93403453E-03  2.30453695E-03  1.37963311E-02 -7.46572922E-03
 -5.34458485E-03 -4.58440223E-02  3.31871234E-02  2.76122097E-03 -6.13281727E-04
 -1.29145285E-03  4.88685914E-02  1.73263698E-01 -2.89973046E-02 -5.90256820E-03
 -3.89549897E-01 -2.10757409E-01  3.01246858E-02 -5.97384295E-02  3.87653532E-02
  2.33669326E-02 -2.36623328E-02  4.01702798E-02 -5.21277048E-02 -6.28083871E-04
 -5.34835682E-03  7.68459665E-03 -4.35296636E-04  2.62867277E-02 -7.83767705E-02
  1.01472899E-03  1.92130595E-03 -1.51724272E-03  4.00540585E-05 -8.24847239E-04
  2.23291605E-04 -5.64872056E-04 -3.60879751E-04  3.74427872E-04  4.16620825E-04
  2.38619944E-06  1.81228470E-03  2.65374674E-02  3.16423583E-02 -2.10884868E-03
 -1.05665543E-03  2.79443719E-02 -8.50301868E-02 -2.10601697E-02  1.54891635E-03
 -4.13339453E-03  4.44877156E-03 -3.16065115E-01  9.39405433E-01 -3.52594786E-03
 -5.08491871E-03 -2.38553481E-03 -7.15868498E-03  6.30463887E-03 -1.77053901E-02
  4.93507107E-03  3.08686902E-04 -2.92368962E-03  4.49624236E-03 -3.60989998E-02
 -3.55516103E-02 -1.66594133E-04  1.32166723E-03 -1.10786949E-03 -1.07592361E-03
 -2.14091007E-04 -5.12308891E-04  2.50045222E-04 -1.53490321E-04  1.94241272E-04
  1.46611433E-04  3.63873030E-04  1.33806121E-04  4.28869742E-05  1.74009296E-04
  4.28933799E-05  3.63058029E-01  5.31248938E-01 -5.12385064E-02 -6.42486097E-03
 -1.93517425E-01  5.97463551E-01 -4.03228066E-01  8.43860170E-02 -1.27112587E-01
  1.02220564E-03 -6.52996724E-03  1.91269617E-02  3.70780243E-04 -1.10986875E-03
 -1.38819836E-03 -2.17168637E-04 -1.73494695E-03 -1.06073848E-03 -2.13576713E-04
 -1.86253546E-03  1.00530897E-03  3.36420772E-02  6.36563571E-02 -5.77430999E-02
  7.45279127E-04  2.86036208E-03 -8.10746626E-03  3.13336184E-04  9.37885065E-04
 -3.77018470E-04  4.17556024E-05 -3.86558207E-04  2.18725927E-04 -4.33499393E-05
 -3.94555782E-04 -6.37693919E-05 -1.45748400E-04 -2.80393502E-04  5.07662518E-04
 -3.94976868E-01 -5.76224679E-01  3.82124852E-02  2.80267832E-03 -1.99096329E-01
  6.72740825E-01 -1.48225345E-02  1.95014425E-02 -1.95945457E-02 -8.47059462E-04
 -2.71166511E-02  8.89935642E-02 -2.44073846E-03 -4.51824398E-04  2.08986512E-03
 -2.78846062E-04 -3.12099586E-03 -3.91979336E-03 -5.61447659E-04 -3.68643962E-04
  5.25186269E-04 -8.18193699E-02  4.23812132E-03 -4.30252590E-02 -1.17122165E-03
  8.51835305E-04 -3.25422491E-03  2.75494489E-04 -5.55586079E-04  3.95911738E-06
  6.68692779E-05  6.25277806E-05  4.48659006E-05 -3.88836090E-05  1.94722312E-04
  2.42018074E-05  2.64921944E-04  7.47037575E-05  1.03221079E-04  1.50036324E-01
  2.39138889E-01 -2.82953676E-02 -1.74722900E-02 -9.36363625E-02  2.92970160E-01
  8.45264122E-01 -1.92766934E-01  2.51206872E-01  1.36057732E-03 -9.39924570E-03
  3.44013482E-02  1.17547078E-03 -1.05523427E-03 -9.35284309E-04 -1.28698147E-03
 -7.72649942E-04 -1.30397368E-03  1.67219168E-03 -6.19140984E-04  4.20643873E-04
  2.63827934E-04  7.32464000E-05 -1.48225468E-04 -2.38345832E-03  4.40873222E-04
 -1.56240639E-03 -2.18118009E-04  7.83165671E-05 -1.75468005E-04 -9.92080282E-05
 -3.03877121E-04  5.28057012E-05 -5.29658104E-05 -8.06792560E-05  6.88378334E-05
 -1.46708973E-02  5.25335250E-02 -1.79575263E-02 -8.81916491E-04 -4.47871413E-04
  1.01121067E-03 -4.57578627E-04  7.57291508E-04  5.53472937E-04  2.09517295E-04
 -2.65614717E-04 -1.37970264E-04  1.05789508E-03 -2.60189671E-03  1.11851768E-02
 -3.58801657E-04  1.08492601E-03 -6.43022970E-04  4.13242353E-02 -2.83405545E-01
  6.96922243E-01  1.93199513E-01 -4.45991331E-01 -4.38856054E-01 -2.28444409E-04
  5.20187795E-06  2.72356442E-04  7.94846759E-04  5.24387420E-04 -2.04491953E-03
 -1.18235230E-04  2.14039492E-05  1.23143526E-04 -5.74956880E-05 -1.86255330E-05
 -2.82269686E-05  1.07019970E-04 -1.02173432E-04  6.46940628E-05  1.28701562E-02
 -1.92283973E-02 -7.62686948E-02  5.09877052E-04 -8.09236652E-05  7.85284868E-05
 -1.67392082E-04  1.38977086E-03  1.29754367E-03  4.19935023E-04  4.74492402E-04
  2.28127121E-05 -1.40427210E-03 -4.31747640E-03  1.43692201E-02 -1.08621138E-03
  2.33566312E-03 -1.71798402E-03  6.21172616E-02 -2.69456511E-01  5.90348147E-01
 -2.45333890E-01  5.32177656E-01  4.74366284E-01  4.54646457E-05  1.00773990E-04
  1.13677677E-05 -8.17803642E-06  4.20174974E-04 -3.41017237E-04  2.48331294E-03
 -1.89870645E-03  1.52267213E-03 -4.97935645E-04  9.98274536E-04 -6.11336494E-04
  2.47954060E-02 -4.81297681E-02  3.03539200E-02  9.65306194E-05 -5.80429127E-05
  2.66329066E-04  6.94123728E-04  2.65788186E-04 -1.22040552E-03 -2.79068142E-04
 -5.47387368E-04  4.36535256E-04  6.32550721E-04 -3.59644505E-04 -6.49049908E-05
 -2.44870825E-04  1.00111045E-03  9.83742399E-04 -4.17466629E-01  7.65053799E-01
 -4.86344978E-01 -2.87240647E-04  9.92299289E-04 -2.73470453E-03 -2.09283663E-05
 -1.18377123E-03 -9.97252538E-04
ClPar MaxAn                                I              200
ClPar NIntPar                              I                4
ClPar NRealPar                             I               16
ClPar NBits                                I               30
ClPar LenBitVec                            I                1
ClPar Read BitMap                          I   N=         200
           0           0           0           0           0           0
           0           0           0           0           0           0
           0           0           0           0           0           0
           0           0           0           0           0           0
           0           0           0           0           0           0
           0           0           0           0           0           0
           0           0           0           0           0           0
           0           0           0           0           0           0
           0           0           0           0           0           0
           0           0           0           0           0           0
           0           0           0           0           0           0
           0           0           0           0           0           0
           0           0           0           0           0           0
           0           0           0           0           0           0
           0           0           0           0           0           0
           0           0           0           0           0           0
           0           0           0           0           0           0
           0           0           0           0           0           0
           0           0           0           0           0           0
           0           0           0           0           0           0
           0           0           0           0           0           0
           0           0           0           0           0           0
           0           0           0           0           0           0
           0           0           0           0           0           0
           0           0           0           0           0           0
           0           0           0           0           0           0
           0           0           0           0           0           0
           0           0           0           0           0           0
           0           0           0           0           0           0
           0           0           0           0           0           0
           0           0           0           0           0           0
           0           0           0           0           0           0
           0           0           0           0           0           0
           0           0
ClPar Default BitMap                       I   N=         200
        2016        2016        2016        2016        2016        2016
        2016        2016        2016        2016        2016        2016
        2016        2016        2016        2016        2016        2016
        2016        2016        2016        2016        2016        2016
        2016        2016        2016        2016        2016        2016
        2016        2016        2016        2016        2016        2016
        2016        2016        2016        2016        2016        2016
        2016        2016        2016        2016        2016        2016
        2016        2016        2016        2016        2016        2016
        2016        2016        2016        2016        2016        2016
        2016        2016        2016        2016        2016        2016
        2016        2016        2016        2016        2016        2016
        2016        2016        2016        2016        2016        2016
        2016        2016        2016        2016        2016        2016
        2016        2016         480         480         480         480
         480         480         480         480         480         480
         480         480         480         480         480         480
         480         480         480         480         480         480
         480         480         480         480         480         480
         480         480         480         480         480         480
         480         480         480         480         480         480
         480         480         480         480         480         480
         480         480         480         480         480         480
         480         480         480         480         480         480
         480         480         480         480         480         480
         480         480         480         480         480         480
         480         480         480         480         480         480
         480         480         480         480         480         480
         480         480         480         480         480         480
         480         480         480         480         480         480
         480         480         480         480         480         480
         480         480         480         480         480         480
         480         480         480         480         480         480
         480         480
ClPar Int Params                           I   N=         800
           0           0           0           0           0           0
           0           0           0           0           0           0
           0           0           0           0           0           0
           0           0           0           0           0           0
           0           0           0           0           0           0
           0           0           0           0           0           0
           0           0           0           0           0           0
           0           0           0           0           0           0
           0           0           0           0           0           0
           0           0           0           0           0           0
           0           0           0           0           0           0
           0           0           0           0           0           0
           0           0           0           0           0           0
           0           0           0           0           0           0
           0           0           0           0           0           0
           0           0           0           0           0           0
           0           0           0           0           0           0
           0           0           0           0           0           0
           0           0           0           0           0           0
           0           0           0           0           0           0
           0           0           0           0           0           0
           0           0           0           0           0           0
           0           0           0           0           0           0
           0           0           0           0           0           0
           0           0           0           0           0           0
           0           0           0           0           0           0
           0           0           0           0           0           0
           0           0           0           0           0           0
           0           0           0           0           0           0
           0           0           0           0           0           0
           0           0           0           0           0           0
           0           0           0           0           0           0
           0           0           0           0           0           0
           0           0           0           0           0           0
           0           0           0           0           0           0
           0           0           0           0           0           0
           0           0           0           0           0           0
           0           0           0           0           0           0
           0           0           0           0           0           0
           0           0           0           0           0           0
           0           0           0           0           0           0
           0           0           0           0           0           0
           0           0           0           0           0           0
           0           0           0           0           0           0
           0           0           0           0           0           0
           0           0           0           0           0           0
           0           0           0           0           0           0
           0           0           0           0           0           0
           0           0           0           0           0           0
           0           0           0           0           0           0
           0           0           0           0           0           0
           0           0           0           0           0           0
           0           0           0           0           0           0
           0           0           0           0           0           0
           0           0           0           0           0           0
           0           0           0           0           0           0
           0           0           0           0           0           0
           0           0           0           0           0           0
           0           0           0           0           0           0
           0           0           0           0           0           0
           0           0           0           0           0           0
           0           0           0           0           0           0
           0           0           0           0           0           0
           0           0           0           0           0           0
           0           0           0           0           0           0
           0           0           0           0           0           0
           0           0           0           0           0           0
           0           0           0           0           0           0
           0           0           0           0           0           0
           0           0           0           0           0           0
           0           0           0           0           0           0
           0           0           0           0           0           0
           0           0           0           0           0           0
           0           0           0           0           0           0
           0           0           0           0           0           0
           0           0           0           0           0           0
           0           0           0           0           0           0
           0           0           0           0           0           0
           0           0           0           0           0           0
           0           0           0           0           0           0
           0           0           0           0           0           0
           0           0           0           0           0           0
           0           0           0           0           0           0
           0           0           0           0           0           0
           0           0           0           0           0           0
           0           0           0           0           0           0
           0           0           0           0           0           0
           0           0           0           0           0           0
           0           0           0           0           0           0
           0           0           0           0           0           0
           0           0           0           0           0           0
           0           0           0           0           0           0
           0           0           0           0           0           0
           0           0           0           0           0           0
           0           0           0           0           0           0
           0           0           0           0           0           0
           0           0           0           0           0           0
           0           0           0           0           0           0
           0           0           0           0           0           0
           0           0           0           0           0           0
           0           0           0           0           0           0
           0           0           0           0           0           0
           0           0           0           0           0           0
           0           0           0           0           0           0
           0           0           0           0           0           0
           0           0           0           0           0           0
           0           0           0           0           0           0
           0           0           0           0           0           0
           0           0           0           0           0           0
           0           0           0           0           0           0
           0           0           0           0           0           0
           0           0           0           0           0           0
           0           0           0           0           0           0
           0           0           0           0           0           0
           0           0           0           0           0           0
           0           0           0           0           0           0
           0           0           0           0           0           0
           0           0           0           0           0           0
           0           0           0           0           0           0
           0           0           0           0           0           0
           0           0           0           0           0           0
           0           0           0           0           0           0
           0           0           0           0           0           0
           0           0           0           0           0           0
           0           0           0           0           0           0
           0           0           0           0           0           0
           0           0           0           0           0           0
           0           0           0           0           0           0
           0           0           0           0           0           0
           0           0           0           0           0           0
           0           0           0           0           0           0
           0           0           0           0           0           0
           0           0           0           0           0           0
           0           0
ClPar Real Params                          R   N=        3200
  0.00000000E+00  0.00000000E+00  0.00000000E+00  0.00000000E+00  0.00000000E+00
  0.00000000E+00  0.00000000E+00  0.00000000E+00  0.00000000E+00  0.00000000E+00
  0.00000000E+00  0.00000000E+00  0.00000000E+00  0.00000000E+00  0.00000000E+00
  0.00000000E+00  0.00000000E+00  0.00000000E+00  0.00000000E+00  0.00000000E+00
  0.00000000E+00  0.00000000E+00  0.00000000E+00  0.00000000E+00  0.00000000E+00
  0.00000000E+00  0.00000000E+00  0.00000000E+00  0.00000000E+00  0.00000000E+00
  0.00000000E+00  0.00000000E+00  0.00000000E+00  0.00000000E+00  0.00000000E+00
  0.00000000E+00  0.00000000E+00  0.00000000E+00  0.00000000E+00  0.00000000E+00
  0.00000000E+00  0.00000000E+00  0.00000000E+00  0.00000000E+00  0.00000000E+00
  0.00000000E+00  0.00000000E+00  0.00000000E+00  0.00000000E+00  0.00000000E+00
  0.00000000E+00  0.00000000E+00  0.00000000E+00  0.00000000E+00  0.00000000E+00
  0.00000000E+00  0.00000000E+00  0.00000000E+00  0.00000000E+00  0.00000000E+00
  0.00000000E+00  0.00000000E+00  0.00000000E+00  0.00000000E+00  0.00000000E+00
  0.00000000E+00  0.00000000E+00  0.00000000E+00  0.00000000E+00  0.00000000E+00
  0.00000000E+00  0.00000000E+00  0.00000000E+00  0.00000000E+00  0.00000000E+00
  0.00000000E+00  0.00000000E+00  0.00000000E+00  0.00000000E+00  0.00000000E+00
  0.00000000E+00  0.00000000E+00  0.00000000E+00  0.00000000E+00  0.00000000E+00
  0.00000000E+00  0.00000000E+00  0.00000000E+00  0.00000000E+00  0.00000000E+00
  0.00000000E+00  0.00000000E+00  0.00000000E+00  0.00000000E+00  0.00000000E+00
  0.00000000E+00  0.00000000E+00  0.00000000E+00  0.00000000E+00  0.00000000E+00
  0.00000000E+00  0.00000000E+00  0.00000000E+00  0.00000000E+00  0.00000000E+00
  0.00000000E+00  0.00000000E+00  0.00000000E+00  0.00000000E+00  0.00000000E+00
  0.00000000E+00  0.00000000E+00  0.00000000E+00  0.00000000E+00  0.00000000E+00
  0.00000000E+00  0.00000000E+00  0.00000000E+00  0.00000000E+00  0.00000000E+00
  0.00000000E+00  0.00000000E+00  0.00000000E+00  0.00000000E+00  0.00000000E+00
  0.00000000E+00  0.00000000E+00  0.00000000E+00  0.00000000E+00  0.00000000E+00
  0.00000000E+00  0.00000000E+00  0.00000000E+00  0.00000000E+00  0.00000000E+00
  0.00000000E+00  0.00000000E+00  0.00000000E+00  0.00000000E+00  0.00000000E+00
  0.00000000E+00  0.00000000E+00  0.00000000E+00  0.00000000E+00  0.00000000E+00
  0.00000000E+00  0.00000000E+00  0.00000000E+00  0.00000000E+00  0.00000000E+00
  0.00000000E+00  0.00000000E+00  0.00000000E+00  0.00000000E+00  0.00000000E+00
  0.00000000E+00  0.00000000E+00  0.00000000E+00  0.00000000E+00  0.00000000E+00
  0.00000000E+00  0.00000000E+00  0.00000000E+00  0.00000000E+00  0.00000000E+00
  0.00000000E+00  0.00000000E+00  0.00000000E+00  0.00000000E+00  0.00000000E+00
  0.00000000E+00  0.00000000E+00  0.00000000E+00  0.00000000E+00  0.00000000E+00
  0.00000000E+00  0.00000000E+00  0.00000000E+00  0.00000000E+00  0.00000000E+00
  0.00000000E+00  0.00000000E+00  0.00000000E+00  0.00000000E+00  0.00000000E+00
  0.00000000E+00  0.00000000E+00  0.00000000E+00  0.00000000E+00  0.00000000E+00
  0.00000000E+00  0.00000000E+00  0.00000000E+00  0.00000000E+00  0.00000000E+00
  0.00000000E+00  0.00000000E+00  0.00000000E+00  0.00000000E+00  0.00000000E+00
  2.26000000E-01  4.43000000E-01  1.01000000E-01  1.47000000E-01  1.92000000E-01
  2.40000000E-01  2.75000000E-01  3.03000000E-01  3.25000000E-01  4.13000000E-01
  9.60000000E-02  1.35000000E-01  1.73000000E-01  2.11000000E-01  2.48000000E-01
  2.86000000E-01  3.23000000E-01  3.60000000E-01  8.20000000E-02  1.04000000E-01
  1.17000000E-01  1.23000000E-01  1.29000000E-01  1.34000000E-01  1.40000000E-01
  1.44000000E-01  1.48000000E-01  1.52000000E-01  1.55000000E-01  1.76000000E-01
  1.98000000E-01  2.19000000E-01  2.39000000E-01  2.60000000E-01  2.80000000E-01
  3.00000000E-01  7.90000000E-02  9.90000000E-02  1.19000000E-01  1.26000000E-01
  1.33000000E-01  1.40000000E-01  1.47000000E-01  1.53000000E-01  1.58000000E-01
  1.63000000E-01  1.57000000E-01  1.70000000E-01  1.87000000E-01  2.03000000E-01
  2.19000000E-01  2.34000000E-01  2.50000000E-01  2.65000000E-01  7.40000000E-02
  9.20000000E-02  1.05000000E-01  1.06000000E-01  1.07000000E-01  1.08000000E-01
  1.09000000E-01  1.10000000E-01  1.11000000E-01  1.12000000E-01  1.13000000E-01
  1.14000000E-01  1.15000000E-01  1.16000000E-01  1.17000000E-01  1.17000000E-01
  1.26000000E-01  1.36000000E-01  1.46000000E-01  1.55000000E-01  1.65000000E-01
  1.73000000E-01  1.82000000E-01  1.90000000E-01  1.62000000E-01  1.78000000E-01
  1.10000000E-01  1.35000000E-01  1.59000000E-01  1.83000000E-01  2.07000000E-01
  2.31000000E-01  6.90000000E-02  9.40000000E-02  1.02000000E-01  1.03000000E-01
  1.05000000E-01  1.07000000E-01  1.09000000E-01  1.11000000E-01  1.13000000E-01
  1.15000000E-01  1.17000000E-01  1.19000000E-01  1.20000000E-01  1.22000000E-01
  1.24000000E-01  1.26000000E-01  1.28000000E-01  1.28000000E-01  1.28000000E-01
  1.28000000E-01  1.28000000E-01  1.28000000E-01  1.28000000E-01  1.28000000E-01
  1.28000000E-01  1.28000000E-01  1.28000000E-01  1.28000000E-01  1.28000000E-01
  1.28000000E-01  1.28000000E-01  1.28000000E-01  1.28000000E-01  1.28000000E-01
  1.28000000E-01  1.28000000E-01  1.28000000E-01  1.28000000E-01  1.28000000E-01
  1.28000000E-01  1.28000000E-01  1.28000000E-01  1.28000000E-01  1.28000000E-01
  1.28000000E-01  1.28000000E-01  1.28000000E-01  1.28000000E-01  1.28000000E-01
  1.28000000E-01  1.28000000E-01  1.28000000E-01  1.28000000E-01  1.28000000E-01
  1.28000000E-01  1.28000000E-01  1.28000000E-01  1.28000000E-01  1.28000000E-01
  1.28000000E-01  1.28000000E-01  1.28000000E-01  1.28000000E-01  1.28000000E-01
  1.28000000E-01  1.28000000E-01  1.28000000E-01  1.28000000E-01  1.28000000E-01
  1.28000000E-01  1.28000000E-01  1.28000000E-01  1.28000000E-01  1.28000000E-01
  1.28000000E-01  1.28000000E-01  1.28000000E-01  1.28000000E-01  1.28000000E-01
  1.28000000E-01  1.28000000E-01  1.28000000E-01  1.28000000E-01  1.28000000E-01
  1.28000000E-01  1.28000000E-01  1.28000000E-01  1.28000000E-01  1.28000000E-01
  1.28000000E-01  1.28000000E-01  1.28000000E-01  1.28000000E-01  1.28000000E-01
  1.28000000E-01  1.28000000E-01  1.28000000E-01  1.28000000E-01  1.28000000E-01
  1.28000000E-01  1.28000000E-01  1.28000000E-01  1.28000000E-01  1.28000000E-01
  1.28000000E-01  1.28000000E-01  1.28000000E-01  1.28000000E-01  1.28000000E-01
  1.28000000E-01  1.28000000E-01  1.28000000E-01  1.28000000E-01  1.28000000E-01
  5.47000000E-01  5.92000000E-01  5.99000000E-01  6.68000000E-01  6.98000000E-01
  7.18000000E-01  7.26000000E-01  7.36000000E-01  7.43000000E-01  7.45000000E-01
  6.07000000E-01  6.66000000E-01  6.93000000E-01  7.09000000E-01  7.20000000E-01
  7.29000000E-01  7.35000000E-01  7.40000000E-01  6.08000000E-01  7.34000000E-01
  7.46000000E-01  7.55000000E-01  7.61000000E-01  7.65000000E-01  7.67000000E-01
  7.60000000E-01  7.49000000E-01  7.33000000E-01  7.08000000E-01  6.48000000E-01
  6.88000000E-01  7.09000000E-01  7.22000000E-01  7.31000000E-01  7.38000000E-01
  7.44000000E-01  6.09000000E-01  7.30000000E-01  7.41000000E-01  7.52000000E-01
  7.58000000E-01  7.63000000E-01  7.66000000E-01  7.58000000E-01  7.48000000E-01
  7.33000000E-01  7.01000000E-01  6.45000000E-01  6.86000000E-01  7.08000000E-01
  7.22000000E-01  7.31000000E-01  7.38000000E-01  7.44000000E-01  6.08000000E-01
  7.28000000E-01  7.32000000E-01  7.32000000E-01  7.32000000E-01  7.32000000E-01
  7.32000000E-01  7.32000000E-01  7.32000000E-01  7.32000000E-01  7.32000000E-01
  7.31000000E-01  7.31000000E-01  7.31000000E-01  7.31000000E-01  7.46000000E-01
  7.37000000E-01  7.46000000E-01  7.51000000E-01  7.55000000E-01  7.58000000E-01
  7.47000000E-01  7.32000000E-01  7.11000000E-01  7.41000000E-01  7.07000000E-01
  7.47000000E-01  7.43000000E-01  7.42000000E-01  7.42000000E-01  7.43000000E-01
  7.44000000E-01  6.05000000E-01  7.24000000E-01  7.26000000E-01  7.26000000E-01
  7.27000000E-01  7.27000000E-01  7.27000000E-01  7.28000000E-01  7.28000000E-01
  7.28000000E-01  7.28000000E-01  7.28000000E-01  7.29000000E-01  7.29000000E-01
  7.29000000E-01  7.29000000E-01  7.29000000E-01  7.29000000E-01  7.29000000E-01
  7.29000000E-01  7.29000000E-01  7.29000000E-01  7.29000000E-01  7.29000000E-01
  7.29000000E-01  7.29000000E-01  7.29000000E-01  7.29000000E-01  7.29000000E-01
  7.29000000E-01  7.29000000E-01  7.29000000E-01  7.29000000E-01  7.29000000E-01
  7.29000000E-01  7.29000000E-01  7.29000000E-01  7.29000000E-01  7.29000000E-01
  7.29000000E-01  7.29000000E-01  7.29000000E-01  7.29000000E-01  7.29000000E-01
  7.29000000E-01  7.29000000E-01  7.29000000E-01  7.29000000E-01  7.29000000E-01
  7.29000000E-01  7.29000000E-01  7.29000000E-01  7.29000000E-01  7.29000000E-01
  7.29000000E-01  7.29000000E-01  7.29000000E-01  7.29000000E-01  7.29000000E-01
  7.29000000E-01  7.29000000E-01  7.29000000E-01  7.29000000E-01  7.29000000E-01
  7.29000000E-01  7.29000000E-01  7.29000000E-01  7.29000000E-01  7.29000000E-01
  7.29000000E-01  7.29000000E-01  7.29000000E-01  7.29000000E-01  7.29000000E-01
  7.29000000E-01  7.29000000E-01  7.29000000E-01  7.29000000E-01  7.29000000E-01
  7.29000000E-01  7.29000000E-01  7.29000000E-01  7.29000000E-01  7.29000000E-01
  7.29000000E-01  7.29000000E-01  7.29000000E-01  7.29000000E-01  7.29000000E-01
  7.29000000E-01  7.29000000E-01  7.29000000E-01  7.29000000E-01  7.29000000E-01
  7.29000000E-01  7.29000000E-01  7.29000000E-01  7.29000000E-01  7.29000000E-01
  7.29000000E-01  7.29000000E-01  7.29000000E-01  7.29000000E-01  7.29000000E-01
  7.29000000E-01  7.29000000E-01  7.29000000E-01  7.29000000E-01  7.29000000E-01
  7.29000000E-01  7.29000000E-01  7.29000000E-01  7.29000000E-01  7.29000000E-01
  1.00000000E+00  1.70400000E+00  3.23000000E-01  3.89000000E-01  4.67000000E-01
  5.67000000E-01  6.36000000E-01  6.64000000E-01  6.96000000E-01  8.79000000E-01
  3.07000000E-01  3.48000000E-01  4.00000000E-01  4.54000000E-01  5.09000000E-01
  5.65000000E-01  6.21000000E-01  6.77000000E-01  2.56000000E-01  3.50000000E-01
  3.64000000E-01  3.62000000E-01  3.62000000E-01  3.62000000E-01  3.62000000E-01
  3.65000000E-01  3.69000000E-01  3.75000000E-01  3.86000000E-01  4.46000000E-01
  4.55000000E-01  4.74000000E-01  4.96000000E-01  5.20000000E-01  5.45000000E-01
  5.70000000E-01  2.45000000E-01  3.22000000E-01  3.55000000E-01  3.59000000E-01
  3.64000000E-01  3.70000000E-01  3.76000000E-01  3.85000000E-01  3.95000000E-01
  4.08000000E-01  3.76000000E-01  4.23000000E-01  4.22000000E-01  4.32000000E-01
  4.45000000E-01  4.59000000E-01  4.75000000E-01  4.91000000E-01  2.28000000E-01
  2.92000000E-01  2.89000000E-01  2.92000000E-01  2.95000000E-01  2.98000000E-01
  3.00000000E-01  3.03000000E-01  3.06000000E-01  3.09000000E-01  3.12000000E-01
  3.15000000E-01  3.18000000E-01  3.21000000E-01  3.24000000E-01  3.61000000E-01
  3.69000000E-01  3.70000000E-01  3.72000000E-01  3.75000000E-01  3.78000000E-01
  3.85000000E-01  3.94000000E-01  4.07000000E-01  5.26000000E-01  6.21000000E-01
  3.36000000E-01  3.54000000E-01  3.71000000E-01  3.86000000E-01  4.02000000E-01
  4.17000000E-01  2.09000000E-01  2.94000000E-01  2.65000000E-01  2.72000000E-01
  2.78000000E-01  2.84000000E-01  2.91000000E-01  2.97000000E-01  3.03000000E-01
  3.10000000E-01  3.16000000E-01  3.22000000E-01  3.29000000E-01  3.35000000E-01
  3.41000000E-01  3.48000000E-01  3.54000000E-01  3.54000000E-01  3.54000000E-01
  3.54000000E-01  3.54000000E-01  3.54000000E-01  3.54000000E-01  3.54000000E-01
  3.54000000E-01  3.54000000E-01  3.54000000E-01  3.54000000E-01  3.54000000E-01
  3.54000000E-01  3.54000000E-01  3.54000000E-01  3.54000000E-01  3.54000000E-01
  3.54000000E-01  3.54000000E-01  3.54000000E-01  3.54000000E-01  3.54000000E-01
  3.54000000E-01  3.54000000E-01  3.54000000E-01  3.54000000E-01  3.54000000E-01
  3.54000000E-01  3.54000000E-01  3.54000000E-01  3.54000000E-01  3.54000000E-01
  3.54000000E-01  3.54000000E-01  3.54000000E-01  3.54000000E-01  3.54000000E-01
  3.54000000E-01  3.54000000E-01  3.54000000E-01  3.54000000E-01  3.54000000E-01
  3.54000000E-01  3.54000000E-01  3.54000000E-01  3.54000000E-01  3.54000000E-01
  3.54000000E-01  3.54000000E-01  3.54000000E-01  3.54000000E-01  3.54000000E-01
  3.54000000E-01  3.54000000E-01  3.54000000E-01  3.54000000E-01  3.54000000E-01
  3.54000000E-01  3.54000000E-01  3.54000000E-01  3.54000000E-01  3.54000000E-01
  3.54000000E-01  3.54000000E-01  3.54000000E-01  3.54000000E-01  3.54000000E-01
  3.54000000E-01  3.54000000E-01  3.54000000E-01  3.54000000E-01  3.54000000E-01
  3.54000000E-01  3.54000000E-01  3.54000000E-01  3.54000000E-01  3.54000000E-01
  3.54000000E-01  3.54000000E-01  3.54000000E-01  3.54000000E-01  3.54000000E-01
  3.54000000E-01  3.54000000E-01  3.54000000E-01  3.54000000E-01  3.54000000E-01
  3.54000000E-01  3.54000000E-01  3.54000000E-01  3.54000000E-01  3.54000000E-01
  3.54000000E-01  3.54000000E-01  3.54000000E-01  3.54000000E-01  3.54000000E-01
  2.74000000E-01  2.96000000E-01  5.80000000E-02  4.40000000E-02  3.90000000E-02
  3.90000000E-02  3.60000000E-02  3.20000000E-02  2.90000000E-02  3.30000000E-02
  5.50000000E-02  3.90000000E-02  3.30000000E-02  3.00000000E-02  2.80000000E-02
  2.60000000E-02  2.50000000E-02  2.50000000E-02  4.50000000E-02  4.40000000E-02
  3.30000000E-02  2.50000000E-02  2.10000000E-02  1.80000000E-02  1.50000000E-02
  1.80000000E-02  2.10000000E-02  2.50000000E-02  3.30000000E-02  5.00000000E-02
  3.80000000E-02  3.10000000E-02  2.70000000E-02  2.40000000E-02  2.20000000E-02
  2.10000000E-02  4.30000000E-02  4.00000000E-02  3.20000000E-02  2.50000000E-02
  2.10000000E-02  1.80000000E-02  1.60000000E-02  1.90000000E-02  2.20000000E-02
  2.80000000E-02  3.10000000E-02  4.70000000E-02  3.40000000E-02  2.80000000E-02
  2.40000000E-02  2.10000000E-02  1.90000000E-02  1.80000000E-02  3.90000000E-02
  3.60000000E-02  2.50000000E-02  2.50000000E-02  2.50000000E-02  2.60000000E-02
  2.60000000E-02  2.60000000E-02  2.70000000E-02  2.70000000E-02  2.70000000E-02
  2.70000000E-02  2.80000000E-02  2.80000000E-02  2.80000000E-02  3.30000000E-02
  3.30000000E-02  2.60000000E-02  2.10000000E-02  1.80000000E-02  1.60000000E-02
  1.80000000E-02  2.20000000E-02  2.60000000E-02  4.90000000E-02  8.20000000E-02
  3.00000000E-02  2.40000000E-02  2.10000000E-02  1.80000000E-02  1.60000000E-02
  1.50000000E-02  3.50000000E-02  3.60000000E-02  2.20000000E-02  2.30000000E-02
  2.40000000E-02  2.40000000E-02  2.50000000E-02  2.50000000E-02  2.60000000E-02
  2.70000000E-02  2.70000000E-02  2.80000000E-02  2.80000000E-02  2.90000000E-02
  3.00000000E-02  3.00000000E-02  3.10000000E-02  3.10000000E-02  3.10000000E-02
  3.10000000E-02  3.10000000E-02  3.10000000E-02  3.10000000E-02  3.10000000E-02
  3.10000000E-02  3.10000000E-02  3.10000000E-02  3.10000000E-02  3.10000000E-02
  3.10000000E-02  3.10000000E-02  3.10000000E-02  3.10000000E-02  3.10000000E-02
  3.10000000E-02  3.10000000E-02  3.10000000E-02  3.10000000E-02  3.10000000E-02
  3.10000000E-02  3.10000000E-02  3.10000000E-02  3.10000000E-02  3.10000000E-02
  3.10000000E-02  3.10000000E-02  3.10000000E-02  3.10000000E-02  3.10000000E-02
  3.10000000E-02  3.10000000E-02  3.10000000E-02  3.10000000E-02  3.10000000E-02
  3.10000000E-02  3.10000000E-02  3.10000000E-02  3.10000000E-02  3.10000000E-02
  3.10000000E-02  3.10000000E-02  3.10000000E-02  3.10000000E-02  3.10000000E-02
  3.10000000E-02  3.10000000E-02  3.10000000E-02  3.10000000E-02  3.10000000E-02
  3.10000000E-02  3.10000000E-02  3.10000000E-02  3.10000000E-02  3.10000000E-02
  3.10000000E-02  3.10000000E-02  3.10000000E-02  3.10000000E-02  3.10000000E-02
  3.10000000E-02  3.10000000E-02  3.10000000E-02  3.10000000E-02  3.10000000E-02
  3.10000000E-02  3.10000000E-02  3.10000000E-02  3.10000000E-02  3.10000000E-02
  3.10000000E-02  3.10000000E-02  3.10000000E-02  3.10000000E-02  3.10000000E-02
  3.10000000E-02  3.10000000E-02  3.10000000E-02  3.10000000E-02  3.10000000E-02
  3.10000000E-02  3.10000000E-02  3.10000000E-02  3.10000000E-02  3.10000000E-02
  3.10000000E-02  3.10000000E-02  3.10000000E-02  3.10000000E-02  3.10000000E-02
  3.10000000E-02  3.10000000E-02  3.10000000E-02  3.10000000E-02  3.10000000E-02
 -5.92770000E-01 -9.17860000E-01 -2.48668000E+00 -8.36430000E-01 -3.18470000E-01
 -4.55790000E-01 -5.70730000E-01 -6.77940000E-01 -7.69860000E-01 -8.51140000E-01
 -1.51908000E+00 -3.18830000E-01 -2.17900000E-01 -3.01260000E-01 -3.72750000E-01
 -4.15890000E-01 -4.45930000E-01 -5.91320000E-01 -9.56370000E-01 -2.88450000E-01
 -4.87320000E-01 -6.34280000E-01 -7.17490000E-01 -7.91980000E-01 -8.68490000E-01
 -9.17520000E-01 -9.54890000E-01 -9.88460000E-01 -1.50055000E+00 -2.92560000E-01
 -2.14960000E-01 -2.91180000E-01 -3.42080000E-01 -3.84480000E-01 -4.34940000E-01
 -5.24310000E-01 -8.10070000E-01 -2.58460000E-01 -4.35550000E-01 -5.32740000E-01
 -6.08450000E-01 -6.10260000E-01 -7.58920000E-01 -8.90130000E-01 -8.45780000E-01
 -8.69340000E-01 -1.38234000E+00 -2.64850000E-01 -1.97280000E-01 -2.65040000E-01
 -2.94470000E-01 -3.16570000E-01 -3.63590000E-01 -4.57840000E-01 -8.61830000E-01
 -1.33004000E+00 -6.82880000E-01 -6.25540000E-01 -6.35430000E-01 -8.79690000E-01
 -9.02690000E-01 -9.59650000E-01 -1.01869000E+00 -6.81170000E-01 -7.96500000E-01
 -9.04950000E-01 -8.34790000E-01 -9.01560000E-01 -9.74130000E-01 -1.03326000E+00
 -7.15490000E-01 -7.83960000E-01 -8.28380000E-01 -5.61040000E-01 -1.03841000E+00
 -8.62500000E-01 -9.59300000E-01 -1.01755000E+00 -7.64900000E-01 -1.29467000E+00
 -1.92740000E-01 -2.56010000E-01 -3.19820000E-01 -1.94660000E-01 -2.60090000E-01
 -4.27990000E-01  0.00000000E+00  0.00000000E+00  0.00000000E+00  0.00000000E+00
  0.00000000E+00  0.00000000E+00  0.00000000E+00  0.00000000E+00  0.00000000E+00
  0.00000000E+00  0.00000000E+00  0.00000000E+00  0.00000000E+00  0.00000000E+00
  0.00000000E+00  0.00000000E+00  0.00000000E+00  0.00000000E+00  0.00000000E+00
  0.00000000E+00  0.00000000E+00  0.00000000E+00  0.00000000E+00  0.00000000E+00
  0.00000000E+00  0.00000000E+00  0.00000000E+00  0.00000000E+00  0.00000000E+00
  0.00000000E+00  0.00000000E+00  0.00000000E+00  0.00000000E+00  0.00000000E+00
  0.00000000E+00  0.00000000E+00  0.00000000E+00  0.00000000E+00  0.00000000E+00
  0.00000000E+00  0.00000000E+00  0.00000000E+00  0.00000000E+00  0.00000000E+00
  0.00000000E+00  0.00000000E+00  0.00000000E+00  0.00000000E+00  0.00000000E+00
  0.00000000E+00  0.00000000E+00  0.00000000E+00  0.00000000E+00  0.00000000E+00
  0.00000000E+00  0.00000000E+00  0.00000000E+00  0.00000000E+00  0.00000000E+00
  0.00000000E+00  0.00000000E+00  0.00000000E+00  0.00000000E+00  0.00000000E+00
  0.00000000E+00  0.00000000E+00  0.00000000E+00  0.00000000E+00  0.00000000E+00
  0.00000000E+00  0.00000000E+00  0.00000000E+00  0.00000000E+00  0.00000000E+00
  0.00000000E+00  0.00000000E+00  0.00000000E+00  0.00000000E+00  0.00000000E+00
  0.00000000E+00  0.00000000E+00  0.00000000E+00  0.00000000E+00  0.00000000E+00
  0.00000000E+00  0.00000000E+00  0.00000000E+00  0.00000000E+00  0.00000000E+00
  0.00000000E+00  0.00000000E+00  0.00000000E+00  0.00000000E+00  0.00000000E+00
  0.00000000E+00  0.00000000E+00  0.00000000E+00  0.00000000E+00  0.00000000E+00
  0.00000000E+00  0.00000000E+00  0.00000000E+00  0.00000000E+00  0.00000000E+00
  0.00000000E+00  0.00000000E+00  0.00000000E+00  0.00000000E+00  0.00000000E+00
  0.00000000E+00  0.00000000E+00  0.00000000E+00  0.00000000E+00  0.00000000E+00
  1.90440000E+00  1.36430000E+00  4.84000000E-01  7.31600000E+00  9.24030000E+00
  8.78200000E+00  5.61290000E+00  4.83340000E+00  3.24870000E+00  2.71090000E+00
  2.01130000E+00  1.50282000E+01  1.46788000E+01  2.13546000E+01  2.38290000E+01
  1.98022000E+01  1.50468000E+01  1.09745000E+01  1.27219000E+01  1.51949000E+01
  1.57342000E+01  2.79222000E+01  1.61366000E+01  2.21252000E+01  2.45676000E+01
  1.96016000E+01  1.79818000E+01  1.72396000E+01  5.01500000E+00  1.92898000E+01
  2.34477000E+01  2.23993000E+01  2.96586000E+01  2.60081000E+01  2.15580000E+01
  1.69594000E+01  1.56479000E+01  1.86897000E+01  1.93530000E+01  3.43444000E+01
  1.98480000E+01  2.72140000E+01  3.02182000E+01  2.41099000E+01  2.21176000E+01
  2.12047000E+01  7.56690000E+00  2.37264000E+01  2.93879000E+01  3.01278000E+01
  4.19382000E+01  3.85203000E+01  3.39511000E+01  2.75774000E+01  1.56460000E+01
  1.04460000E+01  2.01830000E+01  4.99540000E+01  4.76430000E+01  1.18690000E+01
  1.08670000E+01  9.96100000E+00  9.18700000E+00  3.67980000E+01  1.34070000E+01
  9.38200000E+00  9.81700000E+00  8.90800000E+00  8.40700000E+00  8.05800000E+00
  1.29600000E+01  2.67920000E+01  2.49300000E+01  3.45630000E+01  1.11860000E+01
  1.09440000E+01  1.01270000E+01  9.40400000E+00  1.36660000E+01  7.81000000E+00
  6.93600000E+01  5.86630000E+01  4.79690000E+01  4.52740000E+01  3.92290000E+01
  3.30660000E+01  0.00000000E+00  0.00000000E+00  0.00000000E+00  0.00000000E+00
  0.00000000E+00  0.00000000E+00  0.00000000E+00  0.00000000E+00  0.00000000E+00
  0.00000000E+00  0.00000000E+00  0.00000000E+00  0.00000000E+00  0.00000000E+00
  0.00000000E+00  0.00000000E+00  0.00000000E+00  0.00000000E+00  0.00000000E+00
  0.00000000E+00  0.00000000E+00  0.00000000E+00  0.00000000E+00  0.00000000E+00
  0.00000000E+00  0.00000000E+00  0.00000000E+00  0.00000000E+00  0.00000000E+00
  0.00000000E+00  0.00000000E+00  0.00000000E+00  0.00000000E+00  0.00000000E+00
  0.00000000E+00  0.00000000E+00  0.00000000E+00  0.00000000E+00  0.00000000E+00
  0.00000000E+00  0.00000000E+00  0.00000000E+00  0.00000000E+00  0.00000000E+00
  0.00000000E+00  0.00000000E+00  0.00000000E+00  0.00000000E+00  0.00000000E+00
  0.00000000E+00  0.00000000E+00  0.00000000E+00  0.00000000E+00  0.00000000E+00
  0.00000000E+00  0.00000000E+00  0.00000000E+00  0.00000000E+00  0.00000000E+00
  0.00000000E+00  0.00000000E+00  0.00000000E+00  0.00000000E+00  0.00000000E+00
  0.00000000E+00  0.00000000E+00  0.00000000E+00  0.00000000E+00  0.00000000E+00
  0.00000000E+00  0.00000000E+00  0.00000000E+00  0.00000000E+00  0.00000000E+00
  0.00000000E+00  0.00000000E+00  0.00000000E+00  0.00000000E+00  0.00000000E+00
  0.00000000E+00  0.00000000E+00  0.00000000E+00  0.00000000E+00  0.00000000E+00
  0.00000000E+00  0.00000000E+00  0.00000000E+00  0.00000000E+00  0.00000000E+00
  0.00000000E+00  0.00000000E+00  0.00000000E+00  0.00000000E+00  0.00000000E+00
  0.00000000E+00  0.00000000E+00  0.00000000E+00  0.00000000E+00  0.00000000E+00
  0.00000000E+00  0.00000000E+00  0.00000000E+00  0.00000000E+00  0.00000000E+00
  0.00000000E+00  0.00000000E+00  0.00000000E+00  0.00000000E+00  0.00000000E+00
  0.00000000E+00  0.00000000E+00  0.00000000E+00  0.00000000E+00  0.00000000E+00
  0.00000000E+00  0.00000000E+00  0.00000000E+00  0.00000000E+00  0.00000000E+00
  0.00000000E+00  0.00000000E+00  0.00000000E+00  0.00000000E+00  0.00000000E+00
  0.00000000E+00  0.00000000E+00  0.00000000E+00  0.00000000E+00  0.00000000E+00
  0.00000000E+00  0.00000000E+00  0.00000000E+00  0.00000000E+00  0.00000000E+00
  0.00000000E+00  0.00000000E+00  0.00000000E+00  0.00000000E+00  0.00000000E+00
  0.00000000E+00  0.00000000E+00  0.00000000E+00  0.00000000E+00  0.00000000E+00
  0.00000000E+00  0.00000000E+00  0.00000000E+00  0.00000000E+00  0.00000000E+00
  0.00000000E+00  0.00000000E+00  0.00000000E+00  0.00000000E+00  0.00000000E+00
  0.00000000E+00  0.00000000E+00  0.00000000E+00  0.00000000E+00  0.00000000E+00
  0.00000000E+00  0.00000000E+00  0.00000000E+00  0.00000000E+00  0.00000000E+00
  0.00000000E+00  0.00000000E+00  0.00000000E+00  0.00000000E+00  0.00000000E+00
  0.00000000E+00  0.00000000E+00  0.00000000E+00  0.00000000E+00  0.00000000E+00
  0.00000000E+00  0.00000000E+00  0.00000000E+00  0.00000000E+00  0.00000000E+00
  0.00000000E+00  0.00000000E+00  0.00000000E+00  0.00000000E+00  0.00000000E+00
  0.00000000E+00  0.00000000E+00  0.00000000E+00  0.00000000E+00  0.00000000E+00
  0.00000000E+00  0.00000000E+00  0.00000000E+00  0.00000000E+00  0.00000000E+00
  0.00000000E+00  0.00000000E+00  0.00000000E+00  0.00000000E+00  0.00000000E+00
  0.00000000E+00  0.00000000E+00  0.00000000E+00  0.00000000E+00  0.00000000E+00
  0.00000000E+00  0.00000000E+00  0.00000000E+00  0.00000000E+00  0.00000000E+00
  0.00000000E+00  0.00000000E+00  0.00000000E+00  0.00000000E+00  0.00000000E+00
  0.00000000E+00  0.00000000E+00  0.00000000E+00  0.00000000E+00  0.00000000E+00
  0.00000000E+00  0.00000000E+00  0.00000000E+00  0.00000000E+00  0.00000000E+00
  0.00000000E+00  0.00000000E+00  0.00000000E+00  0.00000000E+00  0.00000000E+00
  0.00000000E+00  0.00000000E+00  0.00000000E+00  0.00000000E+00  0.00000000E+00
  0.00000000E+00  0.00000000E+00  0.00000000E+00  0.00000000E+00  0.00000000E+00
  0.00000000E+00  0.00000000E+00  0.00000000E+00  0.00000000E+00  0.00000000E+00
  0.00000000E+00  0.00000000E+00  0.00000000E+00  0.00000000E+00  0.00000000E+00
  0.00000000E+00  0.00000000E+00  0.00000000E+00  0.00000000E+00  0.00000000E+00
  0.00000000E+00  0.00000000E+00  0.00000000E+00  0.00000000E+00  0.00000000E+00
  0.00000000E+00  0.00000000E+00  0.00000000E+00  0.00000000E+00  0.00000000E+00
  0.00000000E+00  0.00000000E+00  0.00000000E+00  0.00000000E+00  0.00000000E+00
  0.00000000E+00  0.00000000E+00  0.00000000E+00  0.00000000E+00  0.00000000E+00
  0.00000000E+00  0.00000000E+00  0.00000000E+00  0.00000000E+00  0.00000000E+00
  0.00000000E+00  0.00000000E+00  0.00000000E+00  0.00000000E+00  0.00000000E+00
  0.00000000E+00  0.00000000E+00  0.00000000E+00  0.00000000E+00  0.00000000E+00
  0.00000000E+00  0.00000000E+00  0.00000000E+00  0.00000000E+00  0.00000000E+00
  0.00000000E+00  0.00000000E+00  0.00000000E+00  0.00000000E+00  0.00000000E+00
  0.00000000E+00  0.00000000E+00  0.00000000E+00  0.00000000E+00  0.00000000E+00
  0.00000000E+00  0.00000000E+00  0.00000000E+00  0.00000000E+00  0.00000000E+00
  0.00000000E+00  0.00000000E+00  0.00000000E+00  0.00000000E+00  0.00000000E+00
  0.00000000E+00  0.00000000E+00  0.00000000E+00  0.00000000E+00  0.00000000E+00
  0.00000000E+00  0.00000000E+00  0.00000000E+00  0.00000000E+00  0.00000000E+00
  0.00000000E+00  0.00000000E+00  0.00000000E+00  0.00000000E+00  0.00000000E+00
  0.00000000E+00  0.00000000E+00  0.00000000E+00  0.00000000E+00  0.00000000E+00
  0.00000000E+00  0.00000000E+00  0.00000000E+00  0.00000000E+00  0.00000000E+00
  0.00000000E+00  0.00000000E+00  0.00000000E+00  0.00000000E+00  0.00000000E+00
  0.00000000E+00  0.00000000E+00  0.00000000E+00  0.00000000E+00  0.00000000E+00
  0.00000000E+00  0.00000000E+00  0.00000000E+00  0.00000000E+00  0.00000000E+00
  0.00000000E+00  0.00000000E+00  0.00000000E+00  0.00000000E+00  0.00000000E+00
  0.00000000E+00  0.00000000E+00  0.00000000E+00  0.00000000E+00  0.00000000E+00
  0.00000000E+00  0.00000000E+00  0.00000000E+00  0.00000000E+00  0.00000000E+00
  0.00000000E+00  0.00000000E+00  0.00000000E+00  0.00000000E+00  0.00000000E+00
  0.00000000E+00  0.00000000E+00  0.00000000E+00  0.00000000E+00  0.00000000E+00
  0.00000000E+00  0.00000000E+00  0.00000000E+00  0.00000000E+00  0.00000000E+00
  0.00000000E+00  0.00000000E+00  0.00000000E+00  0.00000000E+00  0.00000000E+00
  0.00000000E+00  0.00000000E+00  0.00000000E+00  0.00000000E+00  0.00000000E+00
  0.00000000E+00  0.00000000E+00  0.00000000E+00  0.00000000E+00  0.00000000E+00
  0.00000000E+00  0.00000000E+00  0.00000000E+00  0.00000000E+00  0.00000000E+00
  0.00000000E+00  0.00000000E+00  0.00000000E+00  0.00000000E+00  0.00000000E+00
  0.00000000E+00  0.00000000E+00  0.00000000E+00  0.00000000E+00  0.00000000E+00
  0.00000000E+00  0.00000000E+00  0.00000000E+00  0.00000000E+00  0.00000000E+00
  0.00000000E+00  0.00000000E+00  0.00000000E+00  0.00000000E+00  0.00000000E+00
  0.00000000E+00  0.00000000E+00  0.00000000E+00  0.00000000E+00  0.00000000E+00
  0.00000000E+00  0.00000000E+00  0.00000000E+00  0.00000000E+00  0.00000000E+00
  0.00000000E+00  0.00000000E+00  0.00000000E+00  0.00000000E+00  0.00000000E+00
  0.00000000E+00  0.00000000E+00  0.00000000E+00  0.00000000E+00  0.00000000E+00
  0.00000000E+00  0.00000000E+00  0.00000000E+00  0.00000000E+00  0.00000000E+00
  0.00000000E+00  0.00000000E+00  0.00000000E+00  0.00000000E+00  0.00000000E+00
  0.00000000E+00  0.00000000E+00  0.00000000E+00  0.00000000E+00  0.00000000E+00
  0.00000000E+00  0.00000000E+00  0.00000000E+00  0.00000000E+00  0.00000000E+00
  0.00000000E+00  0.00000000E+00  0.00000000E+00  0.00000000E+00  0.00000000E+00
  0.00000000E+00  0.00000000E+00  0.00000000E+00  0.00000000E+00  0.00000000E+00
  0.00000000E+00  0.00000000E+00  0.00000000E+00  0.00000000E+00  0.00000000E+00
  0.00000000E+00  0.00000000E+00  0.00000000E+00  0.00000000E+00  0.00000000E+00
  0.00000000E+00  0.00000000E+00  0.00000000E+00  0.00000000E+00  0.00000000E+00
  0.00000000E+00  0.00000000E+00  0.00000000E+00  0.00000000E+00  0.00000000E+00
  0.00000000E+00  0.00000000E+00  0.00000000E+00  0.00000000E+00  0.00000000E+00
  0.00000000E+00  0.00000000E+00  0.00000000E+00  0.00000000E+00  0.00000000E+00
  0.00000000E+00  0.00000000E+00  0.00000000E+00  0.00000000E+00  0.00000000E+00
  0.00000000E+00  0.00000000E+00  0.00000000E+00  0.00000000E+00  0.00000000E+00
  0.00000000E+00  0.00000000E+00  0.00000000E+00  0.00000000E+00  0.00000000E+00
  0.00000000E+00  0.00000000E+00  0.00000000E+00  0.00000000E+00  0.00000000E+00
  0.00000000E+00  0.00000000E+00  0.00000000E+00  0.00000000E+00  0.00000000E+00
  0.00000000E+00  0.00000000E+00  0.00000000E+00  0.00000000E+00  0.00000000E+00
  0.00000000E+00  0.00000000E+00  0.00000000E+00  0.00000000E+00  0.00000000E+00
  0.00000000E+00  0.00000000E+00  0.00000000E+00  0.00000000E+00  0.00000000E+00
  0.00000000E+00  0.00000000E+00  0.00000000E+00  0.00000000E+00  0.00000000E+00
  0.00000000E+00  0.00000000E+00  0.00000000E+00  0.00000000E+00  0.00000000E+00
  0.00000000E+00  0.00000000E+00  0.00000000E+00  0.00000000E+00  0.00000000E+00
  0.00000000E+00  0.00000000E+00  0.00000000E+00  0.00000000E+00  0.00000000E+00
  0.00000000E+00  0.00000000E+00  0.00000000E+00  0.00000000E+00  0.00000000E+00
  0.00000000E+00  0.00000000E+00  0.00000000E+00  0.00000000E+00  0.00000000E+00
  0.00000000E+00  0.00000000E+00  0.00000000E+00  0.00000000E+00  0.00000000E+00
  0.00000000E+00  0.00000000E+00  0.00000000E+00  0.00000000E+00  0.00000000E+00
  0.00000000E+00  0.00000000E+00  0.00000000E+00  0.00000000E+00  0.00000000E+00
  0.00000000E+00  0.00000000E+00  0.00000000E+00  0.00000000E+00  0.00000000E+00
  0.00000000E+00  0.00000000E+00  0.00000000E+00  0.00000000E+00  0.00000000E+00
  0.00000000E+00  0.00000000E+00  0.00000000E+00  0.00000000E+00  0.00000000E+00
  0.00000000E+00  0.00000000E+00  0.00000000E+00  0.00000000E+00  0.00000000E+00
  0.00000000E+00  0.00000000E+00  0.00000000E+00  0.00000000E+00  0.00000000E+00
  0.00000000E+00  0.00000000E+00  0.00000000E+00  0.00000000E+00  0.00000000E+00
  0.00000000E+00  0.00000000E+00  0.00000000E+00  0.00000000E+00  0.00000000E+00
  0.00000000E+00  0.00000000E+00  0.00000000E+00  0.00000000E+00  0.00000000E+00
  0.00000000E+00  0.00000000E+00  0.00000000E+00  0.00000000E+00  0.00000000E+00
  0.00000000E+00  0.00000000E+00  0.00000000E+00  0.00000000E+00  0.00000000E+00
  0.00000000E+00  0.00000000E+00  0.00000000E+00  0.00000000E+00  0.00000000E+00
  0.00000000E+00  0.00000000E+00  0.00000000E+00  0.00000000E+00  0.00000000E+00
  0.00000000E+00  0.00000000E+00  0.00000000E+00  0.00000000E+00  0.00000000E+00
  0.00000000E+00  0.00000000E+00  0.00000000E+00  0.00000000E+00  0.00000000E+00
  0.00000000E+00  0.00000000E+00  0.00000000E+00  0.00000000E+00  0.00000000E+00
  0.00000000E+00  0.00000000E+00  0.00000000E+00  0.00000000E+00  0.00000000E+00
  0.00000000E+00  0.00000000E+00  0.00000000E+00  0.00000000E+00  0.00000000E+00
  0.00000000E+00  0.00000000E+00  0.00000000E+00  0.00000000E+00  0.00000000E+00
  0.00000000E+00  0.00000000E+00  0.00000000E+00  0.00000000E+00  0.00000000E+00
  0.00000000E+00  0.00000000E+00  0.00000000E+00  0.00000000E+00  0.00000000E+00
  0.00000000E+00  0.00000000E+00  0.00000000E+00  0.00000000E+00  0.00000000E+00
  0.00000000E+00  0.00000000E+00  0.00000000E+00  0.00000000E+00  0.00000000E+00
  0.00000000E+00  0.00000000E+00  0.00000000E+00  0.00000000E+00  0.00000000E+00
  0.00000000E+00  0.00000000E+00  0.00000000E+00  0.00000000E+00  0.00000000E+00
  0.00000000E+00  0.00000000E+00  0.00000000E+00  0.00000000E+00  0.00000000E+00
  0.00000000E+00  0.00000000E+00  0.00000000E+00  0.00000000E+00  0.00000000E+00
  0.00000000E+00  0.00000000E+00  0.00000000E+00  0.00000000E+00  0.00000000E+00
  0.00000000E+00  0.00000000E+00  0.00000000E+00  0.00000000E+00  0.00000000E+00
  0.00000000E+00  0.00000000E+00  0.00000000E+00  0.00000000E+00  0.00000000E+00
  0.00000000E+00  0.00000000E+00  0.00000000E+00  0.00000000E+00  0.00000000E+00
  0.00000000E+00  0.00000000E+00  0.00000000E+00  0.00000000E+00  0.00000000E+00
  0.00000000E+00  0.00000000E+00  0.00000000E+00  0.00000000E+00  0.00000000E+00
  0.00000000E+00  0.00000000E+00  0.00000000E+00  0.00000000E+00  0.00000000E+00
  0.00000000E+00  0.00000000E+00  0.00000000E+00  0.00000000E+00  0.00000000E+00
  0.00000000E+00  0.00000000E+00  0.00000000E+00  0.00000000E+00  0.00000000E+00
  0.00000000E+00  0.00000000E+00  0.00000000E+00  0.00000000E+00  0.00000000E+00
  0.00000000E+00  0.00000000E+00  0.00000000E+00  0.00000000E+00  0.00000000E+00
  0.00000000E+00  0.00000000E+00  0.00000000E+00  0.00000000E+00  0.00000000E+00
  0.00000000E+00  0.00000000E+00  0.00000000E+00  0.00000000E+00  0.00000000E+00
  0.00000000E+00  0.00000000E+00  0.00000000E+00  0.00000000E+00  0.00000000E+00
  0.00000000E+00  0.00000000E+00  0.00000000E+00  0.00000000E+00  0.00000000E+00
  0.00000000E+00  0.00000000E+00  0.00000000E+00  0.00000000E+00  0.00000000E+00
  0.00000000E+00  0.00000000E+00  0.00000000E+00  0.00000000E+00  0.00000000E+00
  0.00000000E+00  0.00000000E+00  0.00000000E+00  0.00000000E+00  0.00000000E+00
  0.00000000E+00  0.00000000E+00  0.00000000E+00  0.00000000E+00  0.00000000E+00
  0.00000000E+00  0.00000000E+00  0.00000000E+00  0.00000000E+00  0.00000000E+00
  0.00000000E+00  0.00000000E+00  0.00000000E+00  0.00000000E+00  0.00000000E+00
  0.00000000E+00  0.00000000E+00  0.00000000E+00  0.00000000E+00  0.00000000E+00
  0.00000000E+00  0.00000000E+00  0.00000000E+00  0.00000000E+00  0.00000000E+00
  0.00000000E+00  0.00000000E+00  0.00000000E+00  0.00000000E+00  0.00000000E+00
  0.00000000E+00  0.00000000E+00  0.00000000E+00  0.00000000E+00  0.00000000E+00
  0.00000000E+00  0.00000000E+00  0.00000000E+00  0.00000000E+00  0.00000000E+00
  0.00000000E+00  0.00000000E+00  0.00000000E+00  0.00000000E+00  0.00000000E+00
  0.00000000E+00  0.00000000E+00  0.00000000E+00  0.00000000E+00  0.00000000E+00
  0.00000000E+00  0.00000000E+00  0.00000000E+00  0.00000000E+00  0.00000000E+00
  0.00000000E+00  0.00000000E+00  0.00000000E+00  0.00000000E+00  0.00000000E+00
  0.00000000E+00  0.00000000E+00  0.00000000E+00  0.00000000E+00  0.00000000E+00
  0.00000000E+00  0.00000000E+00  0.00000000E+00  0.00000000E+00  0.00000000E+00
  0.00000000E+00  0.00000000E+00  0.00000000E+00  0.00000000E+00  0.00000000E+00
  0.00000000E+00  0.00000000E+00  0.00000000E+00  0.00000000E+00  0.00000000E+00
  0.00000000E+00  0.00000000E+00  0.00000000E+00  0.00000000E+00  0.00000000E+00
  0.00000000E+00  0.00000000E+00  0.00000000E+00  0.00000000E+00  0.00000000E+00
  0.00000000E+00  0.00000000E+00  0.00000000E+00  0.00000000E+00  0.00000000E+00
  0.00000000E+00  0.00000000E+00  0.00000000E+00  0.00000000E+00  0.00000000E+00
  0.00000000E+00  0.00000000E+00  0.00000000E+00  0.00000000E+00  0.00000000E+00
  0.00000000E+00  0.00000000E+00  0.00000000E+00  0.00000000E+00  0.00000000E+00
  0.00000000E+00  0.00000000E+00  0.00000000E+00  0.00000000E+00  0.00000000E+00
  0.00000000E+00  0.00000000E+00  0.00000000E+00  0.00000000E+00  0.00000000E+00
  0.00000000E+00  0.00000000E+00  0.00000000E+00  0.00000000E+00  0.00000000E+00
  0.00000000E+00  0.00000000E+00  0.00000000E+00  0.00000000E+00  0.00000000E+00
  0.00000000E+00  0.00000000E+00  0.00000000E+00  0.00000000E+00  0.00000000E+00
  0.00000000E+00  0.00000000E+00  0.00000000E+00  0.00000000E+00  0.00000000E+00
  0.00000000E+00  0.00000000E+00  0.00000000E+00  0.00000000E+00  0.00000000E+00
  0.00000000E+00  0.00000000E+00  0.00000000E+00  0.00000000E+00  0.00000000E+00
  0.00000000E+00  0.00000000E+00  0.00000000E+00  0.00000000E+00  0.00000000E+00
  0.00000000E+00  0.00000000E+00  0.00000000E+00  0.00000000E+00  0.00000000E+00
  0.00000000E+00  0.00000000E+00  0.00000000E+00  0.00000000E+00  0.00000000E+00
  0.00000000E+00  0.00000000E+00  0.00000000E+00  0.00000000E+00  0.00000000E+00
  0.00000000E+00  0.00000000E+00  0.00000000E+00  0.00000000E+00  0.00000000E+00
  0.00000000E+00  0.00000000E+00  0.00000000E+00  0.00000000E+00  0.00000000E+00
  0.00000000E+00  0.00000000E+00  0.00000000E+00  0.00000000E+00  0.00000000E+00
  0.00000000E+00  0.00000000E+00  0.00000000E+00  0.00000000E+00  0.00000000E+00
  0.00000000E+00  0.00000000E+00  0.00000000E+00  0.00000000E+00  0.00000000E+00
  0.00000000E+00  0.00000000E+00  0.00000000E+00  0.00000000E+00  0.00000000E+00
  0.00000000E+00  0.00000000E+00  0.00000000E+00  0.00000000E+00  0.00000000E+00
  0.00000000E+00  0.00000000E+00  0.00000000E+00  0.00000000E+00  0.00000000E+00
  0.00000000E+00  0.00000000E+00  0.00000000E+00  0.00000000E+00  0.00000000E+00
  0.00000000E+00  0.00000000E+00  0.00000000E+00  0.00000000E+00  0.00000000E+00
  0.00000000E+00  0.00000000E+00  0.00000000E+00  0.00000000E+00  0.00000000E+00
  0.00000000E+00  0.00000000E+00  0.00000000E+00  0.00000000E+00  0.00000000E+00
  0.00000000E+00  0.00000000E+00  0.00000000E+00  0.00000000E+00  0.00000000E+00
  0.00000000E+00  0.00000000E+00  0.00000000E+00  0.00000000E+00  0.00000000E+00
  0.00000000E+00  0.00000000E+00  0.00000000E+00  0.00000000E+00  0.00000000E+00
  0.00000000E+00  0.00000000E+00  0.00000000E+00  0.00000000E+00  0.00000000E+00
  0.00000000E+00  0.00000000E+00  0.00000000E+00  0.00000000E+00  0.00000000E+00
  0.00000000E+00  0.00000000E+00  0.00000000E+00  0.00000000E+00  0.00000000E+00
  0.00000000E+00  0.00000000E+00  0.00000000E+00  0.00000000E+00  0.00000000E+00
  0.00000000E+00  0.00000000E+00  0.00000000E+00  0.00000000E+00  0.00000000E+00
  0.00000000E+00  0.00000000E+00  0.00000000E+00  0.00000000E+00  0.00000000E+00
  0.00000000E+00  0.00000000E+00  0.00000000E+00  0.00000000E+00  0.00000000E+00
  0.00000000E+00  0.00000000E+00  0.00000000E+00  0.00000000E+00  0.00000000E+00
  0.00000000E+00  0.00000000E+00  0.00000000E+00  0.00000000E+00  0.00000000E+00
  0.00000000E+00  0.00000000E+00  0.00000000E+00  0.00000000E+00  0.00000000E+00
  0.00000000E+00  0.00000000E+00  0.00000000E+00  0.00000000E+00  0.00000000E+00
  0.00000000E+00  0.00000000E+00  0.00000000E+00  0.00000000E+00  0.00000000E+00
  0.00000000E+00  0.00000000E+00  0.00000000E+00  0.00000000E+00  0.00000000E+00
  0.00000000E+00  0.00000000E+00  0.00000000E+00  0.00000000E+00  0.00000000E+00
  0.00000000E+00  0.00000000E+00  0.00000000E+00  0.00000000E+00  0.00000000E+00
  0.00000000E+00  0.00000000E+00  0.00000000E+00  0.00000000E+00  0.00000000E+00
  0.00000000E+00  0.00000000E+00  0.00000000E+00  0.00000000E+00  0.00000000E+00
  0.00000000E+00  0.00000000E+00  0.00000000E+00  0.00000000E+00  0.00000000E+00
  0.00000000E+00  0.00000000E+00  0.00000000E+00  0.00000000E+00  0.00000000E+00
  0.00000000E+00  0.00000000E+00  0.00000000E+00  0.00000000E+00  0.00000000E+00
  0.00000000E+00  0.00000000E+00  0.00000000E+00  0.00000000E+00  0.00000000E+00
  0.00000000E+00  0.00000000E+00  0.00000000E+00  0.00000000E+00  0.00000000E+00
  0.00000000E+00  0.00000000E+00  0.00000000E+00  0.00000000E+00  0.00000000E+00
  0.00000000E+00  0.00000000E+00  0.00000000E+00  0.00000000E+00  0.00000000E+00
  0.00000000E+00  0.00000000E+00  0.00000000E+00  0.00000000E+00  0.00000000E+00
  0.00000000E+00  0.00000000E+00  0.00000000E+00  0.00000000E+00  0.00000000E+00
  0.00000000E+00  0.00000000E+00  0.00000000E+00  0.00000000E+00  0.00000000E+00
  0.00000000E+00  0.00000000E+00  0.00000000E+00  0.00000000E+00  0.00000000E+00
  0.00000000E+00  0.00000000E+00  0.00000000E+00  0.00000000E+00  0.00000000E+00
  0.00000000E+00  0.00000000E+00  0.00000000E+00  0.00000000E+00  0.00000000E+00
  0.00000000E+00  0.00000000E+00  0.00000000E+00  0.00000000E+00  0.00000000E+00
  0.00000000E+00  0.00000000E+00  0.00000000E+00  0.00000000E+00  0.00000000E+00
  0.00000000E+00  0.00000000E+00  0.00000000E+00  0.00000000E+00  0.00000000E+00
  0.00000000E+00  0.00000000E+00  0.00000000E+00  0.00000000E+00  0.00000000E+00
  0.00000000E+00  0.00000000E+00  0.00000000E+00  0.00000000E+00  0.00000000E+00
  0.00000000E+00  0.00000000E+00  0.00000000E+00  0.00000000E+00  0.00000000E+00
  0.00000000E+00  0.00000000E+00  0.00000000E+00  0.00000000E+00  0.00000000E+00
  0.00000000E+00  0.00000000E+00  0.00000000E+00  0.00000000E+00  0.00000000E+00
  0.00000000E+00  0.00000000E+00  0.00000000E+00  0.00000000E+00  0.00000000E+00
  0.00000000E+00  0.00000000E+00  0.00000000E+00  0.00000000E+00  0.00000000E+00
  0.00000000E+00  0.00000000E+00  0.00000000E+00  0.00000000E+00  0.00000000E+00
  0.00000000E+00  0.00000000E+00  0.00000000E+00  0.00000000E+00  0.00000000E+00
  0.00000000E+00  0.00000000E+00  0.00000000E+00  0.00000000E+00  0.00000000E+00
  0.00000000E+00  0.00000000E+00  0.00000000E+00  0.00000000E+00  0.00000000E+00
  0.00000000E+00  0.00000000E+00  0.00000000E+00  0.00000000E+00  0.00000000E+00
  0.00000000E+00  0.00000000E+00  0.00000000E+00  0.00000000E+00  0.00000000E+00
  0.00000000E+00  0.00000000E+00  0.00000000E+00  0.00000000E+00  0.00000000E+00
  0.00000000E+00  0.00000000E+00  0.00000000E+00  0.00000000E+00  0.00000000E+00
  0.00000000E+00  0.00000000E+00  0.00000000E+00  0.00000000E+00  0.00000000E+00
  0.00000000E+00  0.00000000E+00  0.00000000E+00  0.00000000E+00  0.00000000E+00
  0.00000000E+00  0.00000000E+00  0.00000000E+00  0.00000000E+00  0.00000000E+00
  0.00000000E+00  0.00000000E+00  0.00000000E+00  0.00000000E+00  0.00000000E+00
  0.00000000E+00  0.00000000E+00  0.00000000E+00  0.00000000E+00  0.00000000E+00
  0.00000000E+00  0.00000000E+00  0.00000000E+00  0.00000000E+00  0.00000000E+00
  0.00000000E+00  0.00000000E+00  0.00000000E+00  0.00000000E+00  0.00000000E+00
  0.00000000E+00  0.00000000E+00  0.00000000E+00  0.00000000E+00  0.00000000E+00
  0.00000000E+00  0.00000000E+00  0.00000000E+00  0.00000000E+00  0.00000000E+00
  0.00000000E+00  0.00000000E+00  0.00000000E+00  0.00000000E+00  0.00000000E+00
  0.00000000E+00  0.00000000E+00  0.00000000E+00  0.00000000E+00  0.00000000E+00
  0.00000000E+00  0.00000000E+00  0.00000000E+00  0.00000000E+00  0.00000000E+00
  0.00000000E+00  0.00000000E+00  0.00000000E+00  0.00000000E+00  0.00000000E+00
  0.00000000E+00  0.00000000E+00  0.00000000E+00  0.00000000E+00  0.00000000E+00
  0.00000000E+00  0.00000000E+00  0.00000000E+00  0.00000000E+00  0.00000000E+00
  0.00000000E+00  0.00000000E+00  0.00000000E+00  0.00000000E+00  0.00000000E+00
  0.00000000E+00  0.00000000E+00  0.00000000E+00  0.00000000E+00  0.00000000E+00
  0.00000000E+00  0.00000000E+00  0.00000000E+00  0.00000000E+00  0.00000000E+00
  0.00000000E+00  0.00000000E+00  0.00000000E+00  0.00000000E+00  0.00000000E+00
  0.00000000E+00  0.00000000E+00  0.00000000E+00  0.00000000E+00  0.00000000E+00
  0.00000000E+00  0.00000000E+00  0.00000000E+00  0.00000000E+00  0.00000000E+00
  0.00000000E+00  0.00000000E+00  0.00000000E+00  0.00000000E+00  0.00000000E+00
  0.00000000E+00  0.00000000E+00  0.00000000E+00  0.00000000E+00  0.00000000E+00
  0.00000000E+00  0.00000000E+00  0.00000000E+00  0.00000000E+00  0.00000000E+00
  0.00000000E+00  0.00000000E+00  0.00000000E+00  0.00000000E+00  0.00000000E+00
  0.00000000E+00  0.00000000E+00  0.00000000E+00  0.00000000E+00  0.00000000E+00
  0.00000000E+00  0.00000000E+00  0.00000000E+00  0.00000000E+00  0.00000000E+00
  0.00000000E+00  0.00000000E+00  0.00000000E+00  0.00000000E+00  0.00000000E+00
  0.00000000E+00  0.00000000E+00  0.00000000E+00  0.00000000E+00  0.00000000E+00
  0.00000000E+00  0.00000000E+00  0.00000000E+00  0.00000000E+00  0.00000000E+00
  0.00000000E+00  0.00000000E+00  0.00000000E+00  0.00000000E+00  0.00000000E+00
  0.00000000E+00  0.00000000E+00  0.00000000E+00  0.00000000E+00  0.00000000E+00
  0.00000000E+00  0.00000000E+00  0.00000000E+00  0.00000000E+00  0.00000000E+00
  0.00000000E+00  0.00000000E+00  0.00000000E+00  0.00000000E+00  0.00000000E+00
  0.00000000E+00  0.00000000E+00  0.00000000E+00  0.00000000E+00  0.00000000E+00
  0.00000000E+00  0.00000000E+00  0.00000000E+00  0.00000000E+00  0.00000000E+00
  0.00000000E+00  0.00000000E+00  0.00000000E+00  0.00000000E+00  0.00000000E+00
  0.00000000E+00  0.00000000E+00  0.00000000E+00  0.00000000E+00  0.00000000E+00
  0.00000000E+00  0.00000000E+00  0.00000000E+00  0.00000000E+00  0.00000000E+00
  0.00000000E+00  0.00000000E+00  0.00000000E+00  0.00000000E+00  0.00000000E+00
  0.00000000E+00  0.00000000E+00  0.00000000E+00  0.00000000E+00  0.00000000E+00
  0.00000000E+00  0.00000000E+00  0.00000000E+00  0.00000000E+00  0.00000000E+00
  0.00000000E+00  0.00000000E+00  0.00000000E+00  0.00000000E+00  0.00000000E+00
  0.00000000E+00  0.00000000E+00  0.00000000E+00  0.00000000E+00  0.00000000E+00
  0.00000000E+00  0.00000000E+00  0.00000000E+00  0.00000000E+00  0.00000000E+00
  0.00000000E+00  0.00000000E+00  0.00000000E+00  0.00000000E+00  0.00000000E+00
  0.00000000E+00  0.00000000E+00  0.00000000E+00  0.00000000E+00  0.00000000E+00
  0.00000000E+00  0.00000000E+00  0.00000000E+00  0.00000000E+00  0.00000000E+00
  0.00000000E+00  0.00000000E+00  0.00000000E+00  0.00000000E+00  0.00000000E+00
  0.00000000E+00  0.00000000E+00  0.00000000E+00  0.00000000E+00  0.00000000E+00
  0.00000000E+00  0.00000000E+00  0.00000000E+00  0.00000000E+00  0.00000000E+00
  0.00000000E+00  0.00000000E+00  0.00000000E+00  0.00000000E+00  0.00000000E+00
  0.00000000E+00  0.00000000E+00  0.00000000E+00  0.00000000E+00  0.00000000E+00
  0.00000000E+00  0.00000000E+00  0.00000000E+00  0.00000000E+00  0.00000000E+00
  0.00000000E+00  0.00000000E+00  0.00000000E+00  0.00000000E+00  0.00000000E+00
  0.00000000E+00  0.00000000E+00  0.00000000E+00  0.00000000E+00  0.00000000E+00
  0.00000000E+00  0.00000000E+00  0.00000000E+00  0.00000000E+00  0.00000000E+00
  0.00000000E+00  0.00000000E+00  0.00000000E+00  0.00000000E+00  0.00000000E+00
  0.00000000E+00  0.00000000E+00  0.00000000E+00  0.00000000E+00  0.00000000E+00
  0.00000000E+00  0.00000000E+00  0.00000000E+00  0.00000000E+00  0.00000000E+00
  0.00000000E+00  0.00000000E+00  0.00000000E+00  0.00000000E+00  0.00000000E+00
  0.00000000E+00  0.00000000E+00  0.00000000E+00  0.00000000E+00  0.00000000E+00
  0.00000000E+00  0.00000000E+00  0.00000000E+00  0.00000000E+00  0.00000000E+00
  0.00000000E+00  0.00000000E+00  0.00000000E+00  0.00000000E+00  0.00000000E+00
  0.00000000E+00  0.00000000E+00  0.00000000E+00  0.00000000E+00  0.00000000E+00
  0.00000000E+00  0.00000000E+00  0.00000000E+00  0.00000000E+00  0.00000000E+00
  0.00000000E+00  0.00000000E+00  0.00000000E+00  0.00000000E+00  0.00000000E+00
  0.00000000E+00  0.00000000E+00  0.00000000E+00  0.00000000E+00  0.00000000E+00
  0.00000000E+00  0.00000000E+00  0.00000000E+00  0.00000000E+00  0.00000000E+00
  0.00000000E+00  0.00000000E+00  0.00000000E+00  0.00000000E+00  0.00000000E+00
  0.00000000E+00  0.00000000E+00  0.00000000E+00  0.00000000E+00  0.00000000E+00
  0.00000000E+00  0.00000000E+00  0.00000000E+00  0.00000000E+00  0.00000000E+00
  0.00000000E+00  0.00000000E+00  0.00000000E+00  0.00000000E+00  0.00000000E+00
  0.00000000E+00  0.00000000E+00  0.00000000E+00  0.00000000E+00  0.00000000E+00
  0.00000000E+00  0.00000000E+00  0.00000000E+00  0.00000000E+00  0.00000000E+00
  0.00000000E+00  0.00000000E+00  0.00000000E+00  0.00000000E+00  0.00000000E+00
  0.00000000E+00  0.00000000E+00  0.00000000E+00  0.00000000E+00  0.00000000E+00
  0.00000000E+00  0.00000000E+00  0.00000000E+00  0.00000000E+00  0.00000000E+00
  0.00000000E+00  0.00000000E+00  0.00000000E+00  0.00000000E+00  0.00000000E+00
  0.00000000E+00  0.00000000E+00  0.00000000E+00  0.00000000E+00  0.00000000E+00
  0.00000000E+00  0.00000000E+00  0.00000000E+00  0.00000000E+00  0.00000000E+00
  0.00000000E+00  0.00000000E+00  0.00000000E+00  0.00000000E+00  0.00000000E+00
  0.00000000E+00  0.00000000E+00  0.00000000E+00  0.00000000E+00  0.00000000E+00
  0.00000000E+00  0.00000000E+00  0.00000000E+00  0.00000000E+00  0.00000000E+00
  0.00000000E+00  0.00000000E+00  0.00000000E+00  0.00000000E+00  0.00000000E+00
  0.00000000E+00  0.00000000E+00  0.00000000E+00  0.00000000E+00  0.00000000E+00
  0.00000000E+00  0.00000000E+00  0.00000000E+00  0.00000000E+00  0.00000000E+00
  0.00000000E+00  0.00000000E+00  0.00000000E+00  0.00000000E+00  0.00000000E+00
  0.00000000E+00  0.00000000E+00  0.00000000E+00  0.00000000E+00  0.00000000E+00
  0.00000000E+00  0.00000000E+00  0.00000000E+00  0.00000000E+00  0.00000000E+00
  0.00000000E+00  0.00000000E+00  0.00000000E+00  0.00000000E+00  0.00000000E+00
  0.00000000E+00  0.00000000E+00  0.00000000E+00  0.00000000E+00  0.00000000E+00
  0.00000000E+00  0.00000000E+00  0.00000000E+00  0.00000000E+00  0.00000000E+00
  0.00000000E+00  0.00000000E+00  0.00000000E+00  0.00000000E+00  0.00000000E+00
  0.00000000E+00  0.00000000E+00  0.00000000E+00  0.00000000E+00  0.00000000E+00
  0.00000000E+00  0.00000000E+00  0.00000000E+00  0.00000000E+00  0.00000000E+00
  0.00000000E+00  0.00000000E+00  0.00000000E+00  0.00000000E+00  0.00000000E+00
  0.00000000E+00  0.00000000E+00  0.00000000E+00  0.00000000E+00  0.00000000E+00
  0.00000000E+00  0.00000000E+00  0.00000000E+00  0.00000000E+00  0.00000000E+00
  0.00000000E+00  0.00000000E+00  0.00000000E+00  0.00000000E+00  0.00000000E+00
  0.00000000E+00  0.00000000E+00  0.00000000E+00  0.00000000E+00  0.00000000E+00
  0.00000000E+00  0.00000000E+00  0.00000000E+00  0.00000000E+00  0.00000000E+00
  0.00000000E+00  0.00000000E+00  0.00000000E+00  0.00000000E+00  0.00000000E+00
  0.00000000E+00  0.00000000E+00  0.00000000E+00  0.00000000E+00  0.00000000E+00
  0.00000000E+00  0.00000000E+00  0.00000000E+00  0.00000000E+00  0.00000000E+00
  0.00000000E+00  0.00000000E+00  0.00000000E+00  0.00000000E+00  0.00000000E+00
  0.00000000E+00  0.00000000E+00  0.00000000E+00  0.00000000E+00  0.00000000E+00
  0.00000000E+00  0.00000000E+00  0.00000000E+00  0.00000000E+00  0.00000000E+00
  0.00000000E+00  0.00000000E+00  0.00000000E+00  0.00000000E+00  0.00000000E+00
  0.00000000E+00  0.00000000E+00  0.00000000E+00  0.00000000E+00  0.00000000E+00
  0.00000000E+00  0.00000000E+00  0.00000000E+00  0.00000000E+00  0.00000000E+00
  0.00000000E+00  0.00000000E+00  0.00000000E+00  0.00000000E+00  0.00000000E+00
  0.00000000E+00  0.00000000E+00  0.00000000E+00  0.00000000E+00  0.00000000E+00
  0.00000000E+00  0.00000000E+00  0.00000000E+00  0.00000000E+00  0.00000000E+00
  0.00000000E+00  0.00000000E+00  0.00000000E+00  0.00000000E+00  0.00000000E+00
  0.00000000E+00  0.00000000E+00  0.00000000E+00  0.00000000E+00  0.00000000E+00
  0.00000000E+00  0.00000000E+00  0.00000000E+00  0.00000000E+00  0.00000000E+00
  0.00000000E+00  0.00000000E+00  0.00000000E+00  0.00000000E+00  0.00000000E+00
  0.00000000E+00  0.00000000E+00  0.00000000E+00  0.00000000E+00  0.00000000E+00
  0.00000000E+00  0.00000000E+00  0.00000000E+00  0.00000000E+00  0.00000000E+00
  0.00000000E+00  0.00000000E+00  0.00000000E+00  0.00000000E+00  0.00000000E+00
  0.00000000E+00  0.00000000E+00  0.00000000E+00  0.00000000E+00  0.00000000E+00
  0.00000000E+00  0.00000000E+00  0.00000000E+00  0.00000000E+00  0.00000000E+00
  0.00000000E+00  0.00000000E+00  0.00000000E+00  0.00000000E+00  0.00000000E+00
Gaussian Version                           C   N=           2
ES64L-G16RevC.01        
