energy: -15.879640656223 gnorm: 0.000045661745 xtb: 6.7.1 (edcfbbe)     
Freq      RB3LYP                                                      6-31G(d)            
Number of atoms                            I               12
Info1-9                                    I   N=           9
          20          20        1002           0           0         100
           6          18        -502
Full Title                                 C   N=           6
energy: -15.879640656223 gnorm: 0.000045661745 xtb: 6.7.1 (e
dcfbbe)     
Route                                      C   N=           3
#p B3LYP/6-31G(d) Opt Freq          
Charge                                     I                0
Multiplicity                               I                1
Number of electrons                        I               42
Number of alpha electrons                  I               21
Number of beta electrons                   I               21
Number of basis functions                  I              102
Number of independent functions            I              102
Number of point charges in /Mol/           I                0
Number of translation vectors              I                0
Atomic numbers                             I   N=          12
           6           6           6           6           6           6
           1           1           1           1           1           1
Nuclear charges                            R   N=          12
  6.00000000E+00  6.00000000E+00  6.00000000E+00  6.00000000E+00  6.00000000E+00
  6.00000000E+00  1.00000000E+00  1.00000000E+00  1.00000000E+00  1.00000000E+00
  1.00000000E+00  1.00000000E+00
Current cartesian coordinates              R   N=          36
  2.12992092E+00 -1.55854760E+00  7.08235924E-07 -2.84791492E-01 -2.62383089E+00
 -2.34033102E-06 -2.41470350E+00 -1.06528336E+00  1.04217582E-06 -2.12991869E+00
  1.55855087E+00 -1.16960993E-07  2.84787815E-01  2.62383102E+00 -1.55401750E-06
  2.41470496E+00  1.06528051E+00  1.30773322E-06  3.78763297E+00 -2.77157634E+00
  5.80546362E-08 -5.06450390E-01 -4.66596640E+00 -3.23010312E-06 -4.29407589E+00
 -1.89438540E+00  6.48030355E-06 -3.78763739E+00  2.77157045E+00  2.70955106E-06
  5.06456062E-01  4.66596577E+00 -5.75040753E-06  4.29407451E+00  1.89438868E+00
  5.45158875E-06
Number of symbols in /Mol/                 I                0
Int Atom Types                             I   N=          12
           0           0           0           0           0           0
           0           0           0           0           0           0
Force Field                                I                0
Atom Types                                 C   N=          12
                                                            
                                                            
                        
MM charges                                 R   N=          12
  0.00000000E+00  0.00000000E+00  0.00000000E+00  0.00000000E+00  0.00000000E+00
  0.00000000E+00  0.00000000E+00  0.00000000E+00  0.00000000E+00  0.00000000E+00
  0.00000000E+00  0.00000000E+00
Integer atomic weights                     I   N=          12
          12          12          12          12          12          12
           1           1           1           1           1           1
Real atomic weights                        R   N=          12
  1.20000000E+01  1.20000000E+01  1.20000000E+01  1.20000000E+01  1.20000000E+01
  1.20000000E+01  1.00782504E+00  1.00782504E+00  1.00782504E+00  1.00782504E+00
  1.00782504E+00  1.00782504E+00
Atom fragment info                         I   N=          12
           0           0           0           0           0           0
           0           0           0           0           0           0
Atom residue num                           I   N=          12
           0           0           0           0           0           0
           0           0           0           0           0           0
Nuclear spins                              I   N=          12
           0           0           0           0           0           0
           1           1           1           1           1           1
Nuclear ZEff                               R   N=          12
 -3.60000000E+00 -3.60000000E+00 -3.60000000E+00 -3.60000000E+00 -3.60000000E+00
 -3.60000000E+00 -1.00000000E+00 -1.00000000E+00 -1.00000000E+00 -1.00000000E+00
 -1.00000000E+00 -1.00000000E+00
Nuclear ZNuc                               R   N=          12
  6.00000000E+00  6.00000000E+00  6.00000000E+00  6.00000000E+00  6.00000000E+00
  6.00000000E+00  1.00000000E+00  1.00000000E+00  1.00000000E+00  1.00000000E+00
  1.00000000E+00  1.00000000E+00
Nuclear QMom                               R   N=          12
  0.00000000E+00  0.00000000E+00  0.00000000E+00  0.00000000E+00  0.00000000E+00
  0.00000000E+00  0.00000000E+00  0.00000000E+00  0.00000000E+00  0.00000000E+00
  0.00000000E+00  0.00000000E+00
Nuclear GFac                               R   N=          12
  0.00000000E+00  0.00000000E+00  0.00000000E+00  0.00000000E+00  0.00000000E+00
  0.00000000E+00  2.79284600E+00  2.79284600E+00  2.79284600E+00  2.79284600E+00
  2.79284600E+00  2.79284600E+00
MicOpt                                     I   N=          12
          -1          -1          -1          -1          -1          -1
          -1          -1          -1          -1          -1          -1
Number of residues                         I                0
Number of secondary structures             I                0
Redundant internal dimensions              I   N=           4
          54          12          18          24
Redundant internal coordinate indices      I   N=         216
           1           2           0           0           1           6
           0           0           1           7           0           0
           2           3           0           0           2           8
           0           0           3           4           0           0
           3           9           0           0           4           5
           0           0           4          10           0           0
           5           6           0           0           5          11
           0           0           6          12           0           0
           2           1           6           0           2           1
           7           0           6           1           7           0
           1           2           3           0           1           2
           8           0           3           2           8           0
           2           3           4           0           2           3
           9           0           4           3           9           0
           3           4           5           0           3           4
          10           0           5           4          10           0
           4           5           6           0           4           5
          11           0           6           5          11           0
           1           6           5           0           1           6
          12           0           5           6          12           0
           6           1           2           3           6           1
           2           8           7           1           2           3
           7           1           2           8           2           1
           6           5           2           1           6          12
           7           1           6           5           7           1
           6          12           1           2           3           4
           1           2           3           9           8           2
           3           4           8           2           3           9
           2           3           4           5           2           3
           4          10           9           3           4           5
           9           3           4          10           3           4
           5           6           3           4           5          11
          10           4           5           6          10           4
           5          11           4           5           6           1
           4           5           6          12          11           5
           6           1          11           5           6          12
Redundant internal coordinates             R   N=          54
  2.63925454E+00  2.63923775E+00  2.05412949E+00  2.63924148E+00  2.05413001E+00
  2.63924392E+00  2.05413017E+00  2.63924786E+00  2.05412945E+00  2.63924738E+00
  2.05413026E+00  2.05413005E+00  2.09439207E+00  2.09439368E+00  2.09439956E+00
  2.09439764E+00  2.09439709E+00  2.09439058E+00  2.09439556E+00  2.09440151E+00
  2.09438823E+00  2.09439192E+00  2.09439401E+00  2.09439938E+00  2.09439806E+00
  2.09440147E+00  2.09438577E+00  2.09439536E+00  2.09439148E+00  2.09439846E+00
 -2.55132075E-06  3.14159242E+00  3.14159154E+00  1.19915006E-06 -1.80666978E-07
  3.14159166E+00  3.14159104E+00 -2.43254325E-06  3.32078654E-06 -3.14158826E+00
 -3.14159165E+00  2.07725608E-06 -1.35821448E-06 -3.14159255E+00  3.14159023E+00
 -9.60980495E-07 -1.37357672E-06  3.14159080E+00  3.14158981E+00 -3.31914794E-06
  2.14307504E-06 -3.14158970E+00 -3.14159003E+00  3.43626076E-06
ZRed-IntVec                                I   N=          54
           0           0           0           0           0           0
           0           0           0           0           0           0
           0           0           0           0           0           0
           0           0           0           0           0           0
           0           0           0           0           0           0
           0           0           0           0           0           0
           0           0           0           0           0           0
           0           0           0           0           0           0
           0           0           0           0           0           0
ZRed-FPVec                                 R   N=          54
  0.00000000E+00  0.00000000E+00  0.00000000E+00  0.00000000E+00  0.00000000E+00
  0.00000000E+00  0.00000000E+00  0.00000000E+00  0.00000000E+00  0.00000000E+00
  0.00000000E+00  0.00000000E+00  0.00000000E+00  0.00000000E+00  0.00000000E+00
  0.00000000E+00  0.00000000E+00  0.00000000E+00  0.00000000E+00  0.00000000E+00
  0.00000000E+00  0.00000000E+00  0.00000000E+00  0.00000000E+00  0.00000000E+00
  0.00000000E+00  0.00000000E+00  0.00000000E+00  0.00000000E+00  0.00000000E+00
  0.00000000E+00  0.00000000E+00  0.00000000E+00  0.00000000E+00  0.00000000E+00
  0.00000000E+00  0.00000000E+00  0.00000000E+00  0.00000000E+00  0.00000000E+00
  0.00000000E+00  0.00000000E+00  0.00000000E+00  0.00000000E+00  0.00000000E+00
  0.00000000E+00  0.00000000E+00  0.00000000E+00  0.00000000E+00  0.00000000E+00
  0.00000000E+00  0.00000000E+00  0.00000000E+00  0.00000000E+00
ZRed-Constraint1                           R   N=          54
  2.63925454E+00  2.63923775E+00  2.05412949E+00  2.63924148E+00  2.05413001E+00
  2.63924392E+00  2.05413017E+00  2.63924786E+00  2.05412945E+00  2.63924738E+00
  2.05413026E+00  2.05413005E+00  2.09439207E+00  2.09439368E+00  2.09439956E+00
  2.09439764E+00  2.09439709E+00  2.09439058E+00  2.09439556E+00  2.09440151E+00
  2.09438823E+00  2.09439192E+00  2.09439401E+00  2.09439938E+00  2.09439806E+00
  2.09440147E+00  2.09438577E+00  2.09439536E+00  2.09439148E+00  2.09439846E+00
 -2.55140778E-06  3.14159242E+00  3.14159154E+00  1.19915006E-06 -1.81280450E-07
  3.14159166E+00  3.14159104E+00 -2.43254325E-06  3.32078654E-06 -3.14158826E+00
 -3.14159165E+00  2.07725608E-06 -1.35821448E-06 -3.14159254E+00  3.14159023E+00
 -9.60980495E-07 -1.37357672E-06  3.14159080E+00  3.14158981E+00 -3.31911449E-06
  2.14302323E-06 -3.14158970E+00 -3.14159003E+00  3.43626076E-06
ZRed-Constraint2                           R   N=          54
  2.61653020E+00  2.61649924E+00  2.04176334E+00  2.61649667E+00  2.04176123E+00
  2.61651675E+00  2.04176316E+00  2.61648835E+00  2.04177309E+00  2.61651267E+00
  2.04177193E+00  2.04175225E+00  2.09439733E+00  2.09438076E+00  2.09440722E+00
  2.09438864E+00  2.09438853E+00  2.09440814E+00  2.09439680E+00  2.09440206E+00
  2.09438645E+00  2.09439638E+00  2.09437600E+00  2.09441293E+00  2.09440066E+00
  2.09439693E+00  2.09438772E+00  2.09439081E+00  2.09439119E+00  2.09440331E+00
 -2.48249097E-05 -3.14158062E+00  3.14157982E+00  2.40183007E-05 -8.41456579E-06
 -3.14158986E+00  3.14157225E+00 -9.19192716E-06  3.32394442E-05 -3.14153637E+00
  3.14158904E+00  1.94253311E-05 -8.41453940E-06 -3.14158378E+00  3.14156120E+00
 -1.41639280E-05 -2.48253122E-05  3.14157820E+00  3.14155054E+00 -3.17463915E-05
  3.32397514E-05 -3.14157062E+00 -3.14156979E+00  1.16577280E-05
SymInf integers                            I   N=          26
           1           1           1           1           1           0
           0           0           0           0           0           0
           0           0           0           0           0           0
           0           0           0           0           0           0
           0           0
RotTr to input orientation                 R   N=          12
  8.88760178E-01  4.58292177E-01  8.58056382E-03 -4.58345268E-01  8.88755694E-01
  5.73859779E-03 -4.99607048E-03 -9.03309802E-03  9.99946720E-01  9.45326131E-03
 -9.75392904E-03  9.85411360E-04
Number of contracted shells                I               36
Number of primitive shells                 I               90
Pure/Cartesian d shells                    I                1
Pure/Cartesian f shells                    I                0
Highest angular momentum                   I                2
Largest degree of contraction              I                6
Shell types                                I   N=          36
           0          -1          -1           2           0          -1
          -1           2           0          -1          -1           2
           0          -1          -1           2           0          -1
          -1           2           0          -1          -1           2
           0           0           0           0           0           0
           0           0           0           0           0           0
Number of primitives per shell             I   N=          36
           6           3           1           1           6           3
           1           1           6           3           1           1
           6           3           1           1           6           3
           1           1           6           3           1           1
           3           1           3           1           3           1
           3           1           3           1           3           1
Shell to atom map                          I   N=          36
           1           1           1           1           2           2
           2           2           3           3           3           3
           4           4           4           4           5           5
           5           5           6           6           6           6
           7           7           8           8           9           9
          10          10          11          11          12          12
Primitive exponents                        R   N=          90
  3.04752488E+03  4.57369518E+02  1.03948685E+02  2.92101553E+01  9.28666296E+00
  3.16392696E+00  7.86827235E+00  1.88128854E+00  5.44249258E-01  1.68714478E-01
  8.00000000E-01  3.04752488E+03  4.57369518E+02  1.03948685E+02  2.92101553E+01
  9.28666296E+00  3.16392696E+00  7.86827235E+00  1.88128854E+00  5.44249258E-01
  1.68714478E-01  8.00000000E-01  3.04752488E+03  4.57369518E+02  1.03948685E+02
  2.92101553E+01  9.28666296E+00  3.16392696E+00  7.86827235E+00  1.88128854E+00
  5.44249258E-01  1.68714478E-01  8.00000000E-01  3.04752488E+03  4.57369518E+02
  1.03948685E+02  2.92101553E+01  9.28666296E+00  3.16392696E+00  7.86827235E+00
  1.88128854E+00  5.44249258E-01  1.68714478E-01  8.00000000E-01  3.04752488E+03
  4.57369518E+02  1.03948685E+02  2.92101553E+01  9.28666296E+00  3.16392696E+00
  7.86827235E+00  1.88128854E+00  5.44249258E-01  1.68714478E-01  8.00000000E-01
  3.04752488E+03  4.57369518E+02  1.03948685E+02  2.92101553E+01  9.28666296E+00
  3.16392696E+00  7.86827235E+00  1.88128854E+00  5.44249258E-01  1.68714478E-01
  8.00000000E-01  1.87311370E+01  2.82539436E+00  6.40121692E-01  1.61277759E-01
  1.87311370E+01  2.82539436E+00  6.40121692E-01  1.61277759E-01  1.87311370E+01
  2.82539436E+00  6.40121692E-01  1.61277759E-01  1.87311370E+01  2.82539436E+00
  6.40121692E-01  1.61277759E-01  1.87311370E+01  2.82539436E+00  6.40121692E-01
  1.61277759E-01  1.87311370E+01  2.82539436E+00  6.40121692E-01  1.61277759E-01
Contraction coefficients                   R   N=          90
  1.83473713E-03  1.40373228E-02  6.88426223E-02  2.32184443E-01  4.67941348E-01
  3.62311985E-01 -1.19332420E-01 -1.60854152E-01  1.14345644E+00  1.00000000E+00
  1.00000000E+00  1.83473713E-03  1.40373228E-02  6.88426223E-02  2.32184443E-01
  4.67941348E-01  3.62311985E-01 -1.19332420E-01 -1.60854152E-01  1.14345644E+00
  1.00000000E+00  1.00000000E+00  1.83473713E-03  1.40373228E-02  6.88426223E-02
  2.32184443E-01  4.67941348E-01  3.62311985E-01 -1.19332420E-01 -1.60854152E-01
  1.14345644E+00  1.00000000E+00  1.00000000E+00  1.83473713E-03  1.40373228E-02
  6.88426223E-02  2.32184443E-01  4.67941348E-01  3.62311985E-01 -1.19332420E-01
 -1.60854152E-01  1.14345644E+00  1.00000000E+00  1.00000000E+00  1.83473713E-03
  1.40373228E-02  6.88426223E-02  2.32184443E-01  4.67941348E-01  3.62311985E-01
 -1.19332420E-01 -1.60854152E-01  1.14345644E+00  1.00000000E+00  1.00000000E+00
  1.83473713E-03  1.40373228E-02  6.88426223E-02  2.32184443E-01  4.67941348E-01
  3.62311985E-01 -1.19332420E-01 -1.60854152E-01  1.14345644E+00  1.00000000E+00
  1.00000000E+00  3.34946043E-02  2.34726953E-01  8.13757326E-01  1.00000000E+00
  3.34946043E-02  2.34726953E-01  8.13757326E-01  1.00000000E+00  3.34946043E-02
  2.34726953E-01  8.13757326E-01  1.00000000E+00  3.34946043E-02  2.34726953E-01
  8.13757326E-01  1.00000000E+00  3.34946043E-02  2.34726953E-01  8.13757326E-01
  1.00000000E+00  3.34946043E-02  2.34726953E-01  8.13757326E-01  1.00000000E+00
P(S=P) Contraction coefficients            R   N=          90
  0.00000000E+00  0.00000000E+00  0.00000000E+00  0.00000000E+00  0.00000000E+00
  0.00000000E+00  6.89990666E-02  3.16423961E-01  7.44308291E-01  1.00000000E+00
  0.00000000E+00  0.00000000E+00  0.00000000E+00  0.00000000E+00  0.00000000E+00
  0.00000000E+00  0.00000000E+00  6.89990666E-02  3.16423961E-01  7.44308291E-01
  1.00000000E+00  0.00000000E+00  0.00000000E+00  0.00000000E+00  0.00000000E+00
  0.00000000E+00  0.00000000E+00  0.00000000E+00  6.89990666E-02  3.16423961E-01
  7.44308291E-01  1.00000000E+00  0.00000000E+00  0.00000000E+00  0.00000000E+00
  0.00000000E+00  0.00000000E+00  0.00000000E+00  0.00000000E+00  6.89990666E-02
  3.16423961E-01  7.44308291E-01  1.00000000E+00  0.00000000E+00  0.00000000E+00
  0.00000000E+00  0.00000000E+00  0.00000000E+00  0.00000000E+00  0.00000000E+00
  6.89990666E-02  3.16423961E-01  7.44308291E-01  1.00000000E+00  0.00000000E+00
  0.00000000E+00  0.00000000E+00  0.00000000E+00  0.00000000E+00  0.00000000E+00
  0.00000000E+00  6.89990666E-02  3.16423961E-01  7.44308291E-01  1.00000000E+00
  0.00000000E+00  0.00000000E+00  0.00000000E+00  0.00000000E+00  0.00000000E+00
  0.00000000E+00  0.00000000E+00  0.00000000E+00  0.00000000E+00  0.00000000E+00
  0.00000000E+00  0.00000000E+00  0.00000000E+00  0.00000000E+00  0.00000000E+00
  0.00000000E+00  0.00000000E+00  0.00000000E+00  0.00000000E+00  0.00000000E+00
  0.00000000E+00  0.00000000E+00  0.00000000E+00  0.00000000E+00  0.00000000E+00
Coordinates of each shell                  R   N=         108
  2.12992092E+00 -1.55854760E+00  7.08235924E-07  2.12992092E+00 -1.55854760E+00
  7.08235924E-07  2.12992092E+00 -1.55854760E+00  7.08235924E-07  2.12992092E+00
 -1.55854760E+00  7.08235924E-07 -2.84791492E-01 -2.62383089E+00 -2.34033102E-06
 -2.84791492E-01 -2.62383089E+00 -2.34033102E-06 -2.84791492E-01 -2.62383089E+00
 -2.34033102E-06 -2.84791492E-01 -2.62383089E+00 -2.34033102E-06 -2.41470350E+00
 -1.06528336E+00  1.04217582E-06 -2.41470350E+00 -1.06528336E+00  1.04217582E-06
 -2.41470350E+00 -1.06528336E+00  1.04217582E-06 -2.41470350E+00 -1.06528336E+00
  1.04217582E-06 -2.12991869E+00  1.55855087E+00 -1.16960993E-07 -2.12991869E+00
  1.55855087E+00 -1.16960993E-07 -2.12991869E+00  1.55855087E+00 -1.16960993E-07
 -2.12991869E+00  1.55855087E+00 -1.16960993E-07  2.84787815E-01  2.62383102E+00
 -1.55401750E-06  2.84787815E-01  2.62383102E+00 -1.55401750E-06  2.84787815E-01
  2.62383102E+00 -1.55401750E-06  2.84787815E-01  2.62383102E+00 -1.55401750E-06
  2.41470496E+00  1.06528051E+00  1.30773322E-06  2.41470496E+00  1.06528051E+00
  1.30773322E-06  2.41470496E+00  1.06528051E+00  1.30773322E-06  2.41470496E+00
  1.06528051E+00  1.30773322E-06  3.78763297E+00 -2.77157634E+00  5.80546362E-08
  3.78763297E+00 -2.77157634E+00  5.80546362E-08 -5.06450390E-01 -4.66596640E+00
 -3.23010312E-06 -5.06450390E-01 -4.66596640E+00 -3.23010312E-06 -4.29407589E+00
 -1.89438540E+00  6.48030355E-06 -4.29407589E+00 -1.89438540E+00  6.48030355E-06
 -3.78763739E+00  2.77157045E+00  2.70955106E-06 -3.78763739E+00  2.77157045E+00
  2.70955106E-06  5.06456062E-01  4.66596577E+00 -5.75040753E-06  5.06456062E-01
  4.66596577E+00 -5.75040753E-06  4.29407451E+00  1.89438868E+00  5.45158875E-06
  4.29407451E+00  1.89438868E+00  5.45158875E-06
Num ILSW                                   I              100
ILSW                                       I   N=         100
           0           1           0           0           2           0
           0           0           0           0         402          -1
           5           0           0           0           2           0
           0           0           0           0           1           0
           1           0           0           0           0           0
           0           0      100000           0          -1           0
           0           0           0           0           0           0
           0           0           0           1           0           0
           0 -2000000000           1           0           0           0
           0           0           4          52           0           0
           0           0           5           0           0           0
           0           0           0          12           0           1
           0           0           0           0           0           0
           0           0           0           0           0           0
           0           0           0           0           0           0
           0           0           0           0           0           0
           0           0           0           0
Num RLSW                                   I               52
RLSW                                       R   N=          52
  8.00000000E-01  7.20000000E-01  1.00000000E+00  8.10000000E-01  2.00000000E-01
  0.00000000E+00  0.00000000E+00  1.00000000E+00  0.00000000E+00  0.00000000E+00
  0.00000000E+00  0.00000000E+00  1.00000000E+00  0.00000000E+00  0.00000000E+00
  0.00000000E+00  0.00000000E+00  1.00000000E+00  0.00000000E+00  0.00000000E+00
  0.00000000E+00  0.00000000E+00  1.00000000E+00  0.00000000E+00  0.00000000E+00
  0.00000000E+00  0.00000000E+00  1.00000000E+00  0.00000000E+00  0.00000000E+00
  0.00000000E+00  0.00000000E+00  1.00000000E+00  0.00000000E+00  0.00000000E+00
  0.00000000E+00  0.00000000E+00  0.00000000E+00  1.00000000E+00  1.00000000E+00
  0.00000000E+00  1.00000000E+00  0.00000000E+00  0.00000000E+00  0.00000000E+00
  0.00000000E+00  0.00000000E+00  0.00000000E+00  0.00000000E+00  0.00000000E+00
  0.00000000E+00  0.00000000E+00
MxBond                                     I                3
NBond                                      I   N=          12
           3           3           3           3           3           3
           1           1           1           1           1           1
IBond                                      I   N=          36
           2           6           7           1           3           8
           2           4           9           3           5          10
           4           6          11           1           5          12
           1           0           0           2           0           0
           3           0           0           4           0           0
           5           0           0           6           0           0
RBond                                      R   N=          36
  1.50000000E+00  1.50000000E+00  1.00000000E+00  1.50000000E+00  1.50000000E+00
  1.00000000E+00  1.50000000E+00  1.50000000E+00  1.00000000E+00  1.50000000E+00
  1.50000000E+00  1.00000000E+00  1.50000000E+00  1.50000000E+00  1.00000000E+00
  1.50000000E+00  1.50000000E+00  1.00000000E+00  1.00000000E+00  0.00000000E+00
  0.00000000E+00  1.00000000E+00  0.00000000E+00  0.00000000E+00  1.00000000E+00
  0.00000000E+00  0.00000000E+00  1.00000000E+00  0.00000000E+00  0.00000000E+00
  1.00000000E+00  0.00000000E+00  0.00000000E+00  1.00000000E+00  0.00000000E+00
  0.00000000E+00
Virial Ratio                               R      2.010102547668443E+00
SCF Energy                                 R     -2.322486506068437E+02
Total Energy                               R     -2.322486506068437E+02
RMS Force                                  R      7.471557091012167E-06
RMS Density                                R      9.212100312650764E-09
NImag                                      I                0
Job Status                                 I                1
Nuclear derivative order                   I                2
Thermal Energy                             R     -2.321435332804285E+02
Thermal Enthalpy                           R     -2.321425890956149E+02
Thermal Free Energy                        R     -2.321753815602787E+02
External E-field                           R   N=          35
  0.00000000E+00  0.00000000E+00  0.00000000E+00  0.00000000E+00  0.00000000E+00
  0.00000000E+00  0.00000000E+00  0.00000000E+00  0.00000000E+00  0.00000000E+00
  0.00000000E+00  0.00000000E+00  0.00000000E+00  0.00000000E+00  0.00000000E+00
  0.00000000E+00  0.00000000E+00  0.00000000E+00  0.00000000E+00  0.00000000E+00
  0.00000000E+00  0.00000000E+00  0.00000000E+00  0.00000000E+00  0.00000000E+00
  0.00000000E+00  0.00000000E+00  0.00000000E+00  0.00000000E+00  0.00000000E+00
  0.00000000E+00  0.00000000E+00  0.00000000E+00  0.00000000E+00  0.00000000E+00
IOpCl                                      I                0
IROHF                                      I                0
Alpha Orbital Energies                     R   N=         102
 -1.01877402E+01 -1.01874755E+01 -1.01874754E+01 -1.01869234E+01 -1.01869232E+01
 -1.01866578E+01 -8.46320202E-01 -7.39830324E-01 -7.39828513E-01 -5.97491531E-01
 -5.97490192E-01 -5.18552236E-01 -4.59294831E-01 -4.38101971E-01 -4.17258066E-01
 -4.17256095E-01 -3.59393233E-01 -3.40272863E-01 -3.40271963E-01 -2.46292035E-01
 -2.46290747E-01  3.61648703E-03  3.61761332E-03  9.07463094E-02  1.44692180E-01
  1.44693231E-01  1.63939389E-01  1.81852870E-01  1.81853996E-01  1.90263412E-01
  3.02657622E-01  3.02658503E-01  3.19136028E-01  3.19136668E-01  4.74884351E-01
  5.27355428E-01  5.49032471E-01  5.50289471E-01  5.63962934E-01  5.92512682E-01
  6.02014794E-01  6.02016172E-01  6.02060948E-01  6.02063164E-01  6.26788984E-01
  6.26790502E-01  6.67536902E-01  6.67537224E-01  7.44866719E-01  8.40013055E-01
  8.40013854E-01  8.41104708E-01  8.65019585E-01  8.65020967E-01  9.39034959E-01
  9.39036519E-01  9.40631368E-01  9.57979766E-01  1.08260696E+00  1.08260923E+00
  1.14238058E+00  1.14238567E+00  1.20099725E+00  1.26189146E+00  1.39628576E+00
  1.43637923E+00  1.43638138E+00  1.48697125E+00  1.48697237E+00  1.51542192E+00
  1.51542370E+00  1.75689078E+00  1.78986179E+00  1.85729239E+00  1.89560185E+00
  1.97354509E+00  1.97354852E+00  2.06599127E+00  2.06599348E+00  2.15163144E+00
  2.15163623E+00  2.15440248E+00  2.15440541E+00  2.30947459E+00  2.30947898E+00
  2.32162237E+00  2.54574396E+00  2.54574564E+00  2.65688864E+00  2.70539665E+00
  2.70539769E+00  2.72191119E+00  2.72191338E+00  2.76006151E+00  3.01696394E+00
  3.41015485E+00  4.08518741E+00  4.11773716E+00  4.11773947E+00  4.33034012E+00
  4.33034139E+00  4.66588532E+00
Alpha MO coefficients                      R   N=       10404
  4.05319761E-01  1.97678602E-02  1.03601555E-04 -7.56354524E-05 -3.89424292E-10
 -2.55715023E-03 -2.90602705E-04  2.11734179E-04  1.75251152E-09 -3.97127691E-03
 -3.99969739E-03 -4.06847046E-03 -5.18097905E-05 -2.78761756E-10  2.96276786E-11
  4.05497374E-01  1.97767219E-02 -1.38743529E-05 -1.27471627E-04  3.03476076E-10
 -2.55969112E-03  3.89549189E-05  3.57092367E-04 -1.80557820E-09 -4.03309728E-03
 -3.94118564E-03 -4.07017809E-03  1.16478573E-05 -4.42720788E-11 -8.67339699E-11
  4.05199548E-01  1.97619075E-02 -1.17435791E-04 -5.16069523E-05  6.69561226E-11
 -2.55601089E-03  3.29392863E-04  1.44261128E-04  4.21034706E-10 -3.95261629E-03
 -4.01602031E-03 -4.06730102E-03  4.01545841E-05 -8.14060978E-11 -1.47903162E-10
  4.04875468E-01  1.97458129E-02 -1.03485417E-04  7.58460839E-05  2.80553210E-10
 -2.55243177E-03  2.90171635E-04 -2.12949089E-04 -1.26684629E-09 -3.96695889E-03
 -3.99544029E-03 -4.06414893E-03 -5.17845209E-05 -1.22491966E-10  1.76703886E-10
  4.04883854E-01  1.97463005E-02  1.38008326E-05  1.27515552E-04 -3.51770084E-10
 -2.55358576E-03 -3.85859335E-05 -3.57437593E-04  1.17115391E-09 -4.02714178E-03
 -3.93527422E-03 -4.06420245E-03  1.16596122E-05 -7.54453872E-11 -3.39697656E-10
  4.05017120E-01  1.97528492E-02  1.17319844E-04  5.19049130E-05  3.21055270E-10
 -2.55397224E-03 -3.28912261E-04 -1.45853091E-04 -1.36149167E-09 -3.95083450E-03
 -4.01428753E-03 -4.06552862E-03  4.01225272E-05  2.70843285E-10  2.34060118E-10
 -1.92446840E-04  9.06501524E-04 -1.92515794E-04  9.06766795E-04 -1.92393319E-04
  9.06300812E-04 -1.92254573E-04  9.05799322E-04 -1.92253502E-04  9.05757017E-04
 -1.92313582E-04  9.06022442E-04 -2.49374638E-01 -1.23702020E-02 -1.46371223E-04
 -2.26891449E-04  3.17826801E-10  2.55082395E-03  6.94649089E-04  1.21716068E-03
 -1.50197770E-09  2.44065759E-03  2.37903743E-03  2.42781678E-03  2.00326105E-05
  3.90035764E-10 -3.07036437E-11 -5.71490072E-01 -2.83489305E-02 -2.55759245E-05
 -3.38490326E-05 -4.70115338E-10  5.85224363E-03  1.51289583E-04  3.51421645E-04
  3.33749991E-09  5.53784144E-03  5.50687746E-03  5.56373046E-03 -7.22539861E-06
  1.15016469E-11 -7.30165226E-12 -3.21566632E-01 -1.59512437E-02  8.13063322E-05
 -2.34925581E-04  9.77575809E-11  3.28941269E-03 -3.29884305E-04  1.25342184E-03
 -1.26764345E-09  3.12470228E-03  3.09025411E-03  3.13066323E-03 -3.26969833E-05
 -1.27458794E-11  3.24979366E-10  2.49883055E-01  1.23951241E-02 -1.46408277E-04
 -2.26770889E-04 -8.60428756E-11 -2.55512615E-03  6.94401207E-04  1.21675697E-03
  5.58679113E-10 -2.44554282E-03 -2.38401247E-03 -2.43287725E-03 -2.00543009E-05
  1.90187918E-11 -9.56500854E-12  5.71716394E-01  2.83596458E-02 -2.55613843E-05
 -3.36248623E-05 -2.46009210E-10 -5.85090966E-03  1.51215468E-04  3.50200243E-04
 -1.10902995E-09 -5.54032437E-03 -5.50918846E-03 -5.56611121E-03  7.25920426E-06
 -9.38045061E-11 -4.09282862E-10  3.22115634E-01  1.59782200E-02  8.13533037E-05
 -2.34833554E-04  8.69079234E-11 -3.29454155E-03 -3.29606370E-04  1.25309188E-03
  8.89462403E-10 -3.12996142E-03 -3.09558951E-03 -3.13610964E-03  3.26990935E-05
  1.57135619E-11  1.17533332E-10  1.07083258E-04 -4.03578355E-04  2.45450975E-04
 -9.24380349E-04  1.38089437E-04 -5.20398260E-04 -1.07316650E-04  4.04626927E-04
 -2.45578034E-04  9.25103916E-04 -1.38338202E-04  5.21497099E-04  5.15865744E-01
  2.55894847E-02 -1.03488006E-04 -8.58925521E-05 -3.56272118E-10 -5.28054242E-03
  6.63452629E-04  3.49431880E-04  1.25823182E-09 -4.96447228E-03 -5.00537320E-03
 -5.02227362E-03 -1.05332970E-05 -5.00411142E-12  2.65694085E-11  4.16031053E-02
  2.06376361E-03 -2.96633862E-04  3.48731324E-05 -8.44488061E-11 -4.26006589E-04
  1.53106679E-03 -1.92955951E-04 -1.08496210E-10 -4.11429394E-04 -3.92623468E-04
 -4.05016515E-04 -4.29568612E-05 -3.51175068E-10 -3.50148991E-12 -4.74297741E-01
 -2.35274139E-02 -9.54108171E-05  1.41684691E-04 -5.03091879E-11  4.85473839E-03
  6.27331901E-04 -6.72598460E-04 -5.69984514E-10  4.55809873E-03  4.60843248E-03
  4.61762351E-03  5.11642775E-06  5.44274741E-10  6.21480718E-11 -5.15785397E-01
 -2.55852171E-02 -1.03391551E-04 -8.59981402E-05 -3.36706491E-10  5.27704277E-03
  6.62717850E-04  3.50188351E-04  8.24433895E-10  4.96383250E-03  5.00480564E-03
  5.02158511E-03  1.05942515E-05  2.58357786E-10 -1.87408385E-10 -4.17900080E-02
 -2.07295216E-03 -2.96545947E-04  3.48395866E-05  3.99977808E-11  4.27842548E-04
  1.53049160E-03 -1.92980231E-04  5.74688713E-12  4.13219714E-04  3.94423868E-04
  4.06866470E-04  4.29084321E-05 -1.37581650E-10  1.42975059E-10  4.73989181E-01
  2.35120880E-02 -9.54056006E-05  1.41754186E-04  3.16292457E-10 -4.85045638E-03
  6.26955099E-04 -6.73193722E-04  1.51877533E-11 -4.55517896E-03 -4.60557113E-03
 -4.61461760E-03 -5.12033270E-06  4.17513510E-10  1.58941312E-10 -2.21550516E-04
  8.34657948E-04 -1.78682330E-05  6.72700445E-05  2.03707076E-04 -7.67454841E-04
  2.21533861E-04 -8.34715445E-04  1.79521474E-05 -6.76336536E-05 -2.03577331E-04
  7.66947574E-04 -2.86027888E-01 -1.44127683E-02  2.21942442E-04  8.75106763E-05
  8.20612811E-10  5.73184065E-03 -1.71460265E-03 -3.10372647E-04 -2.31141040E-09
  2.50062110E-03  2.64012998E-03  2.71786799E-03 -9.57558405E-05 -9.56746060E-11
 -5.28061245E-10  5.73371293E-01  2.88917936E-02  2.71326378E-05  2.54114880E-04
  1.12903792E-09 -1.14865924E-02 -2.56659936E-04 -2.39012215E-03 -5.52343437E-09
 -5.03903058E-03 -5.26593540E-03 -5.44825353E-03 -2.90084844E-05 -2.32002178E-11
  5.75802293E-11 -2.87883472E-01 -1.45062397E-02 -1.98578801E-04  1.32395869E-04
  6.16576164E-10  5.76850864E-03  1.61400826E-03 -6.65622612E-04 -2.16124211E-09
  2.55889639E-03  2.61528197E-03  2.73551622E-03  1.20861426E-04  4.33169884E-10
 -5.49501664E-10 -2.85545924E-01 -1.43878540E-02 -2.21770415E-04 -8.77705319E-05
  3.04592086E-10  5.70948694E-03  1.70755576E-03  3.16211795E-04 -9.85481059E-10
  2.49644221E-03  2.63604765E-03  2.71351522E-03 -9.56404316E-05 -3.21463301E-11
  2.44948017E-10  5.73131573E-01  2.88788925E-02 -2.71400012E-05 -2.53833851E-04
  3.21754045E-10 -1.14666973E-02  2.55868415E-04  2.38116759E-03 -3.19757059E-09
 -5.03735225E-03 -5.26403449E-03 -5.44625911E-03 -2.89702013E-05  9.51764159E-11
 -3.92757939E-10 -2.87293033E-01 -1.44759326E-02  1.98329638E-04 -1.32582480E-04
  4.08008630E-10  5.74500276E-03 -1.60572491E-03  6.69682680E-04 -2.05087415E-09
  2.55363968E-03  2.61017809E-03  2.73010587E-03  1.20777393E-04 -2.01387865E-10
  3.94695932E-10  1.07760092E-04 -3.29655435E-04 -2.15910614E-04  6.61388907E-04
  1.08463004E-04 -3.31815009E-04  1.07406728E-04 -3.30593593E-04 -2.15660218E-04
  6.62721787E-04  1.08061660E-04 -3.32583435E-04  4.96958423E-01  2.50411619E-02
 -1.10201018E-04  2.24397145E-04 -3.44414158E-10 -9.95137801E-03  1.25052148E-03
 -1.81518856E-03  1.23836313E-09 -4.54656895E-03 -4.38525207E-03 -4.72226224E-03
  9.24288897E-05  1.71335819E-10  5.27976456E-11 -1.10909998E-03 -5.59538801E-05
 -2.31345993E-04  2.46064260E-05  6.27323763E-11  2.36785386E-05  1.44898480E-03
 -1.51741850E-04 -3.45992631E-10 -1.29354346E-05  3.28308230E-05  1.05114534E-05
 -1.19079201E-04 -8.06784508E-10 -9.73820311E-11 -4.95821270E-01 -2.49837000E-02
 -1.54993691E-04 -1.95994340E-04  3.69523383E-10  9.92528744E-03  1.60292937E-03
  1.50622312E-03 -1.97283343E-09  4.56261776E-03  4.34889137E-03  4.71151779E-03
  4.44298327E-05  5.95055789E-10  4.02795129E-10  4.97062653E-01  2.50460814E-02
  1.10179033E-04 -2.24326448E-04  3.06772965E-10 -9.94812927E-03 -1.24894007E-03
  1.81376273E-03 -7.64321695E-10 -4.54768756E-03 -4.38640810E-03 -4.72336086E-03
  9.23958417E-05 -4.97410919E-10  1.19539366E-10 -9.61889390E-04 -4.84079017E-05
  2.31453910E-04 -2.46906906E-05  1.91226866E-10  1.78913333E-05 -1.44933795E-03
  1.54060484E-04 -5.06015901E-10 -1.42044133E-05  3.15155262E-05  9.16250351E-06
 -1.19102548E-04  5.05287861E-10 -1.17216672E-12 -4.96102010E-01 -2.49978807E-02
  1.55099247E-04  1.95963715E-04  1.65824104E-12  9.93247857E-03 -1.60524593E-03
 -1.50682728E-03 -1.79519439E-09  4.56521165E-03  4.35146526E-03  4.71416824E-03
  4.44532819E-05 -4.07847146E-10 -1.66371625E-10 -1.87087481E-04  5.73754657E-04
  4.39418702E-07 -1.09331467E-06  1.86614922E-04 -5.72822273E-04 -1.87095343E-04
  5.74350135E-04  3.40689262E-07 -1.27673610E-06  1.86772175E-04 -5.72850228E-04
 -4.05370227E-01 -2.10484191E-02  2.18308009E-04 -1.59904225E-04  5.64254725E-10
  2.03292505E-02 -6.82401273E-03  4.99438988E-03 -5.69705720E-09  3.46080207E-03
  3.39880678E-03  3.63275070E-03 -1.12576429E-04  1.89244752E-10 -9.53810230E-10
  4.05189127E-01  2.10393485E-02  2.91608326E-05  2.68985157E-04  5.74827730E-10
 -2.03264817E-02 -9.12237174E-04 -8.40659446E-03 -1.22776191E-08 -3.32821073E-03
 -3.52801379E-03 -3.63100634E-03 -2.53573222E-05 -3.53277607E-10 -9.69347242E-10
 -4.05497451E-01 -2.10548413E-02 -2.47578519E-04 -1.09387946E-04  8.89757628E-10
  2.03318727E-02  7.73709717E-03  3.41434033E-03 -1.24535446E-08  3.49997793E-03
  3.36191502E-03  3.63396223E-03  8.72269941E-05  1.61229605E-10 -4.47592047E-10
  4.05815123E-01  2.10708325E-02  2.18578653E-04 -1.59865091E-04  6.54434432E-11
 -2.03381039E-02 -6.82623043E-03  4.99448368E-03  2.32534251E-09 -3.46474874E-03
 -3.40286522E-03 -3.63698101E-03  1.12704331E-04 -8.70025365E-10 -2.54757046E-10
 -4.05803201E-01 -2.10703011E-02  2.92567028E-05  2.69253838E-04  6.40260831E-11
  2.03388534E-02 -9.12962180E-04 -8.40912708E-03  8.89548845E-09  3.33359698E-03
  3.53365842E-03  3.63683986E-03  2.53548917E-05 -1.56851666E-10  2.53386912E-10
  4.05680098E-01  2.10640392E-02 -2.47748178E-04 -1.09197417E-04  1.64122743E-12
 -2.03354724E-02  7.73838296E-03  3.41327460E-03  8.70821757E-09 -3.50156540E-03
 -3.36361851E-03 -3.63570027E-03 -8.73437013E-05  5.19087084E-10 -2.87944656E-10
  3.10818773E-04  9.41934590E-04 -3.10743279E-04 -9.42167760E-04  3.10865911E-04
  9.41788247E-04 -3.10986871E-04 -9.41417743E-04  3.10973730E-04  9.41462658E-04
 -3.10935317E-04 -9.41574168E-04 -9.40804848E-02  1.79691995E-01 -4.87547614E-02
  3.56774885E-02 -5.56120569E-08  1.14015700E-01 -5.74556353E-03  4.20452218E-03
 -1.37667676E-08  3.02646160E-03  3.02840645E-03 -1.07146666E-02  3.24310657E-06
  1.10363228E-08  5.84379582E-09 -9.40802556E-02  1.79691963E-01  6.51811205E-03
  6.00613484E-02  1.34795481E-07  1.14013966E-01  7.68020572E-04  7.07684971E-03
  2.23725250E-08  3.03032133E-03  3.02415419E-03 -1.07146540E-02 -8.35895413E-07
  6.62038762E-10  1.96887404E-08 -9.40807769E-02  1.79693002E-01  5.52743153E-02
  2.43852783E-02 -5.80127213E-08  1.14013573E-01  6.51188441E-03  2.87263053E-03
 -3.22487115E-09  3.02523407E-03  3.02930835E-03 -1.07146695E-02 -2.68585702E-06
 -2.68205364E-08 -4.27353417E-09 -9.40803834E-02  1.79691780E-01  4.87550207E-02
 -3.56771077E-02  1.30793508E-08  1.14015479E-01  5.74547991E-03 -4.20456958E-03
  8.19016422E-09  3.02649018E-03  3.02837307E-03 -1.07146535E-02  3.25084388E-06
 -1.17461697E-08 -1.91729539E-09 -9.40801281E-02  1.79691680E-01 -6.51862876E-03
 -6.00612644E-02  6.83771139E-08  1.14013815E-01 -7.67951272E-04 -7.07690031E-03
  1.09207936E-09  3.03032523E-03  3.02414574E-03 -1.07146397E-02 -8.02953930E-07
  1.89201208E-09 -2.25805512E-08 -9.40807406E-02  1.79692927E-01 -5.52740370E-02
 -2.43859075E-02 -5.30555263E-08  1.14013453E-01 -6.51186541E-03 -2.87257623E-03
 -2.26287377E-10  3.02521010E-03  3.02932934E-03 -1.07146641E-02 -2.65846778E-06
  2.20074221E-08  2.03903971E-09  3.55649817E-02  4.15364493E-03  3.55649262E-02
  4.15314968E-03  3.55650887E-02  4.15278105E-03  3.55649242E-02  4.15362571E-03
  3.55648447E-02  4.15315142E-03  3.55650699E-02  4.15276633E-03  9.94221111E-02
 -1.96276897E-01 -3.08189211E-02 -6.99246334E-02  1.74426198E-08 -1.46752864E-01
 -1.30340233E-02 -5.07524644E-03  9.53083866E-09  4.44086782E-03 -7.31812380E-03
  9.68186165E-03  1.53173343E-03 -2.24710450E-09 -5.91749201E-09 -2.38516164E-02
  4.70876726E-02 -1.11877207E-01  1.61056014E-02  4.18107894E-08  3.52059550E-02
 -1.79405222E-02  1.31153276E-04 -6.58016104E-10 -1.48454029E-03  2.17481034E-03
 -2.32260897E-03 -1.02821572E-02 -2.23868750E-08  6.09689849E-09 -1.23272876E-01
  2.43362743E-01  3.15540941E-03  4.32897103E-02 -1.42595114E-08  1.81957718E-01
 -1.09780577E-02  1.77737418E-03  2.46889695E-08 -9.24454423E-04  4.49199243E-03
 -1.20044037E-02  1.85701479E-03 -3.73581930E-08 -1.15466414E-08 -9.94216106E-02
  1.96275824E-01 -3.08184335E-02 -6.99236997E-02  6.55720377E-08  1.46752258E-01
 -1.30337591E-02 -5.07550399E-03  1.51847904E-08 -4.44072436E-03  7.31808020E-03
 -9.68182228E-03 -1.53169873E-03 -1.46696582E-08 -3.88182311E-10  2.38508977E-02
 -4.70861617E-02 -1.11876887E-01  1.61052838E-02 -3.40749197E-08 -3.52051202E-02
 -1.79404302E-02  1.31674254E-04 -3.77780580E-10  1.48446139E-03 -2.17487480E-03
  2.32255398E-03  1.02821247E-02 -1.44471995E-08  9.80390058E-09  1.23273068E-01
 -2.43363135E-01  3.15492490E-03  4.32910682E-02  8.32160385E-09 -1.81957912E-01
 -1.09781995E-02  1.77728418E-03 -1.91864569E-08  9.24547634E-04 -4.49203983E-03
  1.20044166E-02 -1.85708911E-03 -2.84492067E-08 -7.19689823E-09 -5.95181694E-02
 -1.09396381E-02  1.42786981E-02  2.62394993E-03  7.37964690E-02  1.35637248E-02
  5.95180304E-02  1.09397860E-02 -1.42785028E-02 -2.62417673E-03 -7.37965119E-02
 -1.35636414E-02 -8.49417509E-02  1.67690088E-01 -6.29036217E-02 -6.22079838E-02
 -9.91197445E-08  1.25379845E-01 -2.96547752E-03 -1.49339404E-02 -1.63156699E-08
  7.79557603E-03 -5.33732623E-03 -8.27173390E-03  2.93935835E-03  1.31815453E-08
  9.80946986E-09 -1.28572718E-01  2.53825896E-01  2.31226827E-02  1.88494639E-02
  1.58384369E-07  1.89781070E-01  2.24208581E-03 -1.00284245E-02  2.23500396E-08
  2.87215990E-03  8.48728622E-04 -1.25204622E-02  1.73685488E-03  4.12092075E-09
  1.75037224E-08 -4.36308341E-02  8.61353738E-02  5.03089923E-02 -9.61834264E-02
 -4.54427420E-08  6.44016283E-02  3.88698803E-03 -1.69911559E-02  5.63632880E-09
  6.91597380E-03 -5.65332915E-03 -4.24871211E-03 -6.97694921E-03 -2.10295016E-08
  6.73911720E-09  8.49423955E-02 -1.67691397E-01 -6.29043424E-02 -6.22083295E-02
  1.07799535E-08 -1.25380554E-01 -2.96511764E-03 -1.49340795E-02 -1.49630792E-08
 -7.79559424E-03  5.33745040E-03  8.27178404E-03 -2.93938044E-03  1.52533160E-08
 -2.65259712E-09  1.28572870E-01 -2.53826158E-01  2.31239980E-02  1.88495321E-02
 -4.14115761E-08 -1.89781189E-01  2.24199622E-03 -1.00284511E-02  1.59846848E-08
 -2.87217882E-03 -8.48691715E-04  1.25204731E-02 -1.73697693E-03  5.71757815E-10
  3.24151862E-08  4.36303592E-02 -8.61343471E-02  5.03086330E-02 -9.61829407E-02
  4.38600330E-08 -6.44011055E-02  3.88745245E-03 -1.69909306E-02 -3.38487584E-09
 -6.91601933E-03  5.65323802E-03  4.24868046E-03  6.97691260E-03 -1.76058672E-08
  7.49404531E-09  5.08502541E-02  9.34682914E-03  7.69696388E-02  1.41470869E-02
  2.61192259E-02  4.80030396E-03 -5.08503751E-02 -9.34664468E-03 -7.69695974E-02
 -1.41470313E-02 -2.61191023E-02 -4.80053292E-03  8.36288634E-02 -1.73050760E-01
 -1.16517614E-01 -6.14568289E-02 -6.47644054E-08 -1.31195991E-01 -5.61726706E-02
  2.49027831E-03 -3.49107566E-08  4.73184982E-03 -1.45473336E-03  6.66528262E-03
  6.37467708E-03  1.11484887E-08 -4.57170508E-09 -9.31192181E-02  1.92689030E-01
 -9.19889479E-02 -5.46842701E-02  3.35785849E-08  1.46084530E-01 -2.80074942E-02
 -4.93800623E-02 -2.70128978E-08 -7.24524484E-03  3.59635722E-03 -7.42161927E-03
 -2.57015071E-03 -1.30537983E-08  3.53320422E-09  9.49041913E-03 -1.96382496E-02
  8.83192746E-02 -1.83958187E-01 -1.38826753E-07 -1.48882799E-02  2.65258803E-02
 -4.69677023E-02 -4.75243380E-08  5.73087310E-03 -5.35903473E-03  7.56412127E-04
 -6.61179356E-03 -9.83074761E-09  1.39771773E-08  8.36290119E-02 -1.73051039E-01
  1.16518422E-01  6.14571221E-02 -1.86559243E-07 -1.31196077E-01  5.61731733E-02
 -2.48966528E-03 -7.25161126E-08  4.73174389E-03 -1.45473235E-03  6.66529736E-03
  6.37468682E-03  1.23127884E-08 -5.18240326E-09 -9.31194130E-02  1.92689386E-01
  9.19895188E-02  5.46844126E-02 -1.01495654E-07  1.46084746E-01  2.80083149E-02
  4.93799648E-02 -6.96273363E-08 -7.24520473E-03  3.59639307E-03 -7.42163602E-03
 -2.57008938E-03  7.10348972E-09 -2.87541118E-08  9.48996752E-03 -1.96373107E-02
 -8.83185364E-02  1.83958464E-01 -1.40152854E-07 -1.48878487E-02 -2.65255740E-02
  4.69677159E-02 -4.57781970E-08  5.73098974E-03 -5.35901334E-03  7.56373674E-04
 -6.61175097E-03  1.06328073E-08 -1.26497749E-08 -9.31877152E-02 -3.11866652E-02
  1.03762678E-01  3.47255958E-02 -1.05762547E-02 -3.53982355E-03 -9.31883453E-02
 -3.11870461E-02  1.03763074E-01  3.47258417E-02 -1.05751884E-02 -3.53924377E-03
  5.92417979E-02 -1.22587257E-01  6.56966228E-02  1.59044172E-01  2.03387327E-07
 -9.29388255E-02 -7.77489152E-04  5.50798869E-02  5.35147668E-08 -5.98086951E-03
  8.30218014E-03  4.72161198E-03  1.09514469E-03 -1.32178344E-08 -7.14064187E-09
  4.28041767E-02 -8.85735064E-02 -1.81838672E-01  4.94628471E-02  4.45672757E-08
 -6.71506640E-02 -4.61121276E-02  2.91007834E-02  2.29033573E-08  1.44375718E-03
  2.33528301E-04  3.41150863E-03 -8.73616018E-03 -3.06860063E-08  5.27847761E-09
 -1.02045436E-01  2.11159666E-01 -5.68058782E-02 -4.57919694E-02  1.30332383E-07
  1.60088504E-01 -5.02362902E-02 -2.76182143E-02  1.06753002E-07  2.10595261E-03
 -6.10463633E-03 -8.13304412E-03  3.92593503E-03 -4.09676923E-08 -1.24387587E-08
  5.92416391E-02 -1.22586899E-01 -6.56970172E-02 -1.59043150E-01  9.02541082E-08
 -9.29387605E-02  7.77723758E-04 -5.50792686E-02  6.91966062E-09 -5.98083049E-03
  8.30227361E-03  4.72159383E-03  1.09507743E-03  1.76326854E-08 -1.22213296E-08
  4.28039619E-02 -8.85730295E-02  1.81838353E-01 -4.94618864E-02  1.31664808E-07
 -6.71505977E-02  4.61116665E-02 -2.91004828E-02  6.10752599E-08  1.44376925E-03
  2.33654748E-04  3.41148719E-03 -8.73617534E-03  1.82780579E-08  5.62023205E-09
 -1.02045486E-01  2.11159749E-01  5.68058208E-02  4.57921457E-02  1.35868141E-07
  1.60088578E-01  5.02359347E-02  2.76189652E-02  8.14841816E-08  2.10592382E-03
 -6.10458959E-03 -8.13304835E-03  3.92598097E-03  2.92318595E-08  7.24465080E-09
 -6.60137458E-02 -2.20931059E-02 -4.76964837E-02 -1.59625186E-02  1.13710213E-01
  3.80552065E-02 -6.60127653E-02 -2.20925227E-02 -4.76954677E-02 -1.59619378E-02
  1.13710297E-01  3.80552555E-02  8.55169032E-03 -1.79236748E-02 -1.60639386E-01
  1.17549251E-01 -5.62584509E-08 -3.08437947E-02 -5.50372324E-02  4.02736494E-02
 -1.63698964E-08 -1.42527431E-03 -2.37827533E-03  1.49966640E-04 -1.73364988E-03
  1.04774054E-08 -1.20242561E-08  8.55211925E-03 -1.79241225E-02  2.14783208E-02
  1.97892231E-01  8.52004798E-08 -3.08466848E-02  7.35841492E-03  6.77988674E-02
  1.30871787E-08 -3.44030604E-03 -3.63626321E-04  1.49984825E-04  3.90004214E-04
  7.16700229E-09  1.04697605E-08  8.55114893E-03 -1.79220677E-02  1.82118761E-01
  8.03447303E-02 -3.26982781E-07 -3.08450227E-02  6.23941355E-02  2.75261329E-02
 -9.77326283E-08 -8.40106170E-04 -2.96378721E-03  1.49926014E-04  1.34342564E-03
  2.25892500E-08  6.26147226E-09  8.55179050E-03 -1.79238739E-02  1.60639983E-01
 -1.17548110E-01 -1.55936382E-07 -3.08441766E-02  5.50373618E-02 -4.02731989E-02
 -5.24589204E-08 -1.42531291E-03 -2.37822494E-03  1.49974252E-04 -1.73366356E-03
  1.94351929E-08 -2.85203965E-09  8.55214991E-03 -1.79242030E-02 -2.14795873E-02
 -1.97891649E-01  1.77710960E-07 -3.08466890E-02 -7.35882207E-03 -6.77987656E-02
  4.69011521E-08 -3.44031977E-03 -3.63597035E-04  1.49981927E-04  3.89983562E-04
  2.07141439E-09  2.02645910E-08  8.55122214E-03 -1.79222095E-02 -1.82118153E-01
 -8.03460730E-02 -2.25638026E-07 -3.08453205E-02 -6.23938946E-02 -2.75264196E-02
 -7.00118669E-08 -8.40123640E-04 -2.96376374E-03  1.49932594E-04  1.34343710E-03
 -1.73971973E-08 -4.19968781E-09 -1.08320467E-01 -6.71943593E-02 -1.08320592E-01
 -6.71950044E-02 -1.08319570E-01 -6.71947773E-02 -1.08320451E-01 -6.71943512E-02
 -1.08320362E-01 -6.71948131E-02 -1.08319630E-01 -6.71948281E-02 -5.92102697E-02
  1.21480041E-01  1.08087120E-01 -7.91020879E-02 -7.62258173E-08  1.61422468E-01
  3.13808903E-02 -2.29657233E-02 -3.65814740E-08  2.77017135E-03 -5.78077788E-03
 -4.69441551E-03 -1.55527446E-02 -1.59377167E-08 -1.67028946E-08  5.92105012E-02
 -1.21480597E-01  1.44588557E-02  1.33153145E-01  2.15078829E-07 -1.61423183E-01
  4.19840735E-03  3.86583608E-02  7.17769409E-08  1.53075216E-02 -1.22968107E-02
  4.69441472E-03 -3.50094261E-03 -1.30789784E-08 -3.96386780E-09 -5.92105408E-02
  1.21480636E-01 -1.22545357E-01 -5.40539646E-02  3.91056495E-07  1.61423252E-01
 -3.55785661E-02 -1.56936848E-02  1.31207822E-07  8.02139608E-03 -1.10320934E-02
 -4.69441098E-03  1.20518415E-02 -3.98114654E-08 -3.32803897E-08  5.92102800E-02
 -1.21480053E-01  1.08087448E-01 -7.91010054E-02 -2.17502029E-07 -1.61422365E-01
  3.13807727E-02 -2.29657723E-02 -8.05438610E-08 -2.77025818E-03  5.78087018E-03
  4.69441457E-03  1.55526866E-02  3.03219922E-09 -3.54397192E-08 -5.92105061E-02
  1.21480590E-01  1.44596002E-02  1.33152814E-01 -5.00942137E-07  1.61423059E-01
  4.19820840E-03  3.86584117E-02 -1.86148827E-07 -1.53074646E-02  1.22967529E-02
 -4.69441252E-03  3.50103721E-03 -1.17103574E-08 -2.90042733E-08  5.92105274E-02
 -1.21480604E-01 -1.22545078E-01 -5.40539527E-02 -4.64319430E-07 -1.61423162E-01
 -3.55786763E-02 -1.56932528E-02 -1.71043159E-07 -8.02132111E-03  1.10320209E-02
  4.69440977E-03 -1.20519034E-02 -2.22544634E-08 -2.53761668E-08  1.40637339E-01
  9.79364489E-02 -1.40634871E-01 -9.79342562E-02  1.40635835E-01  9.79351586E-02
 -1.40637113E-01 -9.79362438E-02  1.40634671E-01  9.79340559E-02 -1.40635671E-01
 -9.79350218E-02  1.27316396E-06 -2.63726013E-06 -1.62461410E-01 -2.22004792E-01
 -3.56682703E-07  1.60895585E-07 -5.46684300E-02 -7.47015926E-02 -1.32148441E-07
  3.17027703E-03 -3.17011045E-03  1.24878678E-07  1.16248726E-03  1.77877922E-08
  5.27954719E-09 -1.71290301E-06  3.82723715E-06  2.73495221E-01 -2.96890948E-02
 -6.33522444E-08  3.09168209E-06  9.20267411E-02 -9.99169875E-03 -3.33018952E-08
  7.13158680E-04 -7.13260296E-04 -6.48089566E-08  3.75175613E-03  2.64955465E-08
 -5.03142235E-09  2.13430647E-06 -4.54024302E-06 -1.11040071E-01  2.51694303E-01
  2.31599239E-07 -4.43229406E-06 -3.73621069E-02  8.46934370E-02  8.91313816E-08
 -2.45670540E-03  2.45704074E-03  1.31186947E-07  2.58904315E-03  1.30014511E-08
 -1.05021067E-08 -9.53744389E-07  2.05236376E-06 -1.62460670E-01 -2.22005557E-01
  2.97159925E-07 -3.36133435E-07 -5.46678085E-02 -7.47021369E-02  1.22786697E-07
 -3.17021097E-03  3.17015246E-03 -9.80479901E-08 -1.16259268E-03  5.17616325E-09
 -9.60471281E-09  1.94029881E-06 -4.21391929E-06  2.73495447E-01 -2.96902802E-02
  1.25106438E-07 -3.09222101E-06  9.20266662E-02 -9.99236593E-03  4.30205412E-08
 -7.13209039E-04  7.13388784E-04  8.80876423E-08 -3.75175272E-03  7.30660789E-09
 -4.39482958E-09 -2.07623970E-06  4.50997559E-06 -1.11041216E-01  2.51693980E-01
 -2.33791279E-07  4.79221259E-06 -3.73625322E-02  8.46933454E-02 -8.94737055E-08
  2.45679923E-03 -2.45709987E-03 -1.15633638E-07 -2.58896917E-03  8.74824948E-09
 -7.35791672E-10 -5.97031581E-06 -3.96664609E-06  4.05951020E-06  2.46233470E-06
 -8.78621295E-07  3.99356614E-07  5.96351943E-06  4.20033076E-06 -4.16970352E-06
 -2.39503148E-06  7.52883028E-07 -4.61589773E-07  2.06199370E-02 -4.76716934E-02
  1.89829036E-01 -1.91531137E-01 -9.63831150E-09 -8.23752398E-02  7.24672322E-02
 -4.09886670E-02  4.45672195E-08  1.11209437E-02 -3.73555848E-03  6.33799317E-04
 -5.06444457E-03 -2.47561434E-09  1.03084625E-08  2.11811340E-04 -4.89298341E-04
 -8.60488842E-02  6.58706667E-03 -2.71183315E-07 -8.47414500E-04  1.95356653E-02
 -2.97680262E-03 -1.59061018E-07 -2.53405598E-03  2.61008024E-03  6.61143316E-06
 -1.31646084E-02  8.72099452E-09 -1.39524778E-08 -2.04073471E-02  4.71807095E-02
  2.23457600E-01  1.46458974E-01 -8.35725581E-07  8.15270228E-02  7.89189937E-02
  2.38623668E-02 -3.44335195E-07 -1.23265755E-02  5.01717439E-03 -6.27176718E-04
 -8.06054002E-04  1.75347499E-08  4.54640798E-09 -2.06199679E-02  4.76716963E-02
  1.89829118E-01 -1.91528162E-01 -4.92213246E-07  8.23758807E-02  7.24674432E-02
 -4.09882715E-02 -2.33880205E-07 -1.11208488E-02  3.73554396E-03 -6.33808859E-04
  5.06433649E-03  1.47443164E-08  1.43948856E-09 -2.11622316E-04  4.88998011E-04
 -8.60492023E-02  6.58344242E-03 -1.28414848E-07  8.45811388E-04  1.95356107E-02
 -2.97698860E-03 -3.65632319E-08  2.53419259E-03 -2.61036357E-03 -6.58885238E-06
  1.31645561E-02  1.72915497E-08  7.65225608E-09  2.04071904E-02 -4.71804231E-02
  2.23458240E-01  1.46461904E-01  3.50601350E-07 -8.15260963E-02  7.89187750E-02
  2.38630008E-02  1.01802838E-07  1.23267415E-02 -5.01727657E-03  6.27162227E-04
  8.06094277E-04  2.70998259E-08  1.46440354E-08  1.44683409E-01  1.37281016E-01
  1.48703828E-03  1.41010350E-03 -1.43196292E-01 -1.35870427E-01 -1.44682251E-01
 -1.37279862E-01 -1.48962198E-03 -1.41260819E-03  1.43197620E-01  1.35871712E-01
 -1.16603742E-02  2.69577576E-02 -1.65867844E-01  2.83235055E-02 -6.66402801E-08
  4.65844770E-02 -2.75870502E-02  4.14794142E-02  2.38836908E-08  6.50920744E-03
 -1.06854584E-02 -3.58413944E-04  7.55463923E-03  1.64312647E-08 -1.45307793E-09
 -2.36871841E-02  5.47639761E-02  3.22421019E-02  3.04214023E-01  2.70815633E-07
  9.46285493E-02  1.04247817E-02  9.44125849E-02  9.15628138E-08  2.94796154E-03
 -1.14319858E-02 -7.27856137E-04 -1.94766196E-03  8.94360102E-09  1.03752314E-08
 -1.20276540E-02  2.78077283E-02  1.72112539E-01 -5.30118158E-03 -4.10085416E-07
  4.80492167E-02  3.72605336E-02  3.50274116E-02 -1.08916178E-07  2.75541042E-03
 -7.06321976E-03 -3.69517467E-04 -1.10360264E-02  9.60826478E-09  7.10587123E-09
  1.16602225E-02 -2.69575185E-02 -1.65871092E-01  2.83247890E-02 -9.55328789E-08
 -4.65830672E-02 -2.75873134E-02  4.14794361E-02 -1.34534212E-07 -6.50908037E-03
  1.06854653E-02  3.58395828E-04 -7.55483504E-03 -1.71262344E-08  1.24832495E-08
  2.36871229E-02 -5.47638146E-02  3.22447193E-02  3.04213577E-01 -5.98955569E-07
 -9.46283990E-02  1.04253636E-02  9.44125478E-02 -1.89840253E-07 -2.94795222E-03
  1.14319596E-02  7.27858937E-04  1.94760360E-03 -1.62890227E-09 -2.18097433E-08
  1.20278611E-02 -2.78080834E-02  1.72109453E-01 -5.30062152E-03  1.40810088E-07
 -4.80506338E-02  3.72603380E-02  3.50278200E-02 -2.58989249E-08 -2.75554487E-03
  7.06324626E-03  3.69539217E-04  1.10358259E-02  1.91699233E-08  1.89552523E-09
 -8.18135700E-02 -7.76282243E-02 -1.66208577E-01 -1.57706773E-01 -8.43921208E-02
 -8.00759584E-02  8.18159299E-02  7.76304775E-02  1.66208497E-01  1.57706637E-01
  8.43901810E-02  8.00740333E-02 -4.41906518E-08  9.16295618E-08 -1.53654017E-06
 -2.29360113E-06  2.22030813E-01  3.12604750E-08 -5.76820476E-07 -8.59474626E-07
  1.28828944E-01  1.15385795E-07 -1.01430308E-07 -2.04143128E-08  2.44058880E-08
 -7.71850811E-03  5.64813396E-03  1.59549609E-08  7.18570278E-08  1.35779141E-06
  1.64594368E-06  2.22030388E-01 -4.51659770E-07  5.54449937E-07  7.05728599E-08
  1.28829292E-01  9.48235176E-08 -1.98745424E-07  5.49576759E-08  7.35337886E-10
  1.03192057E-03  9.50838424E-03  5.55896879E-09 -1.04867709E-07 -4.25036258E-07
 -1.67724057E-06  2.22031100E-01  4.45423618E-07  3.34560136E-07 -4.59668377E-07
  1.28829398E-01  1.72716478E-07 -9.30158311E-08 -3.53931249E-08  8.59437396E-08
  8.75048188E-03  3.86044429E-03  3.65143576E-08 -8.34259237E-08  1.82423308E-06
  1.81646059E-06  2.22030576E-01  1.78904497E-09  8.37216059E-07  7.46535095E-07
  1.28828775E-01  7.51376632E-08 -7.61365433E-08  2.91891077E-09  3.44727451E-08
  7.71853905E-03 -5.64808868E-03 -6.61197351E-08  2.50389713E-07 -1.52873023E-06
 -1.15329418E-06  2.22030084E-01 -4.11223918E-07 -4.61648841E-07  1.82531924E-07
  1.28829076E-01  9.08972741E-08 -1.81166981E-07  3.20997171E-08  3.85178737E-08
 -1.03198627E-03 -9.50837467E-03  1.24919294E-07 -3.78055431E-07  1.04763710E-06
  1.96059175E-06  2.22031017E-01  1.07436970E-07 -1.96141245E-07  5.18202577E-07
  1.28829333E-01  1.85316609E-07 -8.40529715E-08 -2.54188758E-08  8.64389069E-08
 -8.75044361E-03 -3.86053152E-03  1.07280198E-07  1.22035241E-07 -1.42454453E-06
 -1.61444638E-06  1.19887721E-06  1.29660508E-06 -1.36809002E-07 -1.44149049E-07
 -1.19777419E-06 -1.37002305E-06  1.44181979E-06  1.64227282E-06 -5.05519669E-03
  2.06066778E-02 -1.82485403E-01  1.32603763E-01  4.94869544E-08 -2.52733534E-02
 -3.15928101E-02  2.27533625E-02  4.32934582E-08 -1.01231968E-02  1.35844409E-03
  1.11468195E-03  2.09908069E-02  1.77762813E-08  1.76826075E-08  2.51498481E-03
 -1.02529091E-02  2.19316236E-01 -1.36705317E-01 -5.87814560E-08  1.25768254E-02
  8.86938155E-02 -2.91115853E-02  2.26535631E-08 -5.21925882E-03  9.58025135E-03
 -5.54710257E-04  1.21531691E-02  1.59624543E-08  7.73020382E-09  2.53986395E-03
 -1.03534199E-02 -1.97347426E-01  1.66551878E-01  5.03153877E-07  1.26979700E-02
 -5.46347108E-02  7.53833349E-02  1.84078421E-07  2.25941994E-03  2.14403736E-03
 -5.60091985E-04  1.49129265E-02 -8.51132008E-09 -3.61500111E-08 -5.05512847E-03
  2.06065252E-02  1.82484973E-01 -1.32604443E-01 -3.86622384E-07 -2.52735969E-02
  3.15924326E-02 -2.27539247E-02 -1.48724381E-07 -1.01234966E-02  1.35875188E-03
  1.11468519E-03  2.09907063E-02 -6.90842246E-10 -4.72530680E-08  2.51531395E-03
 -1.02537295E-02 -2.19315886E-01  1.36709098E-01 -5.41976359E-07  1.25754887E-02
 -8.86938033E-02  2.91131833E-02 -2.44503329E-07 -5.21931217E-03  9.58032468E-03
 -5.54716042E-04  1.21533561E-02  5.36711477E-09 -1.61701459E-08  2.54035790E-03
 -1.03545849E-02  1.97350655E-01 -1.66550630E-01  3.69441698E-07  1.26961671E-02
  5.46360830E-02 -7.53829219E-02  1.42277520E-07  2.25937608E-03  2.14412987E-03
 -5.60091430E-04  1.49130693E-02  1.83075417E-08  4.29800581E-09 -1.70729784E-01
 -1.95195264E-01  8.49516675E-02  9.71257965E-02  8.57770791E-02  9.80690498E-02
 -1.70729900E-01 -1.95195334E-01  8.49534658E-02  9.71278973E-02  8.57785400E-02
  9.80707981E-02  1.42444977E-05 -5.78678162E-05 -1.57972086E-01 -2.16947015E-01
 -2.53795063E-06  7.14128371E-05 -6.20813254E-02 -8.50214398E-02 -1.51375533E-06
  9.57952224E-03 -9.55490997E-03 -3.08461116E-06  3.44234381E-03  9.40586420E-08
 -4.71018057E-08 -4.38524619E-03  1.78755963E-02  1.53869188E-01  1.80117898E-01
 -1.87231463E-06 -2.19222781E-02  5.57207126E-02  2.79208313E-02 -1.20659764E-06
  1.34194028E-02 -2.10221334E-02  9.66962441E-04  1.52676769E-03 -2.32536880E-08
 -9.89457173E-08  4.37096540E-03 -1.78175816E-02 -1.24023702E-01 -2.02085791E-01
 -1.59025680E-06  2.18522798E-02 -9.44940601E-03 -6.19789246E-02 -1.13513556E-06
  1.86199297E-02 -1.10416866E-02 -9.63797289E-04  1.01380220E-02 -1.26434422E-07
 -6.32189060E-08  1.45379222E-05 -5.86256641E-05  1.57968759E-01  2.16949425E-01
 -2.22700944E-06  7.00704943E-05  6.20798562E-02  8.50223670E-02 -1.31704104E-06
  9.57957494E-03 -9.55496844E-03 -3.09235095E-06  3.44222039E-03 -7.64913117E-08
  5.47509750E-08 -4.38502311E-03  1.78750580E-02 -1.53868359E-01 -1.80116509E-01
 -1.67543226E-06 -2.19231440E-02 -5.57201016E-02 -2.79203024E-02 -1.14969498E-06
  1.34193294E-02 -2.10220582E-02  9.66962723E-04  1.52648931E-03  2.27774185E-08
  1.30106160E-07  4.37061723E-03 -1.78167658E-02  1.24021901E-01  2.02084530E-01
 -1.84318510E-06  2.18535528E-02  9.44880400E-03  6.19781277E-02 -1.22151990E-06
  1.86197408E-02 -1.10415381E-02 -9.63800238E-04  1.01381601E-02  1.13435332E-07
  7.78594198E-08  4.75383259E-04  5.43866549E-04 -1.48095108E-01 -1.69317609E-01
  1.47618829E-01  1.68773389E-01  4.77280703E-04  5.46151484E-04 -1.48094614E-01
 -1.69316908E-01  1.47617944E-01  1.68772291E-01  1.20809048E-07 -3.07011437E-07
  3.87008028E-07  1.97219819E-07 -2.41813852E-01 -2.37342938E-07  1.88786477E-08
  4.05832697E-07 -1.73599204E-01  2.11841156E-08  2.45786938E-09 -3.79522121E-09
  2.89074526E-08 -4.97867000E-03 -1.27375456E-02 -2.67556264E-08  7.90387938E-08
 -1.68916874E-07 -9.97088971E-08  8.58814669E-02 -1.23172112E-07  1.02227003E-09
 -2.71668222E-07  6.16546258E-02 -4.32437557E-08  2.66273420E-08  1.17345833E-08
  2.50507114E-09 -1.79630100E-02  3.20140268E-03  2.40148590E-09  3.11373424E-08
  1.00263856E-06  1.97782117E-07  3.27692547E-01  1.18353013E-07  7.68944299E-07
  1.35753453E-07  2.35252407E-01 -8.61784161E-09  3.14400738E-08 -1.07728935E-08
 -4.82819645E-09  2.33263347E-03  6.47671477E-03 -4.14961621E-08  1.28145393E-07
  3.78196524E-07 -8.88115799E-08  2.41812269E-01  2.06176894E-08  1.77900311E-07
  1.15905040E-07  1.73598304E-01 -2.11259037E-08  1.01841122E-09  1.55281809E-08
 -3.94991558E-08 -4.97859921E-03 -1.27374336E-02  5.35625984E-08 -1.34284176E-07
 -1.02425841E-07 -4.59020286E-08 -8.58794012E-02 -2.33804753E-08  8.77272266E-08
 -2.81338926E-07 -6.16534918E-02  2.46061613E-08  5.05556354E-09 -1.33494490E-08
  5.14116364E-09 -1.79629583E-02  3.20138200E-03 -1.15328511E-08  2.28531249E-08
  8.02660751E-07 -4.58466435E-08 -3.27693020E-01 -3.19601195E-07  7.56279228E-07
  7.20491010E-08 -2.35252627E-01  7.63428735E-09 -2.58099386E-08  6.17798818E-09
  6.34908619E-09  2.33255707E-03  6.47690524E-03  2.44316414E-08  1.97202682E-07
  1.47419487E-07  8.90905960E-08 -1.55877239E-07 -1.65819131E-07  5.31378180E-08
 -2.50787465E-08  2.03571385E-08  1.28083283E-07  1.08468961E-07  6.08510892E-08
  1.71888743E-08 -2.17213664E-08 -1.59285953E-07 -3.76340876E-07  2.38775564E-01
 -4.02637818E-07  6.68386889E-08 -3.37234196E-07  1.71419362E-01  1.32369375E-08
  2.00017952E-08 -2.49725307E-08  1.18139372E-08 -1.06978501E-02 -8.76055130E-03
  7.33211218E-08 -2.08018826E-07 -8.44375183E-08 -4.03410069E-07  3.28804061E-01
 -6.40095252E-09  3.99042937E-08  1.84060188E-08  2.36051244E-01 -3.02898892E-08
 -4.58676871E-09  3.33655040E-08 -1.01474393E-08  5.24073304E-03  4.22356645E-03
  5.59342808E-08 -1.06555014E-07  2.84744890E-07 -1.20715494E-07  9.00282358E-02
 -4.54819417E-07  1.09261654E-07 -1.18635864E-07  6.46322077E-02 -1.44723374E-09
  2.51938965E-08 -1.31205302E-08 -3.06467041E-08  8.51624505E-03 -1.60720487E-02
 -9.63218987E-08  2.10357409E-07 -3.07315151E-07  4.58754176E-08 -2.38777219E-01
  4.79920565E-07 -2.93469861E-07 -1.05658111E-08 -1.71420262E-01  1.51343472E-08
 -2.99789885E-08  2.92809689E-09 -4.66538563E-08 -1.06979422E-02 -8.76062858E-03
  3.16952908E-08 -3.85729253E-08  2.27700824E-07 -8.17576795E-07 -3.28804618E-01
 -1.55511896E-07  1.02203389E-07 -5.41209441E-07 -2.36051482E-01  4.55689433E-08
 -2.46426463E-08 -9.01039343E-09 -7.94163094E-09  5.24091443E-03  4.22356648E-03
 -5.84208439E-08  1.21059480E-07  1.94124767E-08  2.75118338E-07 -9.00265777E-02
  4.03265105E-07  2.46984487E-08  3.49473274E-08 -6.46314032E-02  8.73807044E-09
 -3.18041515E-08  1.21437182E-08  2.09624435E-08  8.51621987E-03 -1.60719929E-02
  1.32069537E-08 -1.62523633E-08  9.74921324E-08  2.16216030E-07 -9.13637740E-08
 -1.02804543E-07  1.69547046E-07  1.35992436E-07 -2.12398300E-07 -2.30619758E-07
  7.12665826E-08  6.60685918E-08 -4.14794494E-08  1.62526869E-07  1.23048107E-07
  3.27783974E-07 -3.04555834E-01  1.41903954E-07  5.08035865E-07  5.64312218E-07
 -4.04983430E-01  3.17996742E-09  3.18252565E-08 -2.98669330E-08  4.31498319E-08
 -1.71009223E-02 -7.94481011E-03  7.92480239E-08 -1.26393225E-07  5.71931521E-08
 -3.64163296E-07  3.26034241E-01 -6.35196187E-07  4.28159759E-07 -3.42218079E-07
  4.33544618E-01  3.33749466E-08  8.01553165E-09 -2.09224466E-08  1.25545418E-08
 -1.44225955E-02 -8.24327494E-03 -9.76725481E-08  2.60844067E-07  5.62304882E-08
 -4.00357355E-08 -2.14796696E-02  6.07539244E-07 -4.27835187E-08 -5.42641178E-07
 -2.85623820E-02 -1.96554545E-08  4.11005576E-08 -3.09328762E-08 -5.44343916E-08
  1.26803599E-02 -2.71510072E-02 -1.16398510E-07  2.57712348E-07 -4.47992096E-07
 -1.01667110E-07 -3.04556185E-01  9.24337913E-07 -8.75143126E-07 -1.35075020E-07
 -4.04984488E-01 -2.74741746E-08  3.92195098E-08 -2.94246284E-08  5.11862096E-08
  1.71010169E-02  7.94492732E-03 -1.53230295E-09 -1.17074121E-08 -2.75307152E-08
  7.53736380E-07  3.26034556E-01  1.00139683E-07 -5.22439852E-07  9.81730191E-07
  4.33545491E-01  2.84081197E-08 -1.16483056E-08 -2.05687875E-08 -8.68727894E-09
  1.44227385E-02  8.24325128E-03 -9.70838439E-08  2.56471395E-07 -2.47299985E-08
 -6.41907600E-08 -2.14778538E-02  6.53259773E-07 -3.62327156E-08  5.88379009E-07
 -2.85590575E-02 -2.99004607E-08  5.25305727E-08 -3.15468912E-08 -4.22797302E-08
 -1.26803106E-02  2.71510221E-02 -4.02884300E-08 -3.80632733E-07  1.09601985E-07
  2.30028559E-07 -2.09504722E-07 -8.56124334E-07 -3.18035638E-07 -1.09224171E-06
 -1.71586014E-07 -5.17907027E-07 -2.03303717E-07 -8.27794274E-07  1.72077402E-07
 -4.56975825E-07  3.74917612E-07  2.83455839E-07 -2.00636920E-01 -5.38065939E-07
 -1.89577771E-07  1.11645414E-06 -2.66800122E-01  1.42812067E-08 -1.26396275E-08
  2.94347746E-08 -8.81699093E-08  9.95685476E-03  2.37689547E-02 -9.36651876E-09
  7.29133401E-08 -8.57463956E-08  2.55573425E-07 -1.63435376E-01 -9.20923557E-07
  4.62737071E-07 -4.63912158E-07 -2.17330417E-01 -7.58376621E-08  4.16637317E-08
  2.63169728E-08  1.61414267E-08 -2.61450379E-02  7.75473004E-03  8.26920069E-08
 -2.48609332E-07  9.51020842E-07  7.65164035E-08  3.64071324E-01  3.85629702E-07
  2.19089214E-06  2.22352502E-07  4.84126819E-01  1.94880674E-08 -1.74640191E-08
  1.97192537E-08  5.66172757E-09 -9.24939549E-03 -6.01221423E-03  6.87410289E-08
 -1.24257284E-07 -3.64487494E-07 -9.33488647E-08 -2.00635991E-01 -1.41959561E-06
 -9.94055941E-07  2.18704706E-09 -2.66798053E-01  1.69538258E-09 -3.34388387E-08
  3.30252874E-08 -1.01364969E-07 -9.95683265E-03 -2.37688477E-02  8.34149728E-08
 -2.46119517E-07  2.40012948E-07 -3.16364646E-07 -1.63434171E-01  6.36650865E-08
 -4.43434047E-07 -1.07508587E-06 -2.17327945E-01 -4.76565221E-08  4.33255793E-08
  2.29443212E-08  1.00470080E-08  2.61449702E-02 -7.75466954E-03  4.44387378E-08
 -3.30553874E-08 -8.19485578E-07 -2.22247961E-08  3.64071324E-01 -1.12157239E-06
 -7.60215026E-07  4.22481282E-07  4.84126900E-01  5.52325850E-09 -3.30332718E-08
  3.18618071E-08  9.03551820E-09  9.24934161E-03  6.01232595E-03  3.63165418E-07
  1.56688064E-06  1.23125208E-07  3.05844633E-07  2.64892710E-07  1.18342131E-06
  2.11702642E-07  6.86482997E-07  2.33553333E-07  1.07945490E-06  1.76347864E-07
  4.87752361E-07  3.92296130E-02 -6.77865778E-02 -1.02143177E-01  7.47434783E-02
 -1.71900242E-07 -5.12078701E-01 -2.26980913E-01  1.66098774E-01 -2.72326676E-08
  8.64380416E-03 -1.03426660E-03  1.33829322E-04 -1.76027452E-02 -3.45543038E-08
 -5.90852549E-08  3.92292977E-02 -6.77849455E-02  1.36565032E-02  1.25829881E-01
  7.97162647E-07 -5.12081220E-01  3.03508587E-02  2.79612169E-01  1.44969558E-06
 -1.18169738E-02  1.94257697E-02  1.33871324E-04  3.96232784E-03  3.46135907E-08
 -3.37459247E-08  3.92300278E-02 -6.77864801E-02  1.15801250E-01  5.10873891E-02
 -1.10275988E-06 -5.12087706E-01  2.57332336E-01  1.13520626E-01 -2.14576674E-06
  1.45870965E-02 -6.97788207E-03  1.33849965E-04  1.36401079E-02  2.04258717E-08
 -3.25872292E-08  3.92295674E-02 -6.77865187E-02  1.02143407E-01 -7.47426656E-02
  5.76856240E-08 -5.12077766E-01  2.26981932E-01 -1.66096771E-01 -2.22835333E-07
  8.64385742E-03 -1.03432101E-03  1.33823870E-04 -1.76027233E-02  2.39156400E-08
  7.64585811E-08  3.92292163E-02 -6.77847543E-02 -1.36573480E-02 -1.25829475E-01
  5.53349319E-07 -5.12080581E-01 -3.03526136E-02 -2.79610851E-01  1.61561088E-06
 -1.18169739E-02  1.94257536E-02  1.33874440E-04  3.96239592E-03 -2.86335224E-08
  1.44809530E-08  3.92300032E-02 -6.77864614E-02 -1.15800683E-01 -5.10882381E-02
 -4.74046043E-07 -5.12087176E-01 -2.57331648E-01 -1.13522017E-01 -1.50883889E-06
  1.45870467E-02 -6.97783082E-03  1.33845278E-04  1.36401644E-02 -1.17597803E-08
  3.60977241E-08  6.00987720E-02  7.31194277E-01  6.00986994E-02  7.31186666E-01
  6.00985975E-02  7.31194210E-01  6.00987580E-02  7.31193256E-01  6.00987018E-02
  7.31184919E-01  6.00985966E-02  7.31193775E-01 -3.17119080E-02  3.13397472E-02
  1.74031608E-01 -1.08573743E-01  1.13645093E-06  7.91303427E-01  3.26262474E-01
 -3.91235298E-01  1.22094031E-06  3.49838996E-03 -3.54951477E-03 -2.96108173E-03
  1.05002716E-02  5.64584331E-08 -1.92061852E-08  3.32979148E-03 -3.28963401E-03
  2.85177384E-02  1.85158093E-02 -1.11454904E-06 -8.30953591E-02 -2.07234289E-01
  7.47152292E-02 -1.42228553E-06 -3.05755222E-03  3.06307255E-03  3.11059535E-04
 -1.17895165E-02 -4.39651108E-09  3.84407543E-08  3.50430280E-02 -3.46309382E-02
  2.11336797E-01  8.09887543E-02  6.31018671E-07 -8.74429896E-01  4.63032875E-01
  3.03759540E-01  7.40897477E-07  2.35332496E-03 -2.29692744E-03  3.27222134E-03
  1.06809848E-02 -7.45135809E-08 -5.62409487E-08  3.17126049E-02 -3.13409533E-02
  1.74030555E-01 -1.08574398E-01 -1.46190835E-06 -7.91313616E-01  3.26261927E-01
 -3.91238220E-01 -2.37175996E-06 -3.49804294E-03  3.54925906E-03  2.96109849E-03
 -1.05000379E-02  5.09211878E-08 -1.21695307E-08 -3.33135180E-03  3.29236012E-03
  2.85177013E-02  1.85154661E-02  1.21077369E-06  8.31176562E-02 -2.07232206E-01
  7.47193647E-02  1.78713725E-06  3.05722099E-03 -3.06295053E-03 -3.11096555E-04
  1.17895849E-02  1.33809950E-08  7.81015769E-08 -3.50421477E-02  3.46293929E-02
  2.11337032E-01  8.09878131E-02 -7.15047856E-07  8.74417612E-01  4.63032135E-01
  3.03753356E-01 -7.67484307E-07 -2.35309193E-03  2.29681592E-03 -3.27220188E-03
 -1.06813598E-02 -5.24687251E-08 -2.84897806E-08 -3.71418520E-02 -1.00551621E+00
  3.90098990E-03  1.05600337E-01  4.10424776E-02  1.11112037E+00  3.71416964E-02
  1.00552090E+00 -3.90076762E-03 -1.05612663E-01 -4.10425137E-02 -1.11111247E+00
  2.21556686E-02 -2.18963678E-02 -1.02527753E-01  1.01891468E-01  1.62287210E-06
 -5.52842675E-01 -3.82740084E-01  6.17818682E-02  2.61247504E-06  9.96000573E-03
 -9.92432496E-03  2.06871014E-03 -2.78902172E-03  8.53932854E-08 -5.46477524E-08
  3.85407018E-02 -3.80861805E-02  2.45629292E-02  2.47406674E-01 -1.42573042E-06
 -9.61724290E-01  8.32272399E-02  5.95268216E-01 -2.53589172E-06 -8.79467883E-03
  8.85646908E-03  3.59901274E-03  3.32423525E-03  2.48658674E-08  9.89498672E-08
  1.63856791E-02 -1.61926875E-02  8.70363055E-02  6.45872340E-02  1.24057030E-06
 -4.08868068E-01  3.12272491E-01 -7.50003208E-02  1.59426242E-06  9.79886920E-03
 -9.77234338E-03  1.53010109E-03 -4.17359043E-03 -9.10408933E-08 -1.78392203E-08
 -2.21544688E-02  2.18942783E-02 -1.02527577E-01  1.01892418E-01 -1.23426746E-06
  5.52825297E-01 -3.82735642E-01  6.17826273E-02 -1.20641483E-06 -9.96025336E-03
  9.92472536E-03 -2.06867586E-03  2.78916726E-03  3.84267367E-08 -4.30720972E-08
 -3.85403772E-02  3.80855893E-02  2.45616396E-02  2.47406785E-01  9.47162485E-07
  9.61719801E-01  8.32222061E-02  5.95267518E-01  8.13126134E-07  8.79469058E-03
 -8.85643257E-03 -3.59900110E-03 -3.32472241E-03  8.31809304E-09  7.78678001E-08
 -1.63873788E-02  1.61956667E-02  8.70365814E-02  6.45869041E-02 -1.28525827E-06
  4.08892037E-01  3.12278352E-01 -7.49995504E-02 -1.62683898E-06 -9.79874531E-03
  9.77197981E-03 -1.53013584E-03  4.17364982E-03 -6.53785376E-08 -4.38729647E-08
  2.59482607E-02  7.02489110E-01  4.51388499E-02  1.22203698E+00  1.91913958E-02
  5.19561887E-01 -2.59485483E-02 -7.02480077E-01 -4.51389460E-02 -1.22203396E+00
 -1.91913575E-02 -5.19576913E-01  6.03322078E-08 -4.51782681E-07  1.14456381E-07
  4.73838647E-07  2.91769680E-01  2.51611971E-06  4.28568657E-09  5.33364166E-06
  5.40129108E-01 -1.06483911E-08  7.72922208E-09  4.38486507E-09 -2.02290444E-08
  1.36417757E-02 -9.98243921E-03 -5.27383985E-07  7.30719879E-07 -3.02501783E-07
 -1.20936925E-06 -2.91769845E-01  8.24768675E-06  4.13137116E-07 -6.69193861E-06
 -5.40127949E-01 -1.66130759E-07 -4.26735871E-08  8.25569305E-08  5.61933477E-08
  1.82395200E-03  1.68052023E-02  1.08833384E-07 -7.51479879E-07 -3.50538748E-07
  4.24607092E-08  2.91770297E-01  5.70894597E-06  1.67862650E-06  2.84499630E-06
  5.40130366E-01 -2.15832132E-08  3.06460979E-08  2.03493415E-08 -2.05137765E-08
 -1.54658553E-02 -6.82296354E-03 -2.43255509E-07  5.85650180E-07 -4.14530043E-07
  3.35279692E-07 -2.91769934E-01  2.88566146E-07 -1.84666462E-06  5.19594564E-06
 -5.40129747E-01  7.23690118E-09 -9.05561141E-08  1.60601009E-08 -2.28526034E-08
  1.36418693E-02 -9.98233294E-03  3.67743322E-07 -6.35424299E-07  1.67221420E-07
 -9.58201236E-07  2.91770179E-01 -5.77920701E-06  1.78635031E-06 -5.61043755E-06
  5.40128828E-01  8.72521498E-08  3.88558739E-08 -6.19316439E-08 -1.41143113E-08
  1.82405582E-03  1.68051825E-02  3.61380494E-07 -1.96850734E-07 -1.18786504E-06
 -3.09797846E-07 -2.91770413E-01 -1.23346434E-05 -1.89801011E-06  1.31583841E-06
 -5.40130657E-01  9.31283607E-10  3.20985343E-09  5.14523892E-09 -1.22833668E-08
 -1.54658556E-02 -6.82299253E-03  1.29767123E-08  2.53209575E-06 -2.66710779E-07
 -1.07481757E-05  4.19487476E-07 -8.22997831E-07 -3.78456024E-07 -4.35566648E-06
 -7.93425231E-08  9.24521430E-06 -2.40060930E-07  7.99156272E-06  6.82104221E-02
 -1.01748246E-01 -4.31951797E-02  9.75749669E-02  2.63068979E-08 -1.21264186E+00
 -1.71067568E-01  4.71085338E-01  6.00338654E-08  7.93962282E-03 -1.20495172E-03
  2.42268280E-03  1.09328917E-02 -3.70849627E-09 -1.53625738E-08 -8.37942158E-02
  1.24994093E-01  1.57684538E-02 -1.15988411E-01  3.80054816E-07  1.48968646E+00
  9.17879699E-02 -5.24312849E-01  8.99553485E-07 -1.41254082E-02  5.85203491E-03
 -2.97622095E-03 -1.98825493E-03  5.07981039E-09 -1.52409879E-08  1.55831328E-02
 -2.32449732E-02 -1.35357257E-02  8.30247168E-02 -1.88511822E-07 -2.77035072E-01
 -8.53368055E-02  4.29037158E-01 -4.59647755E-07  7.75189826E-03 -6.21326546E-03
  5.53490075E-04 -1.00888747E-02  6.89798546E-10 -1.88757636E-08  6.82100333E-02
 -1.01748100E-01  4.31946798E-02 -9.75725315E-02 -1.72624193E-07 -1.21262487E+00
  1.71073755E-01 -4.71075969E-01 -3.16554229E-07  7.93966234E-03 -1.20496306E-03
  2.42267045E-03  1.09329738E-02 -1.63923816E-08  1.50293925E-08 -8.37941288E-02
  1.24994311E-01 -1.57666536E-02  1.15987917E-01 -2.23640423E-07  1.48967744E+00
 -9.17744803E-02  5.24314718E-01 -5.11731708E-07 -1.41254693E-02  5.85205672E-03
 -2.97620740E-03 -1.98831702E-03  1.83459882E-09  4.23122083E-09  1.55838658E-02
 -2.32459812E-02  1.35333986E-02 -8.30261242E-02  9.14732425E-09 -2.77053708E-01
  8.53284900E-02 -4.29043214E-01  1.38295831E-08  7.75196565E-03 -6.21317021E-03
  5.53433409E-04 -1.00888328E-02  1.93334938E-08  4.92977541E-09  1.22691420E-02
  9.62976402E-01 -1.50729514E-02 -1.18298684E+00  2.80363047E-03  2.19998147E-01
  1.22692092E-02  9.62966728E-01 -1.50730191E-02 -1.18298568E+00  2.80387481E-03
  2.20017539E-01  5.73751737E-02 -8.55848628E-02 -1.00151479E-01 -5.13356235E-03
  7.42539228E-07 -1.02001507E+00 -4.78541638E-01 -6.10560728E-02  1.60264052E-06
 -7.29633302E-03  1.29610369E-02  2.03801869E-03  4.07398716E-03  1.44525868E-08
  4.42637219E-09  3.03838840E-02 -4.53231214E-02  8.17362836E-02  3.25631714E-02
 -6.91205319E-07 -5.40159550E-01  4.25303129E-01  1.40332200E-01 -1.95706167E-06
  2.56113199E-03  4.38630432E-04  1.07928254E-03 -1.27394082E-02  1.74202628E-08
  7.04408759E-08 -8.77592199E-02  1.30907826E-01 -1.14700133E-01 -3.47976361E-02
  9.19057754E-07  1.56019071E+00 -5.20589344E-01 -1.46784119E-01  2.59817538E-06
  3.74404735E-03 -1.24085969E-02 -3.11717958E-03  6.85738982E-03 -4.73136896E-08
 -2.03935217E-08  5.73757048E-02 -8.55852328E-02  1.00154729E-01  5.13302585E-03
 -7.43736183E-07 -1.02003446E+00  4.78550703E-01  6.10606891E-02 -2.14518870E-06
 -7.29623254E-03  1.29609147E-02  2.03802975E-03  4.07391168E-03  6.35783397E-08
 -4.89336911E-08  3.03847071E-02 -4.53242206E-02 -8.17372951E-02 -3.25665117E-02
  6.41016936E-07 -5.40180300E-01 -4.25308145E-01 -1.40342454E-01  1.45085183E-06
  2.56115464E-03  4.38721115E-04  1.07924726E-03 -1.27392810E-02  6.12740276E-09
  1.79511639E-08 -8.77592422E-02  1.30908099E-01  1.14699560E-01  3.47988920E-02
 -4.07417993E-07  1.56018666E+00  5.20586726E-01  1.46796396E-01 -6.23297239E-07
  3.74411437E-03 -1.24086937E-02 -3.11717095E-03  6.85732337E-03 -3.17412799E-08
 -1.86409247E-08  1.03207818E-02  8.10020620E-01  5.46449371E-03  4.28942023E-01
 -1.57854444E-02 -1.23897139E+00  1.03207843E-02  8.10036481E-01  5.46473220E-03
  4.28964382E-01 -1.57855323E-02 -1.23897251E+00 -5.50563169E-02  1.59994416E-01
  6.21448096E-02 -4.54793514E-02  5.04786794E-07 -2.09262276E-01  1.00388930E+00
 -7.34605887E-01  1.82792824E-06 -9.27152930E-03 -1.39342825E-02  7.57338794E-03
 -8.48052064E-03  3.87585807E-08 -3.83416505E-08  5.50570419E-02 -1.59995086E-01
  8.30919017E-03  7.65618788E-02 -7.74870237E-07  2.09246712E-01  1.34225807E-01
  1.23670072E+00 -8.53742374E-07  1.91292540E-02  4.07659349E-03 -7.57334115E-03
 -1.90884567E-03 -8.22183024E-09  8.74506705E-08 -5.50563107E-02  1.59994051E-01
 -7.04587147E-02 -3.10834191E-02  1.17661139E-06 -2.09260805E-01 -1.13813204E+00
 -5.02101859E-01  4.14363370E-06 -6.40833183E-03 -1.67973789E-02  7.57331851E-03
  6.57151643E-03 -3.59413825E-08 -2.42625712E-08  5.50563107E-02 -1.59994492E-01
  6.21454816E-02 -4.54780795E-02 -9.49520340E-07  2.09263319E-01  1.00389895E+00
 -7.34592673E-01 -2.63435850E-06  9.27158726E-03  1.39342223E-02 -7.57339591E-03
  8.48054837E-03  9.15895453E-09 -3.72919103E-08 -5.50568547E-02  1.59994858E-01
  8.31009220E-03  7.65612413E-02  3.54514031E-07 -2.09252564E-01  1.34239699E-01
  1.23669729E+00  1.26367601E-07 -1.91292633E-02 -4.07658641E-03  7.57335037E-03
  1.90876697E-03  1.17537998E-08  1.11649098E-07  5.50561153E-02 -1.59993845E-01
 -7.04580245E-02 -3.10839140E-02 -9.37453293E-07  2.09264781E-01 -1.13812557E+00
 -5.02113690E-01 -2.73209843E-06  6.40832073E-03  1.67973699E-02 -7.57333303E-03
 -6.57148680E-03  3.00303928E-08  5.51405625E-09 -4.76942609E-02 -1.21837787E+00
  4.76939488E-02  1.21838824E+00 -4.76949913E-02 -1.21838423E+00  4.76941714E-02
  1.21837721E+00 -4.76937842E-02 -1.21838354E+00  4.76948972E-02  1.21838118E+00
  5.84097788E-02 -6.56222882E-02  1.76356249E-01 -1.15842954E-01 -1.52188770E-08
 -1.55091585E+00  1.29214216E+00 -3.10918527E-01  8.96144864E-07  2.16848595E-02
 -1.61637829E-02  8.15432711E-04  7.16768086E-03  3.89689968E-08 -4.59992356E-08
 -6.71321056E-02  7.54241869E-02  3.30815416E-02  2.40039751E-01  4.07179784E-07
  1.78250866E+00  4.85629045E-01  1.36511625E+00  2.40670718E-06 -6.18545910E-03
 -1.59607924E-04 -9.36926225E-04 -1.46577092E-02 -1.51568135E-08 -2.57121971E-08
  8.72070802E-03 -9.79784343E-03 -3.59042233E-02  3.40907618E-03  1.22425471E-07
 -2.31517932E-01 -5.09634744E-01  7.01401599E-01  4.25370026E-07  2.47371588E-02
 -2.39119774E-02  1.21726728E-04 -2.56788620E-02 -4.23625174E-08  3.93572761E-09
  5.84063917E-02 -6.56189180E-02 -1.76339940E-01  1.15861471E-01  3.38598466E-07
 -1.55080325E+00 -1.29205220E+00  3.11030985E-01  4.12427472E-07  2.16836110E-02
 -1.61628210E-02  8.15465393E-04  7.16468463E-03  9.63076612E-09  2.05304977E-08
 -6.71298772E-02  7.54219487E-02 -3.30531280E-02 -2.40041329E-01  8.00898333E-07
  1.78243618E+00 -4.85463403E-01 -1.36512945E+00  2.06400625E-06 -6.18353723E-03
 -1.61318061E-04 -9.36961292E-04 -1.46556893E-02 -5.44790919E-10 -2.19511727E-08
  8.72592635E-03 -9.80281421E-03  3.59087708E-02 -3.41104244E-03  9.72803563E-08
 -2.31696551E-01  5.09652537E-01 -7.01418083E-01  3.05521913E-07  2.47352269E-02
 -2.39095589E-02  1.21668909E-04 -2.56820954E-02  3.24043522E-08  1.88677827E-08
 -1.55711167E-02 -7.71252862E-01  1.78946125E-02  8.86456139E-01 -2.31577264E-03
 -1.15222233E-01 -1.55619350E-02 -7.71270855E-01  1.78887848E-02  8.86466918E-01
 -2.33058080E-03 -1.15196961E-01  4.37927644E-02 -4.91996753E-02  1.19136869E-01
 -1.04753061E-01 -5.48436266E-08 -1.16280097E+00  3.38845953E-01 -1.09411601E+00
  1.42896218E-07 -2.32869566E-02  2.74261326E-02  6.11627705E-04 -9.12283327E-03
 -3.72850522E-08 -4.20879753E-09  2.86831227E-02 -3.22246344E-02  5.04440084E-03
 -1.04645447E-01 -1.56812995E-07 -7.61591833E-01  7.15314654E-01 -6.83473447E-01
 -4.07979850E-07 -5.10416735E-03  7.81529909E-03  4.00671475E-04 -3.44498707E-02
  1.83510524E-08 -2.00903243E-08 -7.24804104E-02  8.14321243E-02  2.38393264E-01
  1.07502637E-01 -8.95527327E-07  1.92454394E+00  1.35118037E+00  7.07668782E-01
 -3.16307294E-06 -3.35532559E-04 -6.51455158E-03 -1.01195971E-03 -2.88770189E-03
 -1.84840394E-08  1.51777691E-08  4.37964727E-02 -4.92033751E-02 -1.19128034E-01
  1.04768837E-01  2.53768661E-07 -1.16292612E+00 -3.38787742E-01  1.09420480E+00
  9.24248555E-07 -2.32888511E-02  2.74282799E-02  6.11615177E-04 -9.12063420E-03
  2.96017687E-08  1.92894621E-08  2.86876801E-02 -3.22290788E-02 -5.05280119E-03
  1.04649242E-01 -3.64206689E-07 -7.61746853E-01 -7.15366520E-01  6.83486615E-01
 -1.29391367E-06 -5.10116913E-03  7.81266896E-03  4.00639694E-04 -3.44513608E-02
 -1.67563975E-08 -9.62106585E-09 -7.24794575E-02  8.14312163E-02 -2.38403577E-01
 -1.07477515E-01 -6.75190079E-07  1.92451235E+00 -1.35124268E+00 -7.07522458E-01
 -1.88254020E-06 -3.37346222E-04 -6.51262879E-03 -1.01197778E-03 -2.88667029E-03
  2.89986186E-08 -6.80917733E-09 -1.16683113E-02 -5.78315957E-01 -7.64067575E-03
 -3.78783530E-01  1.93190046E-02  9.57081766E-01 -1.16790111E-02 -5.78294442E-01
 -7.65370342E-03 -3.78759167E-01  1.93165855E-02  9.57086008E-01 -2.50153871E-02
  2.08689018E-02 -1.69583355E-01 -1.93461805E-01  2.89270424E-07  9.41997416E-01
 -1.08749438E+00 -1.32349555E+00 -8.72190379E-07 -1.54747742E-02  1.34725554E-02
  2.38149429E-04 -2.54546159E-02 -4.34504400E-09 -7.03596229E-08  2.68291062E-02
 -2.23831283E-02 -2.51520754E-01  2.90394257E-03 -6.45532077E-07 -1.01028964E+00
 -1.67221695E+00  7.78608801E-02 -1.86846231E-06  2.27853254E-02 -2.06377116E-02
 -2.55689069E-04  1.81288870E-02  1.57868148E-08  3.41187428E-08  5.18501430E-02
 -4.32574459E-02 -4.05071513E-02 -2.43266656E-02  8.32164098E-07 -1.95248751E+00
 -1.66357168E-01 -1.16420005E-01  2.50596884E-06 -2.15103979E-02  2.56603465E-02
 -4.93364515E-04 -2.90313793E-02  3.13812665E-08  8.81425500E-08  2.50223896E-02
 -2.08760875E-02 -1.69600504E-01 -1.93448589E-01 -3.95095310E-07 -9.42209512E-01
 -1.08763757E+00 -1.32344134E+00 -4.21146080E-08  1.54763860E-02 -1.34736862E-02
 -2.37953119E-04  2.54551293E-02  1.61102066E-08 -1.06699094E-07 -2.68355784E-02
  2.23897951E-02 -2.51522493E-01  2.88406217E-03  5.37035737E-07  1.01048633E+00
 -1.67228384E+00  7.77315812E-02  9.13975445E-07 -2.27859420E-02  2.06379193E-02
  2.55483013E-04 -1.81309508E-02  2.73198844E-08 -5.78872871E-09 -5.18506803E-02
  4.32579986E-02 -4.05084658E-02 -2.43278004E-02 -7.18632028E-07  1.95250349E+00
 -1.66326552E-01 -1.16517517E-01 -1.51268890E-06  2.15128714E-02 -2.56628472E-02
  4.93343649E-04  2.90287741E-02  6.30229155E-09  7.75751659E-08  6.76868935E-02
 -7.84975354E-02 -7.25905788E-02  8.41720990E-02 -1.40281683E-01  1.62622826E-01
 -6.76881286E-02  7.84083300E-02  7.25920380E-02 -8.40905740E-02  1.40281870E-01
 -1.62616362E-01 -4.54288619E-02  3.78998045E-02  5.01936374E-02  1.38155592E-01
 -2.54727111E-07  1.71068306E+00  4.15382027E-01  8.63271894E-01 -7.35528547E-07
  1.80630542E-02 -2.16990522E-02  4.31978087E-04 -2.92991799E-02 -6.51259924E-08
 -4.81321545E-08 -4.43824764E-02  3.70284203E-02 -1.46152438E-01  5.62345412E-02
  5.06327474E-07  1.67126796E+00 -9.85943037E-01  2.78575911E-01  2.48724916E-06
 -2.79986499E-02  2.44466053E-02  4.22078136E-04  2.09437054E-02  4.89818235E-08
  2.72442787E-09  1.05078576E-03 -8.76326043E-04 -1.18940164E-01  2.67231865E-01
 -2.37378875E-07 -3.95334279E-02 -7.91703867E-01  1.78439729E+00  2.52857163E-07
  1.68256507E-02 -1.67411430E-02 -9.92490684E-06 -1.87775825E-02 -1.73124703E-09
  7.94901400E-08  4.54256866E-02 -3.78965479E-02  5.02018620E-02  1.38150193E-01
  3.99113924E-07 -1.71058598E+00  4.15391248E-01  8.63170276E-01  1.13450447E-07
 -1.80606855E-02  2.16964579E-02 -4.32062128E-04  2.93000904E-02 -3.96961155E-08
 -6.63031132E-08  4.43788282E-02 -3.70247041E-02 -1.46153743E-01  5.62232495E-02
 -6.52198125E-07 -1.67115598E+00 -9.85876795E-01  2.78490256E-01 -1.91186513E-06
  2.79990797E-02 -2.44472463E-02 -4.22193971E-04 -2.09408810E-02  5.17404631E-08
  2.97094088E-08 -1.04394668E-03  8.69316152E-04 -1.18920743E-01  2.67240286E-01
  2.33739805E-07  3.93231126E-02 -7.91569947E-01  1.78445118E+00 -2.51068377E-07
 -1.68253930E-02  1.67412288E-02  1.01893536E-05  1.87774669E-02  1.21917859E-08
  4.49014297E-08  1.22904610E-01 -1.42448906E-01  1.20072785E-01 -1.39153687E-01
 -2.83156500E-03  3.22971055E-03 -1.22904148E-01  1.42490219E-01 -1.20072042E-01
  1.39200499E-01  2.82960902E-03 -3.31533209E-03 -1.84222644E-06  5.60059843E-06
  1.93925955E-01  2.65023606E-01  4.21259167E-07  8.85873071E-05 -2.96620006E-01
 -4.05265049E-01 -3.04294535E-07 -4.03038614E-02  4.03044990E-02 -6.29648330E-08
 -1.47723728E-02 -6.32655815E-08  1.30207184E-08  1.87447347E-06  4.49286496E-06
 -3.26477961E-01  3.54380490E-02  1.25755825E-07 -7.82725437E-05  4.99285929E-01
 -5.42561539E-02 -7.72676629E-08 -9.07262364E-03  9.07240626E-03  6.43096968E-08
 -4.76904663E-02 -6.45966907E-08  1.70548907E-08 -2.04996206E-06  5.66909372E-06
  1.32551527E-01 -3.00455502E-01 -2.84315551E-07  8.15480513E-05 -2.02661000E-01
  4.59532383E-01  1.93521354E-07  3.12323307E-02 -3.12308131E-02 -9.42310975E-08
 -3.29177674E-02 -5.67662936E-08  3.71700845E-08  1.88890554E-06  3.89732228E-06
  1.93927377E-01  2.65022014E-01 -4.10456690E-07 -9.52412062E-05 -2.96624861E-01
 -4.05267964E-01  2.72004953E-07  4.03042439E-02 -4.03036015E-02  3.18606579E-08
  1.47730890E-02 -4.37965895E-08  2.03059479E-08 -1.84712489E-06  4.92546375E-06
 -3.26478600E-01  3.54353016E-02 -1.36908861E-07  7.14448759E-05  4.99280446E-01
 -5.42527965E-02  1.10676551E-07  9.07381638E-03 -9.07244123E-03 -7.55716106E-08
  4.76901475E-02 -4.63734626E-08  2.69690296E-08  2.09054076E-06  3.57480277E-06
  1.32548048E-01 -3.00456652E-01  2.84721088E-07 -8.90587509E-05 -2.02659713E-01
  4.59538700E-01 -1.94735698E-07 -3.12322317E-02  3.12317447E-02  9.14116340E-08
  3.29171752E-02 -5.39004550E-08  2.96219924E-08 -1.36076567E-06  1.74717634E-05
  1.21802063E-06 -1.63397464E-05  1.51092285E-06  1.62951311E-05  2.70456372E-06
 -1.92075700E-05 -2.69990693E-07  1.57798065E-05 -1.05648325E-06 -1.53465442E-05
 -4.73278834E-07  1.69536340E-07 -1.83328336E-07  2.50210719E-07  4.24977575E-01
  1.75684435E-05 -1.12099497E-05  7.31144373E-06 -3.05265111E-01 -1.48822806E-08
  5.23225887E-08  1.09421364E-08 -3.10376917E-08 -1.25214217E-02  9.16312590E-03
  4.57226773E-07 -1.08676165E-06 -2.83291755E-07 -1.39703553E-06  4.24981808E-01
 -1.68188112E-05 -1.13197817E-06 -1.21404946E-05 -3.05270334E-01 -2.97245534E-07
  3.58711594E-08  2.73334800E-08 -1.53646850E-08  1.67370044E-03  1.54256206E-02
 -4.05990427E-07  1.60918248E-07  1.23978873E-06  6.02998836E-07  4.24981081E-01
  1.70916072E-05  1.12030396E-05  4.55787144E-06 -3.05272444E-01  7.59177782E-08
  4.22715207E-08 -5.51583160E-08  5.45707404E-08  1.41966088E-02  6.26270600E-03
  4.84926325E-07 -7.15127553E-07 -5.44218784E-07  1.76484462E-07  4.24976954E-01
 -1.68879649E-05 -1.00112700E-05  8.00005638E-06 -3.05264529E-01 -3.15647250E-08
  2.92204326E-08 -8.25231006E-08 -1.45829216E-07  1.25217032E-02 -9.16269369E-03
 -4.98768654E-07 -2.11606460E-07  1.02784085E-07  5.52378837E-07  4.24980953E-01
  1.76275135E-05 -1.86996835E-06 -1.38305053E-05 -3.05269441E-01 -1.80890371E-07
 -4.09810906E-08  1.19578009E-07 -6.76423063E-09 -1.67422557E-03 -1.54255090E-02
  4.90245413E-07 -4.57653047E-07  4.21901564E-08 -3.39469796E-08  4.24980841E-01
 -1.70877915E-05  1.21115352E-05  5.73491142E-06 -3.05272248E-01  6.88788022E-08
  1.70700862E-08 -1.14302291E-07  6.43350173E-08 -1.41963678E-02 -6.26323985E-03
 -3.78252137E-07  4.82755838E-06  6.41766285E-07 -5.33894184E-06 -1.50064565E-08
  4.92673314E-06  9.30686568E-07 -5.05397387E-06 -6.58154918E-07  4.53910588E-06
  1.03998987E-06 -4.85928738E-06 -1.09667382E-01  1.05745370E-01 -1.44846383E-01
  1.05960960E-01 -7.29309169E-07  3.74349313E+00 -2.28603522E+00  1.67272095E+00
 -1.38949596E-06 -1.10336562E-02 -6.91296655E-03  1.97976423E-02  7.49435547E-03
 -1.29411671E-07  1.05382769E-07  1.09667370E-01 -1.05780454E-01 -1.93801804E-02
 -1.78445398E-01 -1.82462245E-06 -3.74343743E+00 -3.05755426E-01 -2.81606371E+00
 -2.97896802E-06  2.31368630E-03  1.56288091E-02 -1.97983172E-02  1.69050945E-03
  9.63368319E-08  1.61958062E-07 -1.09666827E-01  1.05750215E-01  1.64191808E-01
  7.24529471E-02 -3.56314791E-06  3.74351549E+00  2.59161451E+00  1.14346240E+00
 -8.79387314E-07 -1.35626773E-02 -4.38139238E-03  1.97968830E-02 -5.80706638E-03
  7.59722187E-08  2.33618147E-09  1.09667659E-01 -1.05781997E-01 -1.44853373E-01
  1.05997882E-01 -2.36722589E-06 -3.74346925E+00 -2.28589730E+00  1.67287363E+00
  2.53785292E-06  1.10320812E-02  6.90929506E-03 -1.97978915E-02 -7.50301805E-03
 -2.62270832E-08  7.90421455E-08 -1.09667098E-01  1.05743489E-01 -1.93518690E-02
 -1.78420391E-01 -1.32448183E-06  3.74347370E+00 -3.05553043E-01 -2.81611204E+00
  4.19314336E-06 -2.32302105E-03 -1.56242822E-02  1.97978879E-02 -1.68721718E-03
  4.48083401E-08  6.84184551E-08  1.09667143E-01 -1.05786961E-01  1.64226884E-01
  7.24419301E-02 -1.01091048E-06 -3.74348941E+00  2.59167916E+00  1.14326120E+00
  3.86505413E-06  1.35661195E-02  4.37285639E-03 -1.97971968E-02  5.81238057E-03
 -7.08938692E-09 -3.59024885E-08 -1.61072324E-01  1.15994508E+00  1.61098646E-01
 -1.15995458E+00 -1.61065725E-01  1.15994347E+00  1.61096477E-01 -1.15996863E+00
 -1.61073944E-01  1.15993146E+00  1.61090115E-01 -1.15996695E+00 -2.20300699E-03
  3.17944516E-01 -1.90164315E-01  1.39170960E-01  5.10145095E-07 -2.44404387E-01
  1.63129115E-01 -1.19128857E-01 -3.62843326E-07  3.22614210E-03  4.12244782E-02
  2.44853173E-03  6.91201883E-02  1.43067714E-07  1.69189758E-07 -2.19003850E-03
  3.17930982E-01  2.54447703E-02  2.34251975E-01 -6.44312484E-08 -2.44837365E-01
 -2.16500661E-02 -2.01162189E-01 -2.94690774E-07  8.35663416E-02 -3.91111137E-02
  2.44618737E-03 -1.55585759E-02 -6.24426756E-08  1.03431102E-07 -2.20180261E-03
  3.17941531E-01  2.15604008E-01  9.51009877E-02  8.91574255E-07 -2.44416320E-01
 -1.84741382E-01 -8.17096993E-02 -2.96667256E-07 -2.01134565E-02  6.45660160E-02
  2.44815031E-03 -5.35591004E-02  8.65427355E-09  1.58254854E-07 -2.19009072E-03
  3.17932116E-01  1.90144144E-01 -1.39162883E-01  4.91693281E-07 -2.44844551E-01
 -1.63395125E-01  1.19329860E-01 -2.46057267E-07  3.22666921E-03  4.12261319E-02
  2.44616242E-03  6.91189334E-02 -6.33750262E-08 -2.19755815E-07 -2.20292734E-03
  3.17943745E-01 -2.54415318E-02 -2.34273492E-01 -4.48545225E-08 -2.44395993E-01
  2.16077211E-02  2.00830796E-01 -4.07745450E-07  8.35658671E-02 -3.91126547E-02
  2.44850289E-03 -1.55597164E-02  7.86178806E-08 -1.44174696E-08 -2.18889345E-03
  3.17929093E-01 -2.15587131E-01 -9.50871513E-02  8.38954867E-07 -2.44856436E-01
  1.85049659E-01  8.18372070E-02 -2.67662239E-07 -2.01111969E-02  6.45659201E-02
  2.44578629E-03 -5.35590188E-02  7.05283558E-09 -1.51592882E-07 -2.04531913E-01
  1.92940214E-01 -2.04512203E-01  1.92805766E-01 -2.04530022E-01  1.92934037E-01
 -2.04512575E-01  1.92803524E-01 -2.04530798E-01  1.92942617E-01 -2.04510772E-01
  1.92797258E-01  1.42137447E-06  3.80679084E-05 -1.80115909E-01 -2.46114402E-01
 -1.31639571E-06 -2.44028523E-04 -1.95470677E+00 -2.67150480E+00 -3.13534199E-06
 -1.56281306E-02  1.56303847E-02  7.02006441E-07 -5.72746343E-03 -1.05335874E-07
 -4.13201886E-08 -2.59297604E-06  3.73485472E-05 -3.03220270E-01  3.29285270E-02
  4.50208965E-07  1.76931123E-04 -3.29090279E+00  3.57309316E-01  2.49275913E-07
  3.52649892E-03 -3.51630916E-03 -1.79331064E-06  1.84930774E-02  1.63717135E-07
 -2.49927756E-08  6.44370119E-06  2.94110295E-05 -1.23087173E-01  2.79017333E-01
  9.42762309E-07 -1.98902520E-04 -1.33626824E+00  3.02861609E+00  1.95512453E-06
  1.21141345E-02 -1.21031269E-02 -3.26866682E-06 -1.27667563E-02 -9.97658940E-08
  1.31901509E-07 -7.14970537E-06  4.48160563E-05  1.80124684E-01  2.46109370E-01
 -1.39011182E-06  9.18143534E-05  1.95489221E+00  2.67137287E+00 -2.23734525E-06
 -1.56290148E-02  1.56296553E-02  2.38291352E-06 -5.72699906E-03  1.53057048E-08
 -5.65698406E-08  5.82628859E-06  3.00541008E-05  3.03221861E-01 -3.29183127E-02
  3.73822583E-07 -1.54325181E-04  3.29093445E+00 -3.57085062E-01  1.18018869E-06
  3.52675711E-03 -3.51529206E-03 -3.35534311E-06  1.84933104E-02 -3.02828967E-08
  2.60050454E-08 -1.78290229E-06  3.72185365E-05  1.23077871E-01 -2.79022661E-01
  9.39944161E-07  1.24349792E-04  1.33606340E+00 -3.02870752E+00  1.98813775E-06
  1.21133307E-02 -1.21032663E-02 -1.83199862E-06 -1.27671025E-02  4.26065176E-08
 -1.00588511E-09 -4.13348691E-06 -2.80316732E-05  2.19696052E-06  5.23607623E-05
  1.46804649E-05 -4.46082745E-05 -1.89381174E-05  6.48288781E-05  1.61796570E-05
 -3.95233736E-05  1.46532237E-06  4.59838494E-05 -1.19572328E-02 -4.33369172E-01
  9.27922635E-03 -6.79631541E-03 -2.52403226E-06  5.35681154E-01  1.06851544E-01
 -7.83889908E-02  2.68094028E-06 -7.05118435E-02 -5.14455308E-02  3.12601942E-02
  3.46760791E-02 -9.11030532E-08 -1.85669610E-07 -1.19530403E-02 -4.33372575E-01
 -1.28281855E-03 -1.14409810E-02  2.53988776E-06  5.35688177E-01 -1.44241031E-02
 -1.31741585E-01 -3.26470465E-06 -3.01993776E-02 -9.17504726E-02  3.12567671E-02
 -7.80493421E-03 -1.83109996E-07 -1.59138592E-09 -1.19516924E-02 -4.33375356E-01
 -1.05362190E-02 -4.65516862E-03  2.21655444E-06  5.35688946E-01 -1.21316388E-01
 -5.33250008E-02 -1.23214846E-06 -8.22157066E-02 -3.97310458E-02  3.12556753E-02
 -2.68735344E-02  5.44319772E-07  1.71650721E-07 -1.19570089E-02 -4.33368331E-01
 -9.27605240E-03  6.80098617E-03  1.76237906E-06  5.35677658E-01 -1.06859499E-01
  7.83822783E-02 -1.52113262E-06 -7.05110159E-02 -5.14457993E-02  3.12600022E-02
  3.46762187E-02  1.14279947E-07 -2.17090171E-07 -1.19530367E-02 -4.33370756E-01
  1.27786494E-03  1.14410162E-02 -1.42975386E-06  5.35692112E-01  1.44311691E-02
  1.31737585E-01  6.39304380E-07 -3.01989670E-02 -9.17502026E-02  3.12566061E-02
 -7.80423417E-03 -1.13557921E-07  2.60029107E-07 -1.19515272E-02 -4.33375119E-01
  1.05377318E-02  4.65233275E-03 -2.39810577E-06  5.35685928E-01  1.21317415E-01
  5.33290961E-02  2.94472048E-06 -8.22160576E-02 -3.97304047E-02  3.12555608E-02
 -2.68729439E-02  2.90991778E-08  9.38954859E-08 -3.07072528E-01 -2.45755416E-02
 -3.07057144E-01 -2.45847162E-02 -3.07054072E-01 -2.45795939E-02 -3.07071313E-01
 -2.45767937E-02 -3.07055896E-01 -2.45834456E-02 -3.07053320E-01 -2.45809647E-02
  1.23379971E-05 -1.07425084E-05 -4.08682896E-05 -1.19589981E-04 -1.21480457E-01
  3.19887247E-05  7.01182744E-05  1.22342566E-04  1.21230296E-01  7.21653101E-06
  1.89123533E-05 -1.09395280E-05  4.42447576E-06 -1.10329450E-02 -3.13187595E-02
  8.04325995E-06 -7.25534470E-06  1.40105579E-04 -3.98355296E-05  4.53298026E-01
  1.23090686E-05 -1.64955672E-04  2.12051044E-05 -4.52359821E-01  1.01634717E-05
  6.16526258E-06 -6.84067009E-06 -6.90195663E-06 -1.75422896E-02  3.79012518E-02
 -2.01832107E-05  2.47361440E-05  5.13726725E-05  4.14130290E-05  5.74775375E-01
 -4.67522958E-05 -5.51524091E-06 -2.38997367E-05 -5.73584089E-01 -1.34777029E-05
 -2.67489122E-05  1.70595802E-05  7.21646502E-06  4.56582071E-02  8.92809770E-03
  1.21695934E-05 -1.58801317E-05  4.13999804E-05  1.21316427E-04  1.21476606E-01
  2.64624898E-05 -7.74711257E-05 -1.18938677E-04 -1.21223220E-01  6.12696171E-06
  1.78616331E-05 -1.03476721E-05  3.98459425E-06 -1.10332524E-02 -3.13184387E-02
  7.62890367E-06 -8.35993318E-06 -1.34907157E-04  3.75781097E-05 -4.53295645E-01
  2.21276593E-05  1.58036911E-04 -2.64954793E-05  4.52354911E-01  1.00405521E-05
  5.80828062E-06 -6.80116498E-06 -6.55564134E-06 -1.75420843E-02  3.79009522E-02
 -1.96213909E-05  2.87523087E-05 -4.65975186E-05 -4.41827682E-05 -5.74774905E-01
 -6.02738723E-05  6.17079269E-06  3.06052673E-05  5.73582631E-01 -1.27439965E-05
 -2.59897462E-05  1.68648352E-05  6.94796696E-06  4.56579655E-02  8.92836933E-03
  4.56679213E-05 -8.37922432E-06  2.93588740E-05 -9.01401494E-06 -7.00662583E-05
  1.96402457E-05  4.30031438E-05 -1.32561994E-05  2.81532566E-05 -5.48518400E-06
 -6.74658811E-05  1.73801379E-05  5.65849508E-06 -8.37046765E-06  6.08810215E-05
  5.20540863E-05  5.93558519E-01  1.45692913E-05 -5.70393842E-05 -6.92051922E-05
 -5.92328924E-01  7.64078475E-06  3.50326338E-06 -4.85271842E-06  3.84037115E-06
 -4.16585060E-02  2.24218752E-02 -1.20000390E-05  1.63919769E-05 -9.56739893E-07
  3.84003720E-05  4.01980777E-01 -3.01216956E-05  5.12649376E-06 -1.13198411E-05
 -4.01145528E-01 -1.69798558E-05 -6.87550917E-06  1.03446696E-05  1.46598390E-06
  2.75600972E-02  2.89304170E-02  6.73799520E-06 -6.83125429E-06 -4.98929553E-05
  6.15014850E-05 -1.91573256E-01  1.34583093E-05  3.98813293E-05 -7.94931166E-05
  1.91173743E-01  7.00883524E-06  6.73426856E-06 -5.77287382E-06 -4.87975087E-06
 -1.41198171E-03 -3.42699670E-02  5.43881326E-06 -6.90243399E-06 -6.41562280E-05
 -5.68634757E-05 -5.93559128E-01  1.79753780E-05  6.47593134E-05  7.28508393E-05
  5.92329646E-01  7.81376297E-06  3.33621683E-06 -4.68942516E-06  3.97044333E-06
 -4.16587527E-02  2.24216999E-02 -1.20658983E-05  1.21465816E-05 -1.74789607E-06
 -3.81975309E-05 -4.01982890E-01 -3.18946408E-05 -1.54952484E-06  1.55636547E-05
  4.01149388E-01 -1.78090364E-05 -7.26650010E-06  1.04910642E-05  1.29033067E-06
  2.75603382E-02  2.89307144E-02  6.09193472E-06 -1.05961486E-05  4.89841884E-05
 -6.34592815E-05  1.91574479E-01  2.12438781E-05 -4.20749233E-05  8.05228512E-05
 -1.91177269E-01  6.19747918E-06  5.46296969E-06 -5.14929697E-06 -4.74794423E-06
 -1.41225641E-03 -3.42702016E-02  1.92481499E-05 -5.42343386E-06 -4.20562688E-05
  1.15015769E-05  2.37459731E-05 -6.32504866E-06  1.90186030E-05 -3.33499959E-06
 -4.36213317E-05  8.90762171E-06  2.04650795E-05 -5.65359889E-06  5.15476989E-02
 -6.42782973E-02  3.36124603E-01  1.88155106E-01 -9.91668640E-05  1.32945056E-01
 -2.76049005E-01 -3.01429834E-01  9.87399885E-05  5.72635830E-02  4.61960810E-02
 -4.42650410E-02  2.96888118E-02  6.64900353E-06 -4.32838588E-06 -6.57503197E-02
  8.19700631E-02  1.84730479E-01  1.85417439E-01 -5.59699717E-05 -1.69532444E-01
 -1.94914490E-01 -3.62872379E-02  5.64177581E-05 -9.57355936E-02 -3.62334119E-02
  5.64619375E-02  3.37642584E-04 -4.88818725E-06 -4.06746054E-06  1.42005451E-02
 -1.77372036E-02 -2.47825544E-01  4.52438201E-01  4.48519534E-05  3.66403683E-02
  2.51707419E-01 -5.40012936E-01 -4.50761759E-05  2.41512370E-02  4.34366490E-03
 -1.21930827E-02 -2.02736324E-02  1.21161699E-06  5.74639161E-06  5.15459993E-02
 -6.42980198E-02 -3.36108160E-01 -1.88133149E-01  1.00153379E-04  1.32934133E-01
  2.76009305E-01  3.01396544E-01 -1.00316467E-04  5.72582178E-02  4.61928781E-02
 -4.42625884E-02  2.96878745E-02  6.40255945E-06 -4.39181739E-06 -6.57495185E-02
  8.19800166E-02 -1.84696685E-01 -1.85420864E-01  5.42657353E-05 -1.69522188E-01
  1.94849957E-01  3.62833480E-02 -5.37801231E-05 -9.57328167E-02 -3.62316893E-02
  5.64606369E-02  3.39360277E-04 -4.93250105E-06 -3.58482026E-06  1.42037183E-02
 -1.77076323E-02  2.47827396E-01 -4.52444255E-01 -4.39971361E-05  3.66261491E-02
 -2.51707677E-01  5.40027033E-01  4.36252704E-05  2.41573939E-02  4.35026140E-03
 -1.21967848E-02 -2.02744510E-02  1.36737168E-06  5.79280593E-06  1.81347159E-01
 -4.69985251E-02 -2.31324777E-01  5.99469791E-02  4.99441609E-02 -1.29509999E-02
  1.81332670E-01 -4.70037614E-02 -2.31317506E-01  5.99513089E-02  4.99662707E-02
 -1.29503528E-02  4.61594457E-02 -5.75864395E-02 -1.15290938E-01 -4.00403437E-01
  7.05282081E-05  1.19027780E-01  2.35394077E-01  3.89537094E-01 -6.98746588E-05
  2.62387963E-02  6.63997398E-02 -3.96362603E-02  1.74102334E-02  7.69226791E-07
  1.05761448E-05  2.15592837E-02 -2.69153127E-02  4.88848271E-01 -1.20439897E-01
 -1.07351517E-04  5.56207051E-02 -5.73148867E-01  8.10421880E-02  1.07100310E-04
  2.69721523E-02  1.62929383E-02 -1.85120146E-02 -2.33354092E-02  6.73943847E-06
 -9.11129738E-06 -6.77229686E-02  8.44260853E-02  1.48980438E-01  1.83565286E-01
 -1.76860236E-04 -1.74582949E-01 -3.40942640E-03 -1.37983166E-01  1.76308185E-04
 -4.47763065E-02 -9.11523186E-02  5.81558126E-02  2.24526040E-02 -1.30339005E-05
 -4.66930687E-06  4.61614650E-02 -5.75653305E-02  1.15304153E-01  4.00421942E-01
 -7.25591819E-05  1.19026925E-01 -2.35416488E-01 -3.89574437E-01  7.27452272E-05
  2.62421114E-02  6.64053877E-02 -3.96388201E-02  1.74103423E-02  5.87597768E-07
  1.03468693E-05  2.15619338E-02 -2.68878982E-02 -4.88857541E-01  1.20440654E-01
  1.07028166E-04  5.56185690E-02  5.73166148E-01 -8.10474781E-02 -1.06742016E-04
  2.69784789E-02  1.62982674E-02 -1.85153558E-02 -2.33361307E-02  6.82599813E-06
 -9.32863338E-06 -6.77223247E-02  8.44322578E-02 -1.48993690E-01 -1.83535320E-01
  1.79283267E-04 -1.74582159E-01  3.43344222E-03  1.37925567E-01 -1.79278250E-04
 -4.47761577E-02 -9.11496775E-02  5.81549893E-02  2.24536582E-02 -1.35981858E-05
 -4.68170320E-06  1.62376277E-01 -4.20981308E-02  7.58319540E-02 -1.96620573E-02
 -2.38266529E-01  6.17505995E-02  1.62391989E-01 -4.20958908E-02  7.58521559E-02
 -1.96590479E-02 -2.38261852E-01  6.17514866E-02 -3.58570087E-02 -3.32837905E-01
 -1.50842106E-01 -2.42348126E-01 -3.59842638E-06  2.38928849E-01  2.24327409E-01
  3.00076617E-01  3.75838704E-06 -9.16714594E-02 -6.27652288E-02  4.39715203E-02
 -1.14212756E-02 -2.67654562E-11 -3.59860921E-07  5.94270701E-03  5.51961285E-02
 -4.59902520E-01  5.34918314E-02  1.44861179E-06 -3.95902824E-02  6.05859493E-01
 -6.50951545E-02 -1.53729620E-06  1.94707597E-02  6.13291891E-03 -7.28948890E-03
  3.05509415E-02 -1.80425081E-07  7.60848164E-08  4.18089719E-02  3.88023243E-01
 -4.91888334E-02  1.73224689E-01  3.81868850E-06 -2.78641301E-01  9.87606288E-02
 -2.12971048E-01 -4.36365556E-06  9.38118545E-02  8.62420109E-02 -5.12666345E-02
 -1.32048587E-02 -4.11184257E-08  1.24750219E-07  3.58604644E-02  3.32833806E-01
 -1.50867499E-01 -2.42366972E-01  2.90461167E-06 -2.38923298E-01  2.24354630E-01
  3.00108496E-01 -3.14850570E-06  9.16757853E-02  6.27684097E-02 -4.39745019E-02
  1.14235334E-02 -4.87493678E-08 -2.51811026E-07 -5.94800187E-03 -5.51895479E-02
 -4.59909529E-01  5.34778586E-02 -8.73867503E-07  3.95784958E-02  6.05872851E-01
 -6.50898606E-02  7.67369243E-07 -1.94792777E-02 -6.13611032E-03  7.29412913E-03
 -3.05505141E-02 -1.27917233E-07  1.22151247E-07 -4.18071221E-02 -3.88025363E-01
 -4.91684746E-02  1.73191552E-01 -3.90694093E-06  2.78647122E-01  9.87429149E-02
 -2.12939899E-01  4.50164205E-06 -9.38092877E-02 -8.62402756E-02  5.12649524E-02
  1.32029198E-02  3.51041935E-08  2.48619104E-07 -2.44132247E-01 -2.65259252E-02
  4.04731873E-02  4.41193693E-03  2.84630728E-01  3.08942940E-02  2.44144601E-01
  2.65239743E-02 -4.04922791E-02 -4.40954781E-03 -2.84623713E-01 -3.08947539E-02
  2.75740243E-02  2.55890110E-01 -2.31915659E-01 -2.89117349E-01 -1.13467231E-06
 -1.83790414E-01  2.85446698E-01  3.94975908E-01  9.38396052E-07  3.74067727E-02
  8.13379150E-02 -3.38100930E-02 -3.33987174E-03  2.97622641E-07  8.85585752E-08
  4.48403043E-02  4.16189635E-01  6.39457877E-02  1.99441993E-02 -3.51460376E-06
 -2.98789980E-01 -7.98271807E-02  1.34781516E-02  4.06942862E-06  1.01959694E-01
  9.11609485E-02 -5.49861546E-02 -5.64603809E-03 -2.25059737E-08 -4.08689363E-08
  1.72693750E-02  1.60297039E-01  1.83653694E-01 -3.90774704E-01 -5.41126572E-07
 -1.15138035E-01 -2.27660851E-01  5.20481498E-01  2.97881619E-07  1.67665741E-02
  5.76087824E-02 -2.11762635E-02  1.77185657E-02 -2.70616215E-07  1.50742714E-07
 -2.75698816E-02 -2.55896646E-01 -2.31911577E-01 -2.89092624E-01  2.59702755E-06
  1.83801407E-01  2.85434344E-01  3.94951222E-01 -2.58229735E-06 -3.74038092E-02
 -8.13319910E-02  3.38065280E-02  3.34212061E-03  2.52390545E-07 -2.58764367E-08
 -4.48398957E-02 -4.16191514E-01  6.39076596E-02  1.99495062E-02  2.03988647E-06
  2.98794324E-01 -7.97852967E-02  1.34723525E-02 -2.52784550E-06 -1.01959209E-01
 -9.11606656E-02  5.49858101E-02  5.64431441E-03 -1.43025271E-07  5.92135024E-08
 -1.72740607E-02 -1.60292881E-01  1.83648062E-01 -3.90794519E-01  4.75384726E-07
  1.15128213E-01 -2.27661284E-01  5.20501968E-01 -2.03843065E-07 -1.67700957E-02
 -5.76161207E-02  2.11804976E-02 -1.77171809E-02 -1.50755284E-07 -2.24437310E-09
  1.87709603E-01  2.03697031E-02  3.05279750E-01  3.31684316E-02  1.17573998E-01
  1.27544623E-02 -1.87695805E-01 -2.03714468E-02 -3.05279187E-01 -3.31681837E-02
 -1.17592410E-01 -1.27526573E-02  1.01644976E-07  9.43475494E-07  6.33477826E-07
  1.48673075E-06 -5.81292733E-01  2.66537669E-07  1.44957405E-06  1.50548481E-06
  9.57999236E-01  2.80979777E-07  1.33755191E-07 -1.56480492E-07  4.83819134E-08
  4.69506603E-03 -1.60064388E-02  2.39168982E-08  1.05393230E-06  7.48904740E-07
  8.33829909E-08  5.00945071E-01 -9.59308021E-07  3.08553069E-06 -5.67324686E-07
 -8.25584922E-01  5.67239114E-08  1.28942468E-07 -4.36283810E-08 -3.18660592E-08
 -1.46344854E-02  1.30662416E-02  1.08601168E-07  4.11181335E-07  6.71257034E-07
 -7.48178753E-07  8.03398953E-02  1.55754720E-07  4.28678690E-07 -2.69827330E-06
 -1.32405870E-01  1.09398458E-07  1.97302363E-07 -1.30668467E-07 -5.35716779E-08
  1.22107494E-02 -2.31452580E-02 -3.95863415E-08  1.32737133E-07 -1.82210075E-06
 -1.33484945E-06 -5.81293813E-01 -3.80462594E-07  9.17753214E-07 -1.55661529E-06
  9.57999318E-01  1.95160198E-08 -8.93559847E-08  5.63960171E-08  1.07684962E-07
 -4.69476667E-03  1.60068222E-02 -1.58502121E-07  3.95366394E-07 -6.44322096E-08
  4.52145199E-07  5.00947338E-01 -2.31327473E-06 -4.67503253E-06 -1.82382927E-07
 -8.25586379E-01 -1.75635327E-07 -2.19980060E-07  2.13200085E-07 -5.78372338E-08
  1.46349262E-02 -1.30663010E-02  1.33373472E-07  3.23085525E-07  4.86600822E-08
 -4.15795707E-07  8.03453452E-02  6.38217494E-07 -2.07818806E-06  5.37338278E-06
 -1.32413215E-01  1.41655281E-07  2.17370116E-07 -1.58628994E-07 -5.72634864E-08
 -1.22108135E-02  2.31453123E-02  5.66407378E-07 -7.43592899E-08  8.50431319E-08
 -2.32582004E-07  6.09089377E-07 -1.78976930E-07 -4.19788243E-08  4.82776396E-07
 -7.12127624E-07  2.80882506E-07  6.90274779E-07 -1.84295373E-07  2.42728240E-07
  8.25387580E-08 -5.45844172E-07 -1.13544222E-06  2.42838378E-01  1.75628952E-06
 -7.12183119E-07 -9.46081168E-07 -4.00208083E-01  2.81700584E-07  2.68346664E-07
 -2.41893021E-07  1.53326631E-07 -1.88048969E-02 -1.63326751E-02 -3.57818097E-08
  7.59898199E-07  8.30458189E-07  7.75746159E-07  3.81998008E-01 -2.03771082E-06
 -4.61166829E-06 -2.23501666E-06 -6.29551126E-01  4.64349578E-08 -1.73399966E-07
  8.33114318E-08  1.53193278E-08  2.17457749E-02  6.39186234E-03 -5.63691436E-08
  4.05971327E-07 -1.91618713E-06  5.74002508E-07 -6.24831148E-01  1.24166256E-06
  3.49342873E-06  2.69479694E-06  1.02975482E+00 -1.65543662E-08  1.93095500E-08
  6.16548221E-08 -1.30996988E-07 -1.16668694E-02 -8.81597284E-03  8.68699503E-08
  4.05429849E-07  1.49204023E-06  3.20778788E-07  2.42835920E-01 -5.33097004E-07
 -1.44210053E-06  3.04537722E-06 -4.00205583E-01  4.16484162E-08  1.08400172E-07
 -6.48560845E-08  1.80294427E-07  1.88049203E-02  1.63324862E-02  8.36435462E-08
  2.76613598E-07 -6.43522633E-07  6.45131816E-07  3.81995339E-01  9.86349273E-09
  4.35774797E-06 -1.06407199E-06 -6.29547439E-01  1.72074064E-07 -1.74429999E-08
 -4.08657914E-08  5.29580195E-08 -2.17455813E-02 -6.39199105E-03 -1.91551188E-07
  1.09508169E-06  8.32639153E-07 -1.22236493E-06 -6.24830438E-01 -1.82638951E-06
 -1.11306821E-06 -1.25147113E-06  1.02975348E+00 -1.37951318E-07 -1.05193453E-07
  2.07973233E-07 -1.29903975E-07  1.16670390E-02  8.81559928E-03  9.79655762E-07
 -5.49494763E-07 -4.08380782E-07 -5.64975359E-07 -3.91367996E-07  9.41830195E-07
  2.46778465E-07 -6.04509383E-07  1.71359723E-07 -3.87325045E-07 -7.58847760E-07
  9.35390999E-07  9.86227097E-08  3.23953788E-07 -7.01637081E-08 -8.45088665E-07
 -4.47296666E-01  4.69378783E-06 -3.01277902E-06  2.43295735E-06  1.17420371E+00
  2.03864460E-07  2.47896016E-07 -2.06215479E-07 -5.21847685E-08 -4.73504478E-04
  3.47055898E-04  1.18247599E-07 -1.96626262E-08  4.01164293E-07  2.80562478E-07
  4.47298553E-01 -3.94469987E-06 -1.69541433E-06 -4.47502808E-06 -1.17420483E+00
  7.22378742E-08 -1.40709798E-07 -4.90691036E-08  5.84560921E-08 -6.29629236E-05
 -5.83516992E-04  6.75018820E-10 -2.09432881E-07 -1.35493925E-06 -1.12745837E-06
 -4.47299075E-01  5.34062865E-06  7.28535653E-06  3.89464857E-06  1.17420770E+00
 -2.08991663E-08  1.54271217E-07 -5.88950674E-08 -8.65300467E-09  5.37093563E-04
  2.36934451E-04  2.56039186E-08  6.65210854E-07  7.09423043E-07 -6.89832272E-07
  4.47297490E-01 -6.39324133E-06 -4.95966206E-06  2.94434577E-06 -1.17420520E+00
  1.17388617E-07 -1.74250905E-07  1.22216409E-08 -4.01944868E-08 -4.73671331E-04
  3.46762953E-04  5.44681132E-12  1.02052094E-06 -2.56102823E-07 -1.46775236E-07
 -4.47299730E-01  2.28842238E-06 -7.58239552E-07 -2.92185222E-06  1.17420686E+00
  3.29567648E-08  4.25815624E-07 -1.39977565E-07  7.93576649E-08 -6.32688058E-05
 -5.83514767E-04 -4.39002326E-08  1.52714644E-06 -7.68651798E-07 -8.92486479E-07
  4.47299410E-01 -5.83198582E-06  3.14205644E-06  2.09661681E-06 -1.17420835E+00
  2.23436128E-07 -9.08319762E-08  3.58252507E-09  1.02575187E-07  5.36969192E-04
  2.37129092E-04  7.10732365E-07  1.03441525E-06  3.73172862E-07 -1.98044996E-06
  6.95134206E-07  2.19386055E-06  6.06991222E-08 -1.57808663E-06  3.96063541E-07
  1.52546632E-06  1.54428283E-08 -2.51902772E-07  2.37638198E-02 -5.50833447E-02
 -3.46961655E-01  2.73247657E-01  4.14496758E-07 -5.79743956E-01  1.51316733E+00
 -9.45654801E-01  1.22439151E-07 -3.56871854E-02  2.68470479E-02 -1.96668958E-02
 -5.40027503E-02  2.34048075E-09 -1.08066054E-07 -3.27769379E-02  7.59692571E-02
 -6.02102988E-02 -6.05789525E-01  1.73327804E-08  7.99594410E-01  3.10630579E-01
  2.43517656E+00  1.52665154E-06  5.67291363E-02 -4.45393257E-02  2.71263558E-02
  5.49640610E-03  2.93641501E-08 -1.17749161E-07  9.01374625E-03 -2.08933438E-02
  1.44645930E-01  8.69237853E-02 -5.42140868E-07 -2.19988167E-01 -6.88881747E-01
 -1.11084343E-01  1.70450038E-06 -3.66185445E-02  3.32617607E-02 -7.45851781E-03
  5.76483476E-02 -1.10030026E-07 -1.60187691E-07  2.37625797E-02 -5.50876393E-02
  3.46903512E-01 -2.73206918E-01 -8.94035015E-07 -5.79415221E-01 -1.51282942E+00
  9.45415052E-01  1.47732891E-06 -3.56825023E-02  2.68524484E-02 -1.96687226E-02
 -5.40007420E-02 -1.70519994E-07  1.34971522E-07 -3.27760241E-02  7.59733222E-02
  6.02007540E-02  6.05723182E-01 -1.66543878E-06  7.99266811E-01 -3.10576245E-01
 -2.43477479E+00  4.12321906E-06  5.67229875E-02 -4.45439548E-02  2.71287134E-02
  5.49633818E-03  5.70522774E-08  2.77538048E-07  9.01353156E-03 -2.08931943E-02
 -1.44591394E-01 -8.68989628E-02 -3.93438932E-07 -2.19660714E-01  6.88527927E-01
  1.10923809E-01  1.09412708E-06 -3.66114489E-02  3.32677073E-02 -7.46210335E-03
  5.76492292E-02  1.49552786E-07  5.90897894E-08  2.65883021E-01 -1.21431018E+00
 -3.66726849E-01  1.67483388E+00  1.00851860E-01 -4.60635277E-01  2.65866627E-01
 -1.21411498E+00 -3.66713201E-01  1.67464869E+00  1.00842162E-01 -4.60469813E-01
  2.41270746E-02 -5.59255044E-02 -3.70700382E-01  2.52183378E-01  2.02861164E-07
 -5.88456078E-01  1.38212876E+00 -1.17050631E+00 -2.22477102E-07  4.75612325E-02
 -5.65301495E-02 -1.99690131E-02 -2.41151059E-02  3.00536578E-09  1.94603197E-08
  8.51548790E-03 -1.97394404E-02  3.81701154E-02  1.54939246E-01 -7.86389743E-08
 -2.07721647E-01  1.07302778E-01 -6.53061905E-01  7.44090325E-07 -1.06289040E-03
 -2.10420791E-03 -7.04738039E-03  7.04562853E-02  3.29210751E-08  1.92845212E-08
 -3.26430469E-02  7.56685739E-02 -5.57027784E-01 -2.39359439E-01  2.04815609E-06
  7.96174448E-01  2.21670064E+00  1.03117779E+00 -6.09623092E-06 -3.85786092E-02
  5.07148482E-02  2.70174564E-02 -2.83571012E-02  1.71404502E-07  7.28001467E-08
  2.41274385E-02 -5.59228846E-02  3.70705182E-01 -2.52188616E-01 -1.04532721E-06
 -5.88478200E-01 -1.38215008E+00  1.17053084E+00  2.97761102E-06  4.75618954E-02
 -5.65305451E-02 -1.99693522E-02 -2.41159614E-02 -7.13553250E-08  3.14796857E-08
  8.51599210E-03 -1.97369595E-02 -3.81702623E-02 -1.54940931E-01  2.98129118E-07
 -2.07702669E-01 -1.07304014E-01  6.53050344E-01 -1.30202215E-06 -1.06315339E-03
 -2.10166850E-03 -7.04846446E-03  7.04567406E-02  9.62589419E-09 -1.59042654E-08
 -3.26427600E-02  7.56689504E-02  5.57022317E-01  2.39354424E-01  1.51808919E-06
  7.96154339E-01 -2.21667570E+00 -1.03115562E+00 -3.71038621E-06 -3.85781454E-02
  5.07142812E-02  2.70171982E-02 -2.83565771E-02 -1.49178568E-07 -9.79837732E-08
  2.69947095E-01 -1.23279899E+00  9.52763481E-02 -4.35120667E-01 -3.65230135E-01
  1.66795366E+00  2.69949356E-01 -1.23281780E+00  9.52789815E-02 -4.35124718E-01
 -3.65227320E-01  1.66793457E+00  6.25526096E-03  2.19096740E-02 -4.30050425E-01
  3.14689015E-01  2.04314060E-07 -2.64603010E+00  2.62247095E+00 -1.91897643E+00
  2.06302724E-06 -4.46058136E-02 -4.70089717E-02  2.10002189E-02 -4.35810070E-03
  2.15631005E-07 -1.45281147E-07 -6.25418031E-03 -2.19172686E-02 -5.75040276E-02
 -5.29755198E-01  5.08967154E-07  2.64602840E+00  3.50665981E-01  3.23052580E+00
  9.22823399E-07  4.96730890E-02  4.19410193E-02 -2.10015199E-02 -9.82531819E-04
 -3.71923703E-09 -1.75315020E-07  6.25572180E-03  2.19058777E-02  4.87564749E-01
  2.15095989E-01 -2.18760135E-06 -2.64603981E+00 -2.97315582E+00 -1.31167839E+00
  8.49259416E-06 -4.31334271E-02 -4.84823093E-02  2.09998288E-02  3.37519925E-03
 -2.05225499E-07 -1.01353086E-07 -6.25798312E-03 -2.19027615E-02 -4.30090421E-01
  3.14721726E-01  1.08848169E-06  2.64609851E+00  2.62263802E+00 -1.91910060E+00
 -3.84846421E-06  4.46110676E-02  4.70050075E-02 -2.09979895E-02  4.36478475E-03
 -1.97017094E-07  1.50979586E-07  6.25820191E-03  2.19074363E-02 -5.75105152E-02
 -5.29831790E-01  7.02865001E-07 -2.64613356E+00  3.50683241E-01  3.23083534E+00
 -2.50869539E-06 -4.96804269E-02 -4.19356414E-02  2.09982378E-02  9.81973976E-04
  5.60392752E-08  3.31155154E-07 -6.25707767E-03 -2.19022464E-02  4.87588110E-01
  2.15106732E-01  1.20800275E-06  2.64607352E+00 -2.97326901E+00 -1.31167949E+00
 -4.67385396E-06  4.31374603E-02  4.84789566E-02 -2.09987236E-02 -3.38231050E-03
  3.10879886E-07  1.26515988E-07  1.07321495E-01 -1.46852897E+00 -1.07307902E-01
  1.46846030E+00  1.07328657E-01 -1.46856298E+00 -1.07352130E-01  1.46867055E+00
  1.07353473E-01 -1.46866987E+00 -1.07343841E-01  1.46863379E+00 -1.16529988E-02
  1.32737321E-01  2.33346233E-01 -5.16505942E-02  3.13243615E-07 -8.47232676E-02
 -8.39322623E-01 -3.05659686E-01 -4.78070597E-07  6.11359227E-03 -1.63769152E-02
  2.44099178E-02  6.40908812E-02 -3.26250910E-08  6.90662179E-08  1.53475970E-02
 -1.74811460E-01  1.18314908E-01  2.77037847E-01  9.85511679E-08  1.11567128E-01
 -7.44212463E-01 -5.77435600E-01 -1.16726968E-06 -6.23035102E-02  7.58212398E-02
 -3.21483452E-02 -1.21692122E-02  1.06801282E-07  7.77263846E-08  2.70003076E-02
 -3.07549045E-01  4.60480448E-01  2.12311906E-01 -1.59122464E-06  1.96282284E-01
 -1.02712424E+00 -5.23908039E-01  3.68061403E-06  9.09844807E-02 -6.72055212E-02
 -5.65575380E-02  9.59479143E-02 -2.57701330E-07 -1.05649311E-07  1.16529595E-02
 -1.32739925E-01  2.33354678E-01 -5.16546623E-02 -5.98274555E-07  8.47116049E-02
 -8.39346608E-01 -3.05644220E-01  5.47997480E-07 -6.11448797E-03  1.63759632E-02
 -2.44097729E-02 -6.40917778E-02 -1.67512045E-08  2.04826232E-08 -1.53474955E-02
  1.74813045E-01  1.18317577E-01  2.77044044E-01 -4.84064666E-07 -1.11557011E-01
 -7.44218185E-01 -5.77454536E-01  1.46466860E-06  6.23049569E-02 -7.58211395E-02
  3.21481310E-02  1.21697680E-02  1.25577023E-07  5.00068547E-08 -2.70003827E-02
  3.07549001E-01  4.60481173E-01  2.12314607E-01  1.22608219E-06 -1.96278242E-01
 -1.02712731E+00 -5.23919450E-01 -2.98345195E-06 -9.09850115E-02  6.72061894E-02
  5.65575748E-02 -9.59475446E-02 -3.00651942E-07 -1.33244285E-07 -1.80534707E-01
  5.77606258E-01  2.37766574E-01 -7.60726914E-01  4.18296696E-01 -1.33832328E+00
  1.80539444E-01 -5.77626650E-01 -2.37769790E-01  7.60740339E-01 -4.18297736E-01
  1.33832803E+00 -2.44492585E-02  2.78495072E-01  3.43451144E-01 -3.08082567E-01
 -2.19648522E-07 -1.77773670E-01 -6.32345058E-01  9.01103652E-01  3.55037109E-07
 -5.46863987E-02  3.31543505E-02  5.12142535E-02  1.09722804E-01 -3.20712177E-08
 -1.58523622E-08 -2.23168531E-02  2.54202138E-01  1.47597502E-02 -4.23128560E-01
 -3.04630754E-07 -1.62240206E-01 -3.60553913E-01  9.96284683E-01  1.00189694E-06
  7.90584215E-02 -9.87118206E-02  4.67469649E-02 -4.29624708E-02  1.65682761E-08
 -8.47608001E-08  2.13295059E-03 -2.42982803E-02  7.94917288E-02 -8.09411246E-02
 -3.02383412E-07  1.54856607E-02 -4.14107214E-01  7.13277435E-01  4.79212849E-07
 -1.53928708E-02  1.72698001E-02 -4.46783957E-03  3.13778685E-02 -7.16037371E-09
 -6.12920781E-09  2.44494019E-02 -2.78493393E-01  3.43450376E-01 -3.08078582E-01
 -6.24297560E-07  1.77774488E-01 -6.32343760E-01  9.01094692E-01  1.56357314E-06
  5.46862312E-02 -3.31532804E-02 -5.12143873E-02 -1.09722758E-01 -9.60107291E-08
  1.01692162E-07  2.23169270E-02 -2.54199642E-01  1.47585069E-02 -4.23122012E-01
  1.05887301E-06  1.62245148E-01 -3.60549543E-01  9.96265019E-01 -2.82949809E-06
 -7.90573426E-02  9.87120371E-02 -4.67470450E-02  4.29619737E-02  6.61322035E-08
 -2.17592599E-07 -2.13314300E-03  2.42961815E-02  7.94850456E-02 -8.09442219E-02
  2.77445071E-07 -1.54963936E-02 -4.14086263E-01  7.13284880E-01 -4.52337800E-07
  1.53922388E-02 -1.72710788E-02  4.46813805E-03 -3.13771899E-02 -6.15817897E-08
  9.91489052E-08 -3.78775102E-01  1.21188501E+00 -3.45738827E-01  1.10620004E+00
  3.30484174E-02 -1.05743456E-01  3.78773843E-01 -1.21187973E+00  3.45736002E-01
 -1.10618645E+00 -3.30453449E-02  1.05729065E-01  7.15009032E-03  4.17917409E-01
 -2.26428215E-01 -3.59385099E-01  1.18276297E-09 -1.71164068E+00  1.43915364E+00
  2.05305344E+00  1.38437845E-06 -1.30717988E-02  7.58298290E-02 -4.20081392E-03
 -5.66507051E-02 -1.13746675E-07  1.13345935E-07 -7.89002374E-03 -4.61167358E-01
 -4.04161212E-01  7.66145347E-02 -5.31636022E-07  1.88880867E+00  2.40557553E+00
 -3.17687883E-01  2.12227094E-06  1.31572517E-02 -8.24091438E-02  4.63470768E-03
  5.33330888E-02  1.06131681E-07  1.86934194E-08 -1.50386277E-02 -8.79078454E-01
  6.22859336E-02  1.25360358E-02  2.53192897E-07  3.60049735E+00 -1.30713418E-01
  3.07336588E-02 -2.09001363E-06 -1.14606176E-01 -1.73976987E-02  8.83307194E-03
 -5.83261112E-02  2.71770289E-07 -3.78878863E-08 -7.14946766E-03 -4.17912964E-01
 -2.26425361E-01 -3.59379828E-01 -2.91298009E-07  1.71163988E+00  1.43912272E+00
  2.05300467E+00  7.80260667E-09  1.30724958E-02 -7.58283367E-02  4.19995641E-03
  5.66506114E-02  9.75788704E-08  1.01881830E-07  7.88942842E-03  4.61157554E-01
 -4.04156432E-01  7.66067698E-02  2.23962819E-07 -1.88879379E+00  2.40552025E+00
 -3.17669421E-01 -6.36126936E-07 -1.31593239E-02  8.24088604E-02 -4.63448174E-03
 -5.33323756E-02 -2.22256024E-08 -1.47310047E-07  1.50385616E-02  8.79074794E-01
  6.22857857E-02  1.25274612E-02 -1.08784215E-07 -3.60048956E+00 -1.30730119E-01
  3.07849262E-02  9.13097936E-07  1.14607479E-01  1.73960074E-02 -8.83330952E-03
  5.83252761E-02  1.50994559E-07 -8.72447562E-08  3.34493167E-02  1.89907141E-01
 -3.69117664E-02 -2.09569866E-01 -7.03515501E-02 -3.99462735E-01 -3.34478940E-02
 -1.89901793E-01  3.69149138E-02  2.09551131E-01  7.03537536E-02  3.99455033E-01
 -1.32375165E-02 -7.73790824E-01 -1.79218830E-01 -1.52440473E-01  3.84308380E-07
  3.16927198E+00  8.75596970E-01  1.03683781E+00 -1.52186753E-06 -1.06210076E-01
 -9.98352090E-03  7.77493658E-03  5.70912263E-02 -2.00739611E-07 -1.34946372E-07
 -1.28105912E-02 -7.48820605E-01  2.56773280E-01  2.52922131E-02 -6.60470929E-07
  3.06697458E+00 -1.49508843E+00  7.04275745E-02  3.60491848E-06 -5.23689956E-03
 -1.07208729E-01  7.52465871E-03 -5.32439069E-02 -2.71293096E-08 -5.76848974E-08
  4.27031170E-04  2.49614998E-02  1.92703492E-01 -4.41151395E-01  1.42924376E-07
 -1.02254132E-01 -1.14668019E+00  2.60671970E+00  1.35412652E-07 -4.47884782E-02
  4.85370105E-02 -2.51414383E-04  5.22952926E-02  1.19492366E-07 -5.72035979E-08
  1.32377575E-02  7.73786047E-01 -1.79214474E-01 -1.52445792E-01  5.20566272E-09
 -3.16925586E+00  8.75604261E-01  1.03686185E+00 -3.74688797E-07  1.06210165E-01
  9.98396447E-03 -7.77591996E-03 -5.70924018E-02 -1.72662994E-07 -3.25047176E-08
  1.28108654E-02  7.48815968E-01  2.56769570E-01  2.52861000E-02  2.99625814E-07
 -3.06695822E+00 -1.49506992E+00  7.04330539E-02 -1.83177407E-06  5.23605334E-03
  1.07210184E-01 -7.52567328E-03  5.32429628E-02  7.73914523E-08 -8.66560191E-08
 -4.27652732E-04 -2.49754890E-02  1.92690886E-01 -4.41154448E-01 -1.44456552E-07
  1.02278490E-01 -1.14665317E+00  2.60670927E+00 -1.13873969E-07  4.47881696E-02
 -4.85393086E-02  2.51193463E-04 -5.22934937E-02  5.95041390E-08  1.00587817E-07
 -6.19252199E-02 -3.51612630E-01 -5.99292364E-02 -3.40270755E-01  2.00492430E-03
  1.13265874E-02  6.19304712E-02  3.51600222E-01  5.99347581E-02  3.40258311E-01
 -1.99814157E-03 -1.13566013E-02 -1.95921507E-03 -3.65567750E-01 -3.22584519E-01
  2.36067428E-01  1.25191905E-07  8.84237555E-01  4.62121955E-01 -3.38265675E-01
 -4.75502318E-07  3.52701031E-03 -2.92549517E-02 -3.27743740E-02 -5.96191505E-02
 -7.52332449E-08 -3.69132068E-08 -1.95891825E-03 -3.65569228E-01  4.31440327E-02
  3.97404017E-01  1.00630932E-07  8.84236217E-01 -6.18587534E-02 -5.69347264E-01
 -4.40208560E-07 -6.57735869E-02  4.00478911E-02 -3.27751315E-02  1.34197573E-02
  8.83842862E-08  1.80862038E-07 -1.95920185E-03 -3.65572150E-01  3.65723522E-01
  1.61339786E-01 -7.80517212E-07  8.84252638E-01 -5.23961441E-01 -2.31114420E-01
  1.65340955E-06  2.36564661E-02 -4.93830776E-02 -3.27745538E-02  4.61997708E-02
 -2.05240387E-07 -1.44823401E-07 -1.95938395E-03 -3.65581111E-01  3.22590790E-01
 -2.36061155E-01 -3.83725637E-07  8.84291043E-01 -4.62155835E-01  3.38225700E-01
  8.31243791E-07  3.52543543E-03 -2.92553053E-02 -3.27743150E-02 -5.96181893E-02
  2.62722526E-08  1.25077490E-07 -1.95920644E-03 -3.65589856E-01 -4.31465431E-02
 -3.97406479E-01  5.81465840E-07  8.84321387E-01  6.18731157E-02  5.69350480E-01
 -1.69346094E-06 -6.57734574E-02  4.00449168E-02 -3.27751283E-02  1.34199339E-02
 -5.39035175E-08 -2.69074958E-07 -1.95927467E-03 -3.65578921E-01 -3.65728366E-01
 -1.61330538E-01 -5.01708643E-07  8.84279577E-01  5.23988010E-01  2.31060331E-01
  1.46177404E-06  2.36540932E-02 -4.93816787E-02 -3.27745280E-02  4.62009810E-02
  9.44939118E-08  9.42663689E-08  2.65718424E-01 -8.49834741E-01  2.65723710E-01
 -8.49842924E-01  2.65718955E-01 -8.49821277E-01  2.65717446E-01 -8.49842256E-01
  2.65722802E-01 -8.49855152E-01  2.65718352E-01 -8.49825322E-01 -6.94871963E-07
  3.92510126E-06  3.07705699E-01  4.20504791E-01  9.03808174E-07 -5.05190752E-05
 -2.55027629E+00 -3.48520286E+00 -6.37706325E-06  6.25695154E-02 -6.25718438E-02
  1.36307244E-06  2.29345229E-02 -9.30715439E-08 -1.00199208E-07  7.79712527E-07
  1.41714611E-05  5.18019129E-01 -5.62373730E-02 -1.85336922E-07 -1.73585850E-07
 -4.29340682E+00  4.66030380E-01  1.15955784E-06 -1.40813253E-02  1.40845636E-02
  1.57957786E-07 -7.40368374E-02  1.16825618E-07 -3.02900876E-08 -5.48660970E-07
 -2.82862258E-06  2.10314752E-01 -4.76734194E-01 -6.00389782E-07  7.90948287E-06
 -1.74314280E+00  3.95121268E+00  4.19710816E-06 -4.84886929E-02  4.84867591E-02
  1.15463240E-06  5.11019759E-02 -7.58585627E-08  1.27805383E-07  2.05670001E-08
 -3.08087402E-06 -3.07710253E-01 -4.20506914E-01  7.89943045E-07  6.73055349E-06
  2.55029346E+00  3.48522401E+00 -5.39304790E-06  6.25703550E-02 -6.25715999E-02
  6.27564222E-07  2.29359366E-02 -5.74715310E-08 -1.37226454E-07 -9.34184484E-09
  1.49725484E-05 -5.18026217E-01  5.62347406E-02 -3.03430828E-07 -2.86146909E-05
  4.29344831E+00 -4.66031850E-01  2.18003838E-06 -1.40829850E-02  1.40843891E-02
  8.54653634E-07 -7.40376228E-02  1.61332787E-07 -1.94162445E-08  4.16564364E-07
  9.47352163E-06 -2.10311042E-01  4.76738065E-01 -6.04591559E-07 -2.31863603E-05
  1.74314303E+00 -3.95122671E+00  4.23346392E-06 -4.84868232E-02  4.84884071E-02
  4.72893888E-07  5.11026847E-02 -5.37568395E-08  1.64300463E-07 -6.42423484E-06
  6.08445091E-06 -2.43453536E-06  2.66720997E-05 -7.19386775E-06  6.46229119E-06
 -6.36968206E-06  6.44010605E-06 -3.00202143E-06  2.26952070E-05 -5.51241966E-06
  1.73258323E-05  2.95750294E-02  8.43384270E-01 -2.50823584E-02 -1.09526383E-01
 -3.83725201E-07 -3.17611173E+00  3.97112125E-01  6.26568237E-01  1.19401757E-06
  3.50916964E-02  7.35082036E-02 -4.23175884E-03 -7.30689027E-02  1.26347801E-08
 -2.44196384E-07 -3.79319057E-02 -1.08168963E+00 -4.08737723E-02  6.17673818E-02
 -4.94791618E-07  4.07359123E+00  3.30380711E-01 -9.97797575E-02  2.51128240E-06
  2.31714223E-03 -1.41603119E-01  5.42712047E-03  2.04388354E-03  7.35163324E-08
 -2.46327726E-07  8.35692942E-03  2.38304875E-01  4.92601564E-02 -1.42784702E-01
 -2.46884749E-08 -8.97499076E-01 -4.22937827E-01  9.93420725E-01  1.54589028E-07
 -1.46178028E-02  4.53028005E-02 -1.19477593E-03  5.56575906E-02 -3.44039045E-07
 -4.32489312E-07  2.95749586E-02  8.43379849E-01  2.50773215E-02  1.09533321E-01
  2.22449793E-07 -3.17615545E+00 -3.97113185E-01 -6.26620831E-01 -2.05459504E-07
  3.50920720E-02  7.35066840E-02 -4.23059731E-03 -7.30712513E-02 -5.90870387E-07
  5.17968307E-07 -3.79318292E-02 -1.08168825E+00  4.08769666E-02 -6.17711209E-02
  2.22276687E-07  4.07360708E+00 -3.30437766E-01  9.98006908E-02  2.73311756E-07
  2.31821481E-03 -1.41603875E-01  5.42659931E-03  2.04317284E-03  8.47290546E-08
  8.73839041E-07  8.35692659E-03  2.38309640E-01 -4.92716763E-02  1.42778833E-01
 -6.36627438E-08 -8.97428786E-01  4.22967383E-01 -9.93390993E-01  4.53561505E-07
 -1.46192157E-02  4.53057794E-02 -1.19645148E-03  5.56549564E-02  4.16640730E-07
  2.74967512E-07  2.16643119E-01  4.26316216E-01 -2.77867723E-01 -5.46781149E-01
  6.12264577E-02  1.20470494E-01  2.16653675E-01  4.26328908E-01 -2.77872422E-01
 -5.46786733E-01  6.12135455E-02  1.20450585E-01  2.67249749E-02  7.62100944E-01
  9.98548338E-02  6.84554865E-02 -8.83782151E-08 -2.87010979E+00 -5.19894264E-01
 -6.34671949E-01  7.23277906E-07  1.03474809E-01 -5.34249046E-03 -3.82252931E-03
 -3.97263843E-02 -3.01623505E-07  4.44500902E-07  1.22504583E-02  3.49338829E-01
 -1.47618745E-01 -2.49901455E-03  1.98316142E-07 -1.31563887E+00  1.04675567E+00
 -9.29606116E-02 -1.86172890E-06  1.18454053E-02  3.31375488E-02 -1.75175875E-03
  6.55500170E-02  1.12152683E-07  5.41935315E-07 -3.89753365E-02 -1.11144690E+00
  6.66065189E-02 -5.88964372E-03 -3.65859576E-07  4.18568383E+00 -1.53134032E-01
  1.85416800E-01  1.21006363E-06 -1.28631853E-01 -1.44841834E-02  5.57558948E-03
 -5.21397656E-02  7.46889358E-07  3.18535430E-07  2.67250014E-02  7.62106892E-01
 -9.98458066E-02 -6.84595396E-02  3.88917358E-07 -2.87005983E+00  5.19843590E-01
  6.34658533E-01 -2.02394707E-06  1.03475040E-01 -5.34122050E-03 -3.82383217E-03
 -3.97236415E-02  1.70738911E-07 -2.79822908E-07  1.22504857E-02  3.49345379E-01
  1.47617019E-01  2.48666760E-03  2.37090067E-08 -1.31557292E+00 -1.04673229E+00
  9.29982972E-02  5.96781428E-08  1.18493518E-02  3.31354108E-02 -1.75342421E-03
  6.55494457E-02 -1.87030988E-09 -4.65356819E-07 -3.89753165E-02 -1.11144646E+00
 -6.66101484E-02  5.89188568E-03 -1.93448619E-07  4.18569819E+00  1.53167527E-01
 -1.85470772E-01 -3.77765130E-07 -1.28631775E-01 -1.44840386E-02  5.57525158E-03
 -5.21408203E-02 -7.87002558E-07 -3.79075963E-07  1.95777788E-01  3.85237214E-01
  8.97429534E-02  1.76596942E-01 -2.85504614E-01 -5.61816520E-01  1.95766121E-01
  3.85222953E-01  8.97291752E-02  1.76578282E-01 -2.85507528E-01 -5.61820885E-01
  4.01459535E-04 -3.11519332E-01  3.46170164E-01 -2.50357946E-01 -2.67392244E-08
 -1.50578273E+00 -7.01833691E-01  1.40355944E+00  2.88194220E-06  6.70680362E-03
 -7.90949473E-02  4.42579201E-02 -8.13418814E-02  1.31883061E-06  1.71274031E-06
  3.46233161E-05 -2.73361916E-02  1.44366043E-03 -3.78287878E-02 -2.04845447E-08
 -1.31935322E-01  1.66895393E+00 -5.81414254E-02 -1.92682909E-06 -1.97755479E-02
  1.34261250E-02  3.87904525E-03 -4.94652785E-02 -2.72519399E-06  1.16771127E-06
 -3.65500318E-04  2.84242665E-01  3.57870909E-01  1.54443813E-01 -1.10792381E-06
  1.37372830E+00 -7.82248064E-01 -1.38042811E+00  1.57467957E-06 -3.53266862E-02
  1.01375716E-01 -4.03797635E-02 -4.22355388E-02  2.59229179E-06 -1.22677548E-06
 -4.00867498E-04  3.11534139E-01  3.46173360E-01 -2.50354598E-01 -6.22807878E-07
  1.50572759E+00 -7.01870425E-01  1.40352330E+00  6.31005482E-08 -6.70787422E-03
  7.90981962E-02 -4.42581073E-02  8.13399198E-02  2.29405453E-06  6.11164984E-07
 -3.60992775E-05  2.73001418E-02  1.44313474E-03 -3.78280096E-02  1.50527947E-07
  1.32077827E-01  1.66894845E+00 -5.81568782E-02  1.01054410E-06  1.97751793E-02
 -1.34310847E-02 -3.87853852E-03  4.94645415E-02 -2.71225411E-06  3.20082465E-07
  3.66383520E-04 -2.84221363E-01  3.57869740E-01  1.54446200E-01  9.83420734E-07
 -1.37381585E+00 -7.82232100E-01 -1.38044523E+00 -2.46582699E-06  3.53275537E-02
 -1.01373530E-01  4.03795064E-02  4.22383263E-02  1.55680687E-06 -1.95719312E-06
  4.05509606E-01  6.86230509E-01  3.55374808E-02  6.01374289E-02 -3.69941067E-01
 -6.26051544E-01 -4.05506206E-01 -6.86227146E-01 -3.55467139E-02 -6.01481117E-02
  3.69946723E-01  6.26059140E-01 -1.90642816E-04  1.48350174E-01 -1.61196924E-01
  1.24152746E-01  1.68350700E-07  7.16921434E-01  1.42685796E+00  8.25066791E-01
  2.28126214E-06  4.48900349E-02 -1.04188216E-02 -2.10724765E-02  5.63501854E-02
  2.51785197E-07 -5.81009112E-07 -4.42954897E-04  3.43957211E-01  5.13338454E-02
  4.68873628E-01  2.34810234E-07  1.66249610E+00 -3.47855643E-02 -1.54574009E+00
 -5.93006547E-07  1.25591779E-01 -4.56652655E-02 -4.88660423E-02 -2.59799172E-02
  1.89807020E-07  2.67369994E-07 -2.52096186E-04  1.95629114E-01  2.43605896E-01
  1.12454423E-01 -6.83121479E-07  9.45594260E-01 -1.35708094E+00  9.05553865E-01
  3.48114200E-06  1.65190555E-02  2.89408922E-02 -2.77942510E-02 -7.21137074E-02
  2.99820644E-07  8.41680504E-07  1.91971714E-04 -1.48317936E-01 -1.61197385E-01
  1.24150532E-01  2.19128120E-07 -7.17048034E-01  1.42685655E+00  8.25091406E-01
 -4.37111961E-06 -4.48858026E-02  1.04195092E-02  2.10719113E-02 -5.63523189E-02
  4.91528703E-07 -7.74687868E-07  4.42873458E-04 -3.43959343E-01  5.13381027E-02
  4.68873390E-01 -9.47472663E-07 -1.66249006E+00 -3.48296872E-02 -1.54573823E+00
  3.99969613E-06 -1.25591218E-01  4.56645768E-02  4.88659644E-02  2.59829883E-02
  3.60677514E-07 -8.99257001E-07  2.50855616E-04 -1.95659644E-01  2.43605365E-01
  1.12456293E-01  5.94260711E-07 -9.45472459E-01 -1.35708430E+00  9.05530709E-01
 -4.06667668E-06 -1.65235421E-02 -2.89407178E-02  2.77945397E-02  7.21134032E-02
 -5.85280818E-07  8.29027672E-07 -1.93061156E-01 -3.26709239E-01 -4.47718631E-01
 -7.57655359E-01 -2.54637059E-01 -4.30912556E-01  1.93069553E-01  3.26717815E-01
  4.47718682E-01  7.57655151E-01  2.54629596E-01  4.30902504E-01 -1.12911868E-02
 -5.80711268E-01  5.37754983E-02 -3.93537154E-02  4.60513070E-07  7.87623908E-01
  1.02210246E+00 -7.47851047E-01  9.99054950E-07 -6.26310774E-02 -3.84713210E-02
  2.33308837E-02  4.39415876E-02  1.43525688E-06 -7.77885586E-07  1.12909955E-02
  5.80710760E-01  7.18553058E-03  6.62488225E-02  5.99229858E-07 -7.87587966E-01
  1.36703870E-01  1.25907549E+00 -9.58525576E-07  1.15560922E-02  8.95465848E-02
 -2.33309029E-02  9.89077177E-03 -6.15182367E-07 -7.20547051E-07 -1.12915475E-02
 -5.80706421E-01 -6.09537183E-02 -2.68940575E-02 -5.59470115E-07  7.87713579E-01
 -1.15878817E+00 -5.11175163E-01  4.30393509E-06 -7.74699501E-02 -2.36314830E-02
  2.33297546E-02 -3.40536221E-02  1.50814339E-07  6.62909013E-10  1.12911318E-02
  5.80710649E-01  5.37769935E-02 -3.93518526E-02  4.50727970E-07 -7.87618963E-01
  1.02212166E+00 -7.47826916E-01 -2.38042899E-06  6.26310046E-02  3.84713091E-02
 -2.33308068E-02 -4.39415713E-02 -1.36389011E-06  2.98135597E-07 -1.12908902E-02
 -5.80709674E-01  7.18837685E-03  6.62485012E-02  2.74249065E-07  7.87577752E-01
  1.36731345E-01  1.25907441E+00 -2.98536597E-07 -1.15560939E-02 -8.95465410E-02
  2.33308438E-02 -9.89064260E-03  5.01535438E-07  2.02788329E-06  1.12914945E-02
  5.80705556E-01 -6.09524393E-02 -2.68972285E-02  4.11920119E-07 -7.87708654E-01
 -1.15877957E+00 -5.11197233E-01 -2.20064762E-06  7.74699631E-02  2.36313416E-02
 -2.33296964E-02  3.40534708E-02  1.72239847E-06  7.25701893E-07 -4.55497317E-01
 -5.81109423E-01  4.55492212E-01  5.81105806E-01 -4.55511711E-01 -5.81132688E-01
  4.55497321E-01  5.81109430E-01 -4.55491824E-01 -5.81105340E-01  4.55511664E-01
  5.81132656E-01  4.30635783E-08 -2.30806623E-06  2.67815636E-06 -2.35458295E-06
  1.90114851E-06 -1.69733639E-05 -4.25940344E-06  1.45165387E-05 -1.52252311E-06
  4.49522962E-07 -4.04611642E-07 -1.79505456E-07 -4.93024898E-07 -2.00107260E-01
 -2.73460441E-01  1.50223282E-08 -6.42205967E-07 -5.85459795E-07 -9.60834345E-07
  1.70098769E-06 -5.01819486E-06  2.19695714E-05  9.44044965E-07 -9.80616699E-07
 -4.16025393E-07  3.38323301E-07  3.77998503E-08 -9.23284030E-07  3.36878323E-01
 -3.65624140E-02 -3.17004060E-08  1.63031191E-06  2.14823531E-06  1.41259804E-06
  4.91577864E-07  1.21998449E-05 -6.62709208E-07 -1.95746174E-05 -1.85311459E-07
 -6.92434779E-07  7.08283732E-07  7.96049703E-08  1.01689030E-07 -1.36773354E-01
  3.10026248E-01 -4.65817455E-08  2.27413753E-06  2.97073606E-06 -1.95845886E-06
 -4.35515072E-07  1.72081556E-05 -1.00420471E-05  6.29750559E-06  3.85413838E-07
 -2.39584773E-07  3.28230588E-07  4.67035006E-08  6.24659908E-07 -2.00104946E-01
 -2.73461859E-01 -1.13789802E-08  6.77289273E-07 -9.60637697E-08 -1.01165738E-06
 -2.57054324E-07  4.77514575E-06  1.19986957E-05  2.22111867E-06 -3.07037059E-08
  2.45082179E-07 -3.05889416E-07  9.99119944E-08  7.53425380E-07  3.36877730E-01
 -3.65650568E-02  3.15753900E-08 -1.63146440E-06  2.34215850E-06  9.72804890E-07
  9.38639988E-07 -1.21915873E-05 -4.75818571E-06 -1.03081926E-05 -5.54600080E-07
  6.80230166E-07 -6.91118243E-07 -8.45231128E-08 -8.99689063E-08 -1.36775715E-01
  3.10025115E-01  3.62890697E-06  6.13817580E-06  1.02078742E-06  1.71931079E-06
 -2.57790732E-06 -4.36809690E-06 -3.59955876E-06 -6.08893249E-06 -1.05123701E-06
 -1.77038995E-06  2.57901096E-06  4.36993092E-06 -8.77817791E-07 -1.73003389E-05
  1.42607193E-06 -2.30107823E-06 -5.44690886E-02  9.05119081E-05 -5.61902012E-05
  3.98697110E-05 -1.20450143E-02  2.98004017E-07 -5.66088513E-07 -3.56193325E-07
 -4.90098146E-07 -2.98935577E-01  2.18744192E-01  6.08543252E-07  1.19092045E-05
 -2.89848260E-06  1.66424372E-06 -5.44673177E-02 -6.77256345E-05 -9.99127828E-06
 -5.04298571E-05 -1.20464306E-02 -8.96003673E-08 -3.80545157E-07  8.85026556E-07
 -1.03877963E-06  3.99726030E-02  3.68256486E-01 -9.56143882E-08 -1.89000316E-06
  1.37416129E-06 -3.57403433E-06 -5.44684589E-02  1.79336404E-05  3.47462668E-06
  3.41121404E-06 -1.20429477E-02  2.21614228E-06 -8.01811026E-07 -1.31612096E-06
 -2.08949802E-07  3.38903568E-01  1.49513866E-01 -1.02602537E-07 -2.84699698E-06
 -2.67731186E-06  2.91627010E-06 -5.44690672E-02 -6.49261417E-06  2.51828360E-05
 -2.58013793E-05 -1.20447920E-02  7.06962485E-07 -8.29438659E-07 -7.22107755E-08
 -1.32395896E-06  2.98936413E-01 -2.18742247E-01 -1.64375667E-07 -2.58231356E-06
  2.51443052E-06 -2.87319699E-06 -5.44671689E-02  2.87393457E-05 -8.21674303E-07
  1.76690118E-05 -1.20467195E-02  5.33400006E-07 -1.14653089E-06  6.06739627E-07
 -1.33986271E-06 -3.99746871E-02 -3.68255730E-01  6.15259141E-07  1.36359213E-05
 -3.45213444E-06  2.66713002E-06 -5.44684925E-02 -6.39424014E-05  3.73278854E-05
  1.48706436E-05 -1.20427021E-02  1.72816126E-06 -2.40842040E-07 -1.19229749E-06
 -8.65999330E-07 -3.38902424E-01 -1.49515966E-01  8.57899441E-06  1.50268813E-05
 -6.60809788E-06 -1.08765988E-05 -1.30229248E-06 -3.72234806E-07  9.10687326E-06
  1.54491282E-05 -7.04410820E-06 -1.10365229E-05 -3.35346818E-06 -7.31460134E-06
  3.21398390E-02  6.69889769E-01 -2.47451859E-01  3.36802331E-02 -8.85984535E-07
 -2.77691453E+00  2.86973633E+00 -2.08290759E+00 -2.60889047E-06  4.06861017E-02
 -2.58415522E-04 -2.07843664E-02  6.06352878E-02 -8.39392245E-06 -3.93098460E-06
 -3.29298809E-03 -6.86368807E-02  2.79799239E-01 -5.30032315E-02 -7.29560869E-07
  2.84480837E-01  6.68221834E-03  3.64735829E-01  5.65545242E-07  1.16659382E-02
 -1.58063532E-02  2.13012943E-03  9.63968183E-02  1.05733618E-05  2.47695563E-06
 -2.88466033E-02 -6.01249229E-01 -2.46893528E-01  7.13536146E-02  2.26649977E-06
  2.49238202E+00  2.91953465E+00  1.26713850E+00 -3.73197195E-06 -2.78565734E-02
 -8.42619745E-03  1.86544666E-02  7.17823075E-02 -2.33122937E-06  1.28152081E-06
  3.21398086E-02  6.69889470E-01  2.47451963E-01 -3.36794993E-02 -3.66715952E-06
 -2.77689939E+00 -2.86976130E+00  2.08286683E+00  2.52013083E-06  4.06846612E-02
 -2.57619047E-04 -2.07843314E-02  6.06352839E-02  1.50704359E-05  1.16549327E-08
 -3.29313199E-03 -6.86374012E-02 -2.79799478E-01  5.30029838E-02 -2.44124040E-06
  2.84532212E-01 -6.69366430E-03 -3.64740984E-01 -1.31611523E-06  1.16661705E-02
 -1.58081355E-02  2.13026810E-03  9.63968510E-02 -1.20382209E-05 -8.60756294E-06
 -2.88467394E-02 -6.01249853E-01  2.46893206E-01 -7.13545735E-02  2.26262187E-06
  2.49241949E+00 -2.91952431E+00 -1.26716901E+00 -5.87175484E-07 -2.78582206E-02
 -8.42549400E-03  1.86545965E-02  7.17825520E-02  2.42221413E-06  5.09348561E-07
 -5.92120233E-01 -1.06635681E+00  6.06704269E-02  1.09268321E-01  5.31445421E-01
  9.57088474E-01 -5.92120607E-01 -1.06635578E+00  6.06683283E-02  1.09268521E-01
  5.31443806E-01  9.57087622E-01  1.47542989E-02  3.07513205E-01  7.16760496E-02
  2.68642326E-01  2.02682967E-06 -1.27473150E+00  1.29594967E+00 -9.85328635E-01
  2.22232634E-06 -7.03135316E-02  8.88738557E-02 -9.54565493E-03 -4.78498053E-03
  3.87337215E-06 -2.93692760E-06 -3.52110653E-02 -7.33899222E-01 -5.23595799E-02
 -2.36297665E-01  2.53185483E-07  3.04226688E+00  4.22256428E-01  3.86171598E+00
  2.91380314E-07 -7.07678727E-02  2.64804788E-02  2.27685893E-02  2.99180614E-03
 -5.29686156E-06  3.70432008E-07  2.04574395E-02  4.26387424E-01  3.40047337E-02
  2.69198324E-01 -1.51713878E-06 -1.76752186E+00 -2.05418158E+00 -9.35550615E-01
  4.30079904E-06 -5.70736781E-02  8.28084728E-02 -1.32327307E-02  3.00749468E-02
  5.78329029E-06 -2.27037245E-06  1.47543759E-02  3.07513193E-01 -7.16758841E-02
 -2.68642125E-01 -7.22536201E-07 -1.27477276E+00 -1.29596935E+00  9.85311920E-01
  2.14192594E-06 -7.03131698E-02  8.88748600E-02 -9.54571234E-03 -4.78613227E-03
  4.12958645E-06 -1.63992391E-06 -3.52110898E-02 -7.33898844E-01  5.23595996E-02
  2.36297438E-01 -3.14429733E-06  3.04226865E+00 -4.22302046E-01 -3.86170922E+00
  4.81361136E-06 -7.07675430E-02  2.64802612E-02  2.27686765E-02  2.99314496E-03
  3.11976102E-06 -1.01201606E-05  2.04572513E-02  4.26386210E-01 -3.40053427E-02
 -2.69198043E-01 -1.45366063E-06 -1.76747351E+00  2.05416845E+00  9.35566809E-01
  2.17086471E-06 -5.70744605E-02  8.28079026E-02 -1.32325180E-02  3.00737520E-02
 -6.97646329E-06  4.13317988E-06 -2.71803812E-01 -4.89494767E-01  6.48687439E-01
  1.16823433E+00 -3.76891745E-01 -6.78753057E-01 -2.71802005E-01 -4.89495842E-01
  6.48687045E-01  1.16823323E+00 -3.76893426E-01 -6.78753800E-01 -3.57940776E-07
 -6.94558807E-06  4.57154466E-06  3.49508126E-06 -9.72254972E-02  3.25890593E-05
 -2.28774646E-05  2.48832708E-05 -1.03439160E-01 -1.52831264E-06  1.31129668E-06
 -3.53361423E-08 -4.00345319E-07 -1.84184327E-01  1.71110025E-01 -4.11577461E-07
 -7.96489738E-06 -4.98016961E-06 -2.00104898E-06  5.40625244E-02  3.18808880E-05
  1.04071630E-05  4.29272501E-05  5.75145004E-02 -5.75217448E-07  4.54512303E-07
 -1.81138360E-07 -2.27643678E-06  3.60617406E-01 -1.78793834E-01  6.52698374E-07
  1.31463166E-05  3.92687858E-06  2.85574566E-06  4.31661021E-02 -5.23779851E-05
 -6.69619063E-05 -3.42264426E-05  4.59234409E-02 -9.98802070E-07  1.21766455E-06
 -1.92397441E-08 -1.48714623E-07 -2.65754010E-01  3.27742644E-01 -1.74163465E-07
 -4.15706946E-06 -4.89171964E-06 -3.05656611E-06 -9.72255213E-02  1.27812766E-05
  1.89077434E-05 -1.98095113E-05 -1.03439301E-01 -1.14926256E-06  1.24333867E-06
 -1.16294025E-07 -1.48544213E-06  1.84185096E-01 -1.71109334E-01 -5.11799668E-07
 -1.05744299E-05  4.81104121E-06  2.84711265E-06  5.40607845E-02  4.51674077E-05
 -1.26699996E-05 -5.19605729E-05  5.75157336E-02 -1.02597999E-06  1.24520102E-06
 -3.31117138E-07 -1.87981117E-06 -3.60617155E-01  1.78792445E-01  7.80843929E-07
  1.53972020E-05 -4.05572408E-06 -2.42436852E-06  4.31643119E-02 -6.90968278E-05
  7.19348566E-05  3.95964903E-05  4.59244359E-02 -9.68764153E-07  1.24472420E-06
 -1.00324447E-07 -1.53707891E-07  2.65753027E-01 -3.27742728E-01  4.99766244E-06
  9.17497913E-06  7.80394448E-06  1.36488382E-05 -1.30755674E-05 -2.38791171E-05
  5.15198558E-06  9.33201648E-06  8.17074460E-06  1.57427340E-05 -1.29018321E-05
 -2.44381965E-05  8.14559431E-07  1.63161424E-05 -5.28737428E-06  9.96805604E-07
  6.28859519E-03 -7.42415218E-05  6.82355603E-05 -5.10490038E-05  6.69448577E-03
  5.22763405E-07  1.81316886E-07 -6.61797446E-07  6.16493755E-07  2.80654416E-01
  3.56183436E-01 -2.95581201E-07 -5.30163290E-06  6.05644340E-06 -1.27070572E-06
  8.10535190E-02  2.67300088E-05 -1.46444794E-06  1.64705036E-05  8.62356263E-02
  9.38335108E-07 -1.31729945E-07 -1.08322974E-06  2.54361127E-06 -2.72973400E-01
 -1.79753159E-01 -4.87318630E-07 -1.05152273E-05 -5.61434397E-06  1.74061938E-06
 -8.73455455E-02  3.54720793E-05  5.51064377E-05  2.72752772E-05 -9.29284561E-02
  1.47016486E-07  2.25123120E-07 -7.52459624E-07  2.12809352E-06  1.24019259E-01
  2.74619552E-01  5.68627972E-07  1.12811593E-05  4.88781507E-06 -4.74615751E-07
  6.28981114E-03 -4.48796476E-05 -5.58629955E-05  4.21302431E-05  6.69337238E-03
  9.68237927E-07 -7.13319904E-08 -7.90159010E-07  5.80081973E-07 -2.80652442E-01
 -3.56184118E-01 -9.38876019E-09 -1.60823575E-07 -6.07394601E-06  1.26742902E-06
  8.10535749E-02 -5.71369322E-06  1.65007905E-06 -2.54568179E-06  8.62354776E-02
  3.05951694E-07  6.13097468E-07 -1.05895725E-06  2.42319197E-06  2.72973450E-01
  1.79749323E-01 -7.27146881E-07 -1.46658882E-05  5.37311418E-06 -1.61267864E-06
 -8.73467774E-02  6.69665403E-05 -6.69623918E-05 -3.10156849E-05 -9.29278790E-02
  7.65011316E-08  1.62352951E-07 -5.77260273E-07  2.11335618E-06 -1.24020930E-01
 -2.74619739E-01 -1.31115295E-05 -2.53394326E-05  1.31183926E-06  2.89605454E-06
  1.14891023E-05  2.01996911E-05 -1.27677604E-05 -2.29434204E-05  1.20198661E-06
  1.54822607E-06  1.11081427E-05  2.11308001E-05 -1.22681442E-07 -1.66506640E-06
  3.98766919E-08 -1.29335539E-06  1.17475382E-01  8.87270876E-06 -1.76937287E-05
  8.67902203E-06 -5.20394789E-02 -1.95638823E-08 -1.90623883E-07 -5.48937722E-08
 -2.19313694E-07  3.42865347E-01 -3.16571156E-01  7.21461760E-08  1.42616324E-06
 -1.72598889E-06  1.07915339E-06  6.08374490E-03 -4.68410061E-06 -5.24956292E-06
 -1.67180485E-05 -2.69341192E-03  1.57510932E-07  2.81302793E-07 -3.05001735E-07
  5.00496304E-07 -1.17115993E-01 -1.14428209E-02  1.58631707E-07  1.89060715E-06
 -2.36027899E-07 -2.57743557E-06 -1.11390801E-01 -2.11390250E-05 -5.05315692E-06
 -3.71957207E-07  4.93423564E-02  1.97351462E-06 -6.55012191E-07 -1.03260765E-06
  8.64421591E-07  3.77120953E-01  2.34352195E-01 -3.28455520E-07 -7.64251551E-06
 -1.99802333E-06  2.30241333E-06 -1.17475200E-01  3.01222723E-05  2.74601593E-05
 -2.49845619E-05  5.20385414E-02  9.12670595E-07 -7.56578972E-07 -4.96469859E-08
 -1.33905634E-06  3.42864778E-01 -3.16571843E-01  2.88963932E-07  6.73989574E-06
  6.39016486E-07 -2.24429624E-06 -6.08450965E-03 -2.86122744E-05 -1.23415544E-06
  3.21150273E-05  2.69523153E-03  4.34339603E-07  5.16790893E-08 -5.63207146E-07
 -1.12462111E-06 -1.17116479E-01 -1.14435982E-02 -1.27735373E-07 -4.96922773E-07
 -2.52384271E-06  1.20770345E-06  1.11391296E-01  1.64723921E-05  3.35860588E-06
  1.51070849E-06 -4.93432351E-02 -5.85777133E-07 -5.79000247E-08  3.85112089E-07
 -1.40099018E-06  3.77121845E-01  2.34351131E-01  4.16803093E-06  6.67171596E-06
 -4.12820254E-06 -6.43554925E-06  4.25241632E-07  9.46893471E-07  5.23732786E-06
  1.12624443E-05 -4.54337982E-06 -9.38645224E-06 -2.15853912E-06 -3.86476482E-06
  2.20379420E-07  6.45435402E-06 -1.60906266E-06  3.26692119E-06 -6.07978626E-02
 -1.30364498E-05  2.54554644E-05 -1.97806009E-05  2.69315386E-02  1.77453060E-07
  8.69033736E-07 -1.06067909E-06  6.81554035E-07 -2.54126825E-01  5.90492354E-02
 -2.44814548E-07 -5.47659192E-06  1.19279208E-06 -2.34197537E-06 -1.32134958E-01
  1.71438406E-05  7.75306986E-07  2.94211553E-05  5.85327781E-02 -1.04244243E-06
 -3.72080768E-07  1.16386847E-06  6.81806404E-07  5.09999927E-02  5.19030789E-01
 -5.44248110E-08 -4.51589299E-07 -1.59882460E-06  3.05701229E-06 -7.13378516E-02
  9.38341893E-06  7.59727824E-06  3.68307789E-06  3.16019809E-02  8.18580197E-07
  3.87159717E-07 -1.09380988E-06  9.13119267E-07  2.96792586E-01  2.47928061E-02
  3.73088956E-07  6.54937072E-06  3.27881792E-07 -2.53769207E-06  6.07983761E-02
 -4.04722305E-05 -3.67516353E-05  2.76752335E-05 -2.69333957E-02 -6.42533022E-07
  6.03384896E-07  1.87153850E-07  1.56860268E-07 -2.54128788E-01  5.90472876E-02
 -3.89708265E-07 -7.95015300E-06 -1.34424149E-06  3.29114319E-06  1.32135812E-01
  3.86708231E-05 -6.82928759E-06 -5.12916196E-05 -5.85319369E-02 -7.48159511E-07
  1.68424760E-06 -8.79325640E-07  5.92197745E-07  5.09997096E-02  5.19033002E-01
  6.01913754E-08  1.02517422E-06  8.56116053E-07 -3.11120399E-06  7.13367821E-02
 -1.10727216E-05  9.78116960E-06  7.41394880E-06 -3.16009933E-02 -1.67780676E-06
  8.66203324E-07  7.15152791E-07  5.76274412E-07  2.96792584E-01  2.47892412E-02
 -6.13502271E-06 -1.16293608E-05  5.18937196E-06  9.71909467E-06  9.98131189E-07
  2.23219503E-06 -7.45112164E-06 -1.35191559E-05  8.57027302E-06  1.61988815E-05
 -1.76874328E-06 -3.48311166E-06  1.51119838E-02  2.25733188E-01 -6.45479604E-02
  4.72187170E-02 -1.50593098E-07 -3.19412088E-01 -5.01626050E-02  3.67421055E-02
  4.93997721E-07 -1.61229480E-01 -1.56096434E-01  4.27826297E-01  9.25248490E-03
 -4.09523955E-08  7.29545822E-07  1.51111910E-02  2.25720737E-01  8.64227578E-03
  7.95035960E-02  4.04970115E-07 -3.19337908E-01  6.71601144E-03  6.18984960E-02
  5.38409809E-08 -1.50449529E-01 -1.66877929E-01  4.27829559E-01 -2.10696088E-03
 -6.62847895E-07 -7.50437243E-07  1.51123066E-02  2.25730169E-01  7.31625176E-02
  3.22934075E-02 -4.85766841E-07 -3.19408900E-01  5.69003633E-02  2.50724766E-02
 -4.28676766E-07 -1.64323097E-01 -1.53002106E-01  4.27825969E-01 -7.18863024E-03
  1.32114234E-06  9.84919742E-07  1.51117600E-02  2.25729327E-01  6.45322271E-02
 -4.72396999E-02 -8.27111054E-08 -3.19381457E-01  5.01983822E-02 -3.67268530E-02
 -4.27974834E-07 -1.61194599E-01 -1.56130878E-01  4.27826124E-01  9.26517973E-03
 -8.44848146E-08 -1.09342988E-06  1.51114325E-02  2.25723926E-01 -8.61634735E-03
 -7.95062212E-02  3.29198145E-07 -3.19371248E-01 -6.74561874E-03 -6.18765900E-02
  9.64321861E-07 -1.50441440E-01 -1.66885892E-01  4.27829121E-01 -2.06608162E-03
  2.91409801E-07  8.61987792E-07  1.51120833E-02  2.25726442E-01 -7.31726996E-02
 -3.22697686E-02 -1.95964432E-07 -3.19378118E-01 -5.69063818E-02 -2.51075405E-02
 -1.02855318E-06 -1.64349614E-01 -1.52975260E-01  4.27825918E-01 -7.16040028E-03
 -3.30143632E-07 -5.32882879E-07  1.46625708E-01  1.17492850E-01  1.46637350E-01
  1.17519148E-01  1.46624743E-01  1.17492938E-01  1.46627061E-01  1.17497158E-01
  1.46636372E-01  1.17515469E-01  1.46626052E-01  1.17497168E-01 -9.29955074E-07
  3.14561715E-06 -1.30351016E-01 -1.78145293E-01 -8.17541371E-08 -6.25586315E-05
  1.57246741E-01  2.14808255E-01 -7.66199055E-08 -3.03577000E-01  3.03590022E-01
 -2.14949843E-05 -1.11280151E-01  2.88872157E-07 -1.99330731E-07 -1.96576303E-06
 -1.51294691E-05  2.19452744E-01 -2.38242605E-02  8.97960135E-09  9.06760495E-05
 -2.64646888E-01  2.87566139E-02 -5.72376070E-08 -6.83369332E-02  6.83548293E-02
 -2.45150804E-05 -3.59222553E-01 -7.38570766E-08 -1.14538308E-07 -7.09629831E-07
 -2.00465711E-06 -8.91033168E-02  2.01954486E-01  4.20065621E-08 -5.02200886E-05
  1.07404796E-01 -2.43584063E-01  7.80784129E-08  2.35263272E-01 -2.35242114E-01
 -2.85620220E-05 -2.47942472E-01  2.70622608E-07  6.76961967E-08 -1.66363797E-06
 -2.17733969E-05 -1.30359826E-01 -1.78138586E-01  3.47293436E-08  9.77772456E-05
  1.57238836E-01  2.14812986E-01  1.33109731E-07  3.03597658E-01 -3.03574066E-01
 -2.92044398E-05  1.11270099E-01  3.15113547E-07 -2.38657754E-07 -6.09975945E-07
 -3.92840906E-06  2.19453876E-01 -2.38132951E-02  3.97539973E-08 -5.49921812E-05
 -2.64646282E-01  2.87666717E-02 -1.41986580E-09  6.83463949E-02 -6.83274323E-02
 -2.64173430E-05  3.59224330E-01 -9.17002768E-08 -6.63544688E-08 -1.83222190E-06
 -1.78610300E-05 -8.90931228E-02  2.01958811E-01 -4.37074922E-08  8.67362534E-05
  1.07414794E-01 -2.43578806E-01 -7.58423803E-08 -2.35238291E-01  2.35254384E-01
 -2.27673346E-05  2.47950135E-01  1.88868739E-07  2.49211243E-07 -1.66978460E-05
 -1.31422255E-05 -1.31728838E-05 -9.48200188E-07 -2.26694314E-05 -1.25391183E-05
 -1.14897515E-05  3.97838045E-06 -1.48902020E-05 -9.18158711E-06 -5.27129989E-06
  1.04638922E-06  8.64542996E-03 -1.94384084E-01  4.13727273E-04 -3.04456068E-04
  1.34342660E-07 -5.37625218E-02 -1.72735212E-01  1.26431134E-01  7.41065869E-07
 -1.26009369E-01  7.14628230E-02  1.11494246E-02  3.59170324E-01 -1.09572981E-07
  6.84750770E-07  8.64539385E-03 -1.94393869E-01 -5.27515640E-05 -5.17013272E-04
 -3.72376603E-07 -5.37313235E-02  2.31244739E-02  2.12848651E-01  4.45402282E-07
  2.91469488E-01 -3.46018371E-01  1.11497976E-02 -8.08525011E-02 -5.95355226E-07
  1.59164640E-07  8.64506719E-03 -1.94382238E-01 -4.70779587E-04 -2.01911464E-04
 -5.29101543E-08 -5.37559191E-02  1.95876838E-01  8.63761797E-02 -8.19281219E-07
 -2.47279285E-01  1.92727135E-01  1.11532365E-02 -2.78327996E-01  1.14982053E-06
  6.44919342E-07  8.64523726E-03 -1.94387401E-01 -4.17992637E-04  2.99364489E-04
 -6.25463043E-08 -5.37363852E-02  1.72757271E-01 -1.26430678E-01 -6.97226735E-07
 -1.26000303E-01  7.14541140E-02  1.11493240E-02  3.59172984E-01 -2.09810925E-09
 -8.98337273E-07  8.64560184E-03 -1.94390889E-01  5.95594840E-05  5.16564813E-04
 -1.90887964E-07 -5.37630086E-02 -2.31329988E-02 -2.12830362E-01  1.87255792E-06
  2.91470841E-01 -3.46019581E-01  1.11492740E-02 -8.08422518E-02  3.46479954E-07
 -1.62126768E-07  8.64487333E-03 -1.94385589E-01  4.68204660E-04  2.08663866E-04
  1.82515298E-07 -5.37292288E-02 -1.95890372E-01 -8.63892057E-02 -1.94610509E-06
 -2.47285257E-01  1.92733447E-01  1.11531701E-02 -2.78321046E-01  5.03475631E-07
  9.40806274E-08  3.43420392E-01  2.32487390E-02  3.43424665E-01  2.32608128E-02
  3.43425385E-01  2.32536611E-02  3.43421225E-01  2.32526838E-02  3.43423172E-01
  2.32573555E-02  3.43426369E-01  2.32576046E-02 -7.48218404E-02 -1.21408927E+00
  6.17916163E-02 -4.52106351E-02  5.37172966E-07  1.08846319E+01 -5.58911343E+00
  4.08983066E+00 -4.24487817E-06  2.63167767E-02  1.55767145E-02  9.39116996E-02
 -1.95511831E-02  3.96595313E-06  2.89986293E-07  7.48218916E-02  1.21408980E+00
  8.26967168E-03  7.61221823E-02  2.98412431E-07 -1.08846540E+01 -7.47301751E-01
 -6.88519450E+00 -6.28836728E-06 -3.59087566E-03 -3.83082297E-02 -9.39072367E-02
 -4.40367956E-03 -1.21112940E-06 -1.67474798E-06 -7.48218590E-02 -1.21409413E+00
 -7.00582843E-02 -3.08957850E-02  8.78702508E-07  1.08846417E+01  6.33647925E+00
  2.79537559E+00 -1.30323912E-05  3.29237040E-02  8.97395126E-03  9.39066932E-02
  1.51454880E-02 -2.31962613E-06  3.11290156E-07  7.48220229E-02  1.21409072E+00
  6.17923635E-02 -4.52100181E-02 -1.57938652E-07 -1.08846439E+01 -5.58916890E+00
  4.08976294E+00  4.61110571E-06 -2.63196731E-02 -1.55746787E-02 -9.39106218E-02
  1.95513228E-02 -3.09097775E-07  5.76287899E-07 -7.48218976E-02 -1.21409082E+00
  8.26994546E-03  7.61218369E-02  9.25715002E-08  1.08846734E+01 -7.47384816E-01
 -6.88519067E+00  6.43371029E-06  3.59155026E-03  3.83061258E-02  9.39091074E-02
  4.40568330E-03  1.54765535E-06  1.70220743E-06  7.48220156E-02  1.21409532E+00
 -7.00587296E-02 -3.08954478E-02 -1.69683273E-07 -1.08846494E+01  6.33645137E+00
  2.79544731E+00  7.20709454E-06 -3.29237156E-02 -8.97484243E-03 -9.39055495E-02
 -1.51473723E-02  1.87734260E-06  2.25554110E-06  4.54608837E-01  1.54104010E+00
 -4.54590295E-01 -1.54102423E+00  4.54611468E-01  1.54104229E+00 -4.54607949E-01
 -1.54104087E+00  4.54591534E-01  1.54102369E+00 -4.54610516E-01 -1.54104312E+00
 -7.98755864E-03 -1.31957689E-01  1.84942070E-01  3.02848138E-02  2.24567265E-07
  6.99573574E-01 -1.01328184E-01 -4.22969540E-01 -2.15183862E-06  2.14386282E-01
  4.00376186E-02 -2.20911602E-01 -3.85920833E-01  9.19671713E-07 -9.95719874E-07
  9.71152394E-04  1.60386367E-02  2.28481781E-01 -8.73437349E-03 -1.40346447E-07
 -8.50593104E-02 -6.78414041E-01  9.41982547E-02  1.52505437E-06  3.21004024E-02
 -6.30379531E-02  2.68598997E-02  2.43100795E-02  8.35412642E-08  1.43049426E-06
  8.95899440E-03  1.48010516E-01  1.72922359E-01 -2.69261316E-02 -4.27952760E-07
 -7.84697152E-01  5.79768840E-02  3.35368482E-01 -9.41607060E-07 -3.94081136E-01
  1.08721575E-01  2.47771816E-01 -3.39862860E-01  9.83757157E-07  1.22374992E-06
  7.98749087E-03  1.31960114E-01  1.84942342E-01  3.02829158E-02 -4.34655645E-07
 -6.99573590E-01 -1.01320741E-01 -4.22956028E-01  3.88832371E-07 -2.14382062E-01
 -4.00409647E-02  2.20911865E-01  3.85922347E-01  4.12847499E-07 -1.02061282E-06
 -9.71024208E-04 -1.60429987E-02  2.28482378E-01 -8.73190168E-03  1.79442200E-07
  8.50565830E-02 -6.78407704E-01  9.41939260E-02 -7.75845959E-07 -3.21013224E-02
  6.30377599E-02 -2.68608738E-02 -2.43103271E-02 -9.30208937E-07  8.85033064E-08
 -8.95905748E-03 -1.48008597E-01  1.72921903E-01 -2.69279813E-02  3.24694745E-07
  7.84699928E-01  5.79782633E-02  3.35369382E-01  1.34065947E-06  3.94083824E-01
 -1.08724020E-01 -2.47771131E-01  3.39859779E-01  7.54390850E-07 -1.62826236E-07
 -4.57090375E-01  3.45951449E-03  5.55848903E-02 -4.18021281E-04  5.12671574E-01
 -3.88378213E-03  4.57089316E-01 -3.45957342E-03 -5.55830922E-02  4.18420157E-04
 -5.12672308E-01  3.88342398E-03  5.73418539E-03  9.47297614E-02  3.38707282E-02
  2.05954484E-01  3.29968254E-07 -5.02334515E-01 -4.27281012E-01 -3.79897820E-01
 -1.73123343E-07 -1.90155391E-01  7.54705614E-03  1.58552209E-01  2.63705300E-01
 -8.64195468E-07 -9.75424437E-08  9.78278152E-03  1.61617715E-01 -5.14882159E-03
  1.62412795E-01 -2.64876345E-08 -8.56788646E-01  8.98023199E-02  1.97351240E-01
 -4.98765484E-07  2.56194547E-01 -5.67833834E-01  2.70590575E-01 -1.08122739E-01
 -8.27718817E-07 -9.15789431E-07  4.05194181E-03  6.69395912E-02 -2.33482812E-02
  2.17980902E-01  1.91950324E-08 -3.54951653E-01  3.30885908E-01 -5.39221384E-01
 -1.36831672E-06 -2.03251145E-01  7.42221295E-02  1.12029485E-01 -1.27256628E-01
  6.60987619E-07 -8.59500665E-07 -5.73428160E-03 -9.47264877E-02  3.38729942E-02
  2.05954923E-01 -9.82641285E-08  5.02336738E-01 -4.27288159E-01 -3.79902767E-01
  2.66172760E-06  1.90151294E-01 -7.54193686E-03 -1.58551592E-01 -2.63707417E-01
  1.69901668E-06 -3.03229670E-07 -9.78284598E-03 -1.61615168E-01 -5.15087488E-03
  1.62411165E-01 -2.69638062E-07  8.56790082E-01  8.98122126E-02  1.97351906E-01
 -2.38498720E-06 -2.56195389E-01  5.67834627E-01 -2.70589645E-01  1.08116975E-01
  5.25945447E-07  6.67956413E-07 -4.05179417E-03 -6.69445707E-02 -2.33450325E-02
  2.17982114E-01 -6.85564527E-08  3.54947906E-01  3.30881775E-01 -5.39221157E-01
  1.50854011E-06  2.03251701E-01 -7.42234181E-02 -1.12030973E-01  1.27257625E-01
 -6.11915765E-07  1.31922140E-06  3.28076023E-01 -2.50352027E-03  5.59901961E-01
 -4.21328284E-03  2.31801130E-01 -1.78209557E-03 -3.28078141E-01  2.50334531E-03
 -5.59901913E-01  4.21293673E-03 -2.31800492E-01  1.78277623E-03  1.73196992E-03
 -4.56390685E-01  2.65582009E-01 -1.42042412E-01  1.13803936E-07  4.70543776E-01
 -3.82327781E-01  1.40364144E-01 -4.67487486E-07  2.54667106E-01 -1.85259658E-01
 -1.66414613E-01 -8.21871824E-02  6.98469930E-09 -8.98462663E-07 -1.97957422E-04
  5.21123390E-02 -9.88596463E-02  4.49846703E-02 -1.00935384E-08 -5.37277241E-02
  2.68574689E-01 -7.41068810E-02  6.28776393E-08  1.09685424E-01 -1.17604299E-01
  1.89975416E-02  5.14737024E-01  7.52883523E-07 -1.70882815E-07 -1.53418896E-03
  4.04257885E-01  2.66268742E-01  5.08735181E-02 -2.93155343E-07 -4.16794126E-01
 -3.82792736E-01  8.70065245E-03  2.73501888E-07 -3.11630584E-01  2.50157442E-01
  1.47402875E-01  1.09943938E-01  6.60867097E-07  4.23080252E-07  1.73232802E-03
 -4.56379836E-01 -2.65572912E-01  1.42050459E-01  5.47451169E-08  4.70534140E-01
  3.82321434E-01 -1.40353281E-01 -4.27972214E-08  2.54665051E-01 -1.85265201E-01
 -1.66405951E-01 -8.21943407E-02 -4.23901504E-08  8.55953809E-07 -1.97113453E-04
  5.21372121E-02  9.88596274E-02 -4.49908289E-02  6.28574404E-08 -5.37583506E-02
 -2.68571102E-01  7.41373680E-02 -3.96307428E-07  1.09663710E-01 -1.17599467E-01
  1.90167150E-02  5.14740853E-01 -5.81718909E-07  7.04613154E-07 -1.53375460E-03
  4.04270830E-01 -2.66276665E-01 -5.08641265E-02 -2.69401414E-07 -4.16806555E-01
  3.82803889E-01 -8.69150412E-03  7.85272831E-07 -3.11631010E-01  2.50148623E-01
  1.47413423E-01  1.09950878E-01 -1.16650972E-06 -6.98495894E-07 -1.36248694E-01
  1.05371814E-01  1.55634685E-02 -1.20304623E-02  1.20692322E-01 -9.33335420E-02
 -1.36253345E-01  1.05369788E-01  1.55536141E-02 -1.20362666E-02  1.20687628E-01
 -9.33363848E-02 -7.71530331E-04  2.03298623E-01 -5.12665478E-02  1.54894077E-01
 -9.16806120E-08 -2.09590627E-01 -8.44414960E-03 -3.06802071E-01 -6.37825556E-07
  3.68933138E-01 -3.99842427E-01  7.41259019E-02  2.13422267E-01  1.81371125E-06
  1.10802074E-07  1.88586157E-03 -4.96892872E-01 -4.57967187E-02 -3.21611579E-01
 -3.66201370E-07  5.12300114E-01  7.46558615E-02  4.20577217E-01  1.40716209E-06
 -9.47851398E-02  1.70347896E-01 -1.81179593E-01  9.06432794E-02  3.96959657E-07
  1.83701511E-06 -1.11326759E-03  2.93602147E-01  1.41644376E-01  1.54206725E-01
 -2.94292717E-07 -3.02709189E-01 -1.40090286E-01 -3.06334843E-01 -4.15365812E-07
  1.95674475E-01 -2.40329335E-01  1.07063016E-01 -3.64913759E-01 -1.25641732E-06
  9.48703313E-07 -7.70739693E-04  2.03322083E-01  5.12681870E-02 -1.54900648E-01
 -1.46313127E-07 -2.09625420E-01  8.41424673E-03  3.06818162E-01 -3.14697353E-07
  3.68930162E-01 -3.99854316E-01  7.41428070E-02  2.13407454E-01 -1.28319840E-06
 -3.29138669E-07  1.88581532E-03 -4.96892151E-01  4.57833562E-02  3.21613188E-01
 -3.26714045E-07  5.12312018E-01 -7.46613861E-02 -4.20579538E-01  1.13257891E-06
 -9.47893152E-02  1.70351606E-01 -1.81178641E-01  9.06436859E-02 -5.15768094E-07
 -2.01542875E-06 -1.11389173E-03  2.93583557E-01 -1.41643360E-01 -1.54196114E-01
 -2.73667923E-07 -3.02696204E-01  1.40075533E-01  3.06328661E-01 -6.51486370E-08
  1.95674506E-01 -2.40315295E-01  1.07047045E-01 -3.64921810E-01  8.72423870E-07
 -1.05322943E-06  6.06966899E-02 -4.69386293E-02 -1.48341886E-01  1.14724862E-01
  8.76389273E-02 -6.77844615E-02  6.06856506E-02 -4.69445524E-02 -1.48345203E-01
  1.14725815E-01  8.76445542E-02 -6.77810227E-02 -3.89823878E-07 -7.02474233E-06
  6.33220692E-06  3.78351612E-06 -2.97838930E-02  1.56014150E-06 -2.38936663E-06
  7.38952907E-06 -2.08393560E-01  1.08975998E-07  4.14182735E-06 -5.84435627E-06
  3.36220406E-06  4.56325873E-01 -2.70397309E-02 -9.75976965E-07 -1.20623807E-05
 -9.55570062E-07 -3.24331562E-06  4.47883157E-02  2.17564544E-05  3.43059302E-06
  2.03050036E-05  3.13378168E-01  1.15502615E-05 -3.59627816E-06 -1.03251524E-05
 -1.98174965E-06  1.23209527E-01  5.67817701E-01 -3.40793189E-07 -5.92014556E-06
 -5.45625698E-06  5.54586804E-06 -1.50036232E-02  1.79984934E-06  1.66631082E-06
  4.08365275E-06 -1.04985114E-01 -1.52144544E-07  4.09948489E-06 -5.36968747E-06
 -1.24035947E-06 -3.01763399E-01  2.04447958E-01  4.52278882E-07  5.25138695E-06
  4.66774690E-06  4.29165756E-06 -2.97827365E-02 -2.57705305E-06 -3.35270767E-06
  4.62816675E-06 -2.08392166E-01 -2.96955890E-06 -1.78576741E-06  6.29985846E-06
 -5.98637536E-06 -4.56319142E-01  2.70451168E-02  8.05890695E-07  1.39136424E-05
 -1.32981844E-06 -4.73851239E-06  4.47881132E-02 -1.92007931E-05  2.71578400E-06
  1.92239769E-05  3.13377500E-01 -1.04394929E-05  2.97400779E-07  1.29520637E-05
  1.53290436E-06 -1.23196657E-01 -5.67818094E-01  4.06483360E-07  4.47161421E-06
 -3.93617889E-06  6.02616355E-06 -1.50050558E-02 -3.95450819E-06  3.35624339E-06
  2.90389620E-06 -1.04985571E-01 -1.82352840E-06 -3.02912680E-06  6.07490065E-06
  4.19722339E-06  3.01766226E-01 -2.04451645E-01  1.57980885E-06  2.16150646E-06
  3.92090209E-06  5.75762440E-06 -3.28275294E-07  1.51082611E-06 -2.75262846E-06
 -1.25360868E-06 -2.94637918E-06 -5.07855135E-06 -1.16080939E-06 -1.16649627E-06
  9.21120157E-07  1.23740486E-05  1.36014970E-06  7.33804000E-06  3.45221433E-02
 -3.14013334E-05  2.20842913E-05 -1.05722073E-05  2.41541779E-01 -1.10515446E-06
 -7.23687577E-06  1.05301245E-05 -7.01286082E-06 -2.33233048E-01  4.35415168E-01
 -4.76057254E-07 -6.68350311E-06  9.18963550E-06 -2.95766583E-06  8.53225832E-03
  2.47562272E-05  8.19599655E-06  1.71193955E-05  5.97025334E-02  3.35531157E-06
  7.22611185E-07 -4.68371010E-06 -8.72342968E-07 -3.07545900E-01  1.44105249E-01
 -1.08829421E-06 -1.36959405E-05 -3.95930650E-06 -4.13800774E-06 -4.30562423E-02
  5.17640203E-06  5.88409832E-06  2.87316351E-06 -3.01245382E-01 -7.53492809E-07
  1.21256745E-05 -1.53584093E-05 -6.69802865E-06 -4.64722436E-01 -3.22674960E-01
 -8.76948125E-07 -1.39267028E-05  5.70490039E-07  8.59732385E-06  3.45229913E-02
  3.18667854E-05  2.56296416E-05 -1.11657952E-05  2.41542328E-01  2.70847554E-06
  6.40170634E-06 -1.11643435E-05  4.53685309E-06  2.33227873E-01 -4.35423982E-01
  4.28733078E-07  6.56860186E-06  9.25893932E-06 -2.74889177E-06  8.53371126E-03
 -2.33341756E-05  7.40338210E-06  1.49992485E-05  5.97035916E-02 -3.88435233E-06
 -3.05054596E-07  4.98352907E-06  2.22952882E-06  3.07547040E-01 -1.44107281E-01
  1.00100589E-06  1.53122031E-05 -4.15938112E-06 -4.84582230E-06 -4.30556426E-02
 -7.15736936E-06  1.16974076E-05  3.37675919E-06 -3.01244944E-01 -2.63491911E-06
 -1.07877996E-05  1.69962396E-05  5.94699551E-06  4.64726296E-01  3.22664267E-01
 -3.41731770E-06 -5.97928820E-06  7.34130862E-07  4.87401019E-06  4.29143559E-07
  2.89585950E-06  2.45361988E-06  7.51842549E-06 -1.15769464E-06 -3.76050807E-06
 -1.90745448E-06 -4.11573192E-06  3.67814474E-02  5.18494547E-01 -2.07136219E-01
  1.89915145E-02 -1.28541272E-06 -7.34677625E-01  4.76540458E-01 -4.44128891E-01
 -6.63295139E-06 -1.42720691E-01 -2.65068014E-01  5.16933096E-01 -2.65755964E-01
  9.00097715E-06 -8.59932258E-06  2.95730650E-02  4.16880547E-01  2.24706825E-01
  1.19872097E-01  5.52562993E-07 -5.90712682E-01  9.44268195E-02 -5.33384678E-01
  4.12131540E-06 -3.55515241E-01  2.76420090E-02  4.15626103E-01  2.22470807E-02
  5.07076364E-06  7.54707196E-06 -7.20811603E-03 -1.01599826E-01  9.61623138E-02
 -3.04558196E-01 -3.17013694E-07  1.43961614E-01  2.08175712E-01 -1.57818709E-01
  1.44412988E-06 -1.63210808E-02  9.62341307E-02 -1.01300216E-01 -1.35791638E-02
  1.97591996E-08  6.28489711E-06 -3.67816948E-02 -5.18503323E-01 -2.07142468E-01
  1.89919117E-02 -7.58580832E-07  7.34686297E-01  4.76556788E-01 -4.44120452E-01
 -7.17743530E-06  1.42740907E-01  2.65048664E-01 -5.16936729E-01  2.65760012E-01
 -1.28629729E-05  2.89300081E-06 -2.95734927E-02 -4.16896465E-01  2.24710797E-01
  1.19881298E-01  9.75264306E-07  5.90726931E-01  9.44141526E-02 -5.33398819E-01
  6.10791264E-06  3.55514493E-01 -2.76402229E-02 -4.15632140E-01 -2.22275037E-02
 -6.95786404E-06 -9.17976886E-06  7.20865401E-03  1.01624254E-01  9.61491971E-02
 -3.04564702E-01  8.49384168E-07 -1.43983526E-01  2.08196945E-01 -1.57807379E-01
  2.14471241E-06  1.63178647E-02 -9.62324003E-02  1.01308725E-01  1.35701144E-02
 -3.23589945E-07 -9.41412145E-06 -6.03447571E-02 -1.92236414E-01 -4.85135065E-02
 -1.54563703E-01  1.18371950E-02  3.76722330E-02  6.03421143E-02  1.92238745E-01
  4.85091745E-02  1.54568198E-01 -1.18310004E-02 -3.76793255E-02  1.29137578E-02
  1.82043879E-01  1.29449587E-01  2.82958778E-01  2.66328075E-07 -2.58028691E-01
  3.12813545E-01  4.28283245E-02 -3.63067181E-06 -1.55305093E-02 -1.27626255E-01
  1.81475893E-01 -8.06191991E-02 -1.16116606E-06 -1.16666783E-05 -2.53986426E-02
 -3.58045903E-01  2.30340716E-01 -1.48903488E-01 -1.01784849E-06  5.07391220E-01
  2.23498134E-01  4.25096583E-01 -5.01967532E-06  2.95638649E-01 -1.40617127E-02
 -3.56943698E-01 -6.99792698E-02  4.53385276E-06 -1.09570716E-05 -3.83099230E-02
 -5.40036903E-01 -1.94096451E-01 -2.03395643E-02  1.54788997E-06  7.65117808E-01
  5.99020174E-01  3.11221914E-01  8.37070557E-06  5.00204410E-02  3.74710917E-01
 -5.38416553E-01 -2.16232610E-01  1.55483819E-05  8.34881994E-06 -1.29131482E-02
 -1.82022119E-01  1.29459364E-01  2.82950258E-01 -1.32622220E-06  2.58008575E-01
  3.12802346E-01  4.28444374E-02 -3.76691173E-06  1.55345124E-02  1.27620765E-01
 -1.81467580E-01  8.06281439E-02 -8.99785264E-07  1.17726232E-05  2.53981931E-02
  3.58028131E-01  2.30339867E-01 -1.48892865E-01 -7.32839262E-07 -5.07374519E-01
  2.23507443E-01  4.25079993E-01 -7.03305349E-06 -2.95645409E-01  1.40697349E-02
  3.56937175E-01  6.99660379E-02 -9.40600603E-06  1.25613690E-05  3.83098473E-02
  5.40033007E-01 -1.94092912E-01 -2.03418516E-02  1.33605516E-06 -7.65114990E-01
  5.99012194E-01  3.11231711E-01  1.11144438E-05 -5.00054398E-02 -3.74725945E-01
  5.38415445E-01  2.16218433E-01 -1.86644404E-05 -3.71724327E-06 -2.11853670E-02
 -6.75028835E-02  4.16725406E-02  1.32761007E-01  6.28483663E-02  2.00213621E-01
  2.11916943E-02  6.74979059E-02 -4.16774092E-02 -1.32756806E-01 -6.28492281E-02
 -2.00212707E-01  2.28363153E-07  3.85051855E-06  6.52924620E-08  1.28890329E-06
 -4.61793052E-02 -2.12538744E-05  1.19243734E-05 -8.53644035E-06 -3.95772994E-02
 -8.17313380E-07 -1.58723734E-06  2.21924522E-06 -1.98458749E-06  4.29635327E-01
  4.38069945E-01 -1.16388665E-07 -2.13202393E-06  8.08114389E-07 -1.00064941E-07
  5.27465323E-02  2.12788287E-05  1.64121876E-06  1.38130760E-05  4.52000377E-02
 -2.07259215E-07 -1.87040645E-07  1.12978220E-06 -8.59970783E-07  5.88405315E-01
  3.72655584E-02  1.00577556E-07  1.62595542E-06  3.70292928E-07 -1.25605547E-06
  9.89209230E-02 -2.21516133E-05 -1.25159490E-05 -5.87981203E-06  8.46424238E-02
 -5.72683226E-08  9.50897197E-07 -1.78566905E-06 -1.57767155E-07  1.61755311E-01
  1.00093881E-01 -2.92961884E-07 -4.37979639E-06 -4.44529644E-07  5.69733861E-07
  4.61820438E-02  2.42589059E-05  1.31956000E-05 -1.02849624E-05  3.95842140E-02
  4.80657107E-07  1.99677220E-06 -2.27174463E-06  2.11293260E-06  4.29646537E-01
  4.38065709E-01  4.15762615E-08  1.53244283E-06  1.64212951E-06 -2.08071521E-07
 -5.27490578E-02 -1.78211663E-05  1.98146593E-06  1.13819441E-05 -4.52063120E-02
  4.60747921E-07  6.32926121E-08 -1.23531189E-06  4.64043129E-07  5.88410904E-01
  3.72753283E-02  4.94556126E-08 -5.92581818E-07  4.00478897E-07 -1.28323772E-06
 -9.89211604E-02  1.56828208E-05 -8.47845125E-06 -4.11446301E-06 -8.46430509E-02
 -4.70794161E-08 -1.72631127E-06  2.65797348E-06  5.94839460E-07  1.61752506E-01
  1.00103117E-01 -1.30791074E-06 -3.48186366E-06  1.08893852E-06  3.22614860E-06
 -6.06709037E-07 -3.30347242E-06  1.59237587E-06  3.94971564E-06 -7.72605799E-07
 -2.67741583E-06  3.67428863E-07  2.15524558E-06  2.26223384E-07  3.16156068E-06
 -1.08439432E-06 -1.04759199E-06  8.75638185E-02 -2.35458632E-05  1.25222072E-05
 -9.48644571E-06  7.49193937E-02 -8.02663826E-07 -4.39002544E-07  7.32078620E-07
 -1.24947502E-06  5.45316781E-02  3.56912799E-01 -4.13616882E-08 -9.26998702E-07
  1.77675357E-07  3.65373481E-07  8.37789318E-02  1.99691555E-05  1.54371051E-06
  1.26569072E-05  7.17720816E-02 -1.49627231E-06 -1.22622327E-07  2.62533501E-06
  6.91087165E-07 -3.46412278E-01  1.98202259E-01  2.18746708E-07  3.54384197E-06
  6.43449781E-07 -5.69438029E-08 -3.79609025E-03 -2.13170822E-05 -1.30889068E-05
 -6.22888598E-06 -3.29833714E-03 -4.14714947E-07 -1.44722338E-06  1.59815886E-06
  1.63789073E-06 -2.83567145E-01  6.24697694E-01 -8.58887456E-08 -2.22657838E-06
 -1.43560066E-06 -1.39130784E-06 -8.75625884E-02  1.72980520E-05  8.49923266E-06
 -7.28166634E-06 -7.49162492E-02  2.84051604E-07  9.39340944E-08  5.64009251E-08
  5.22313111E-07  5.45315261E-02  3.56903941E-01 -9.36632451E-08  3.68300404E-08
 -3.78449611E-07  3.47381631E-07 -8.37774503E-02 -1.39776585E-05  4.29572236E-07
  8.38514474E-06 -7.17680372E-02  2.53341853E-06 -4.97782512E-08 -3.41830006E-06
 -4.93097544E-07 -3.46405928E-01  1.98194731E-01 -2.24786451E-07 -3.58223780E-06
  1.03920574E-06 -9.57864862E-07  3.79331772E-03  2.15738207E-05 -1.30164623E-05
 -6.83761728E-06  3.29118032E-03  2.15172735E-07  1.69282355E-06 -1.64331325E-06
 -1.43819061E-06 -2.83556085E-01  6.24701689E-01 -1.24499785E-06 -3.73714718E-06
  8.06193386E-07  2.96804528E-06 -1.23987421E-06 -3.42630130E-06  7.39602204E-07
  2.59344550E-06 -3.34349482E-07 -1.86345117E-06  1.24850151E-06  3.47453468E-06
  4.39928140E-08  2.21807015E-07 -1.83833163E-07 -3.12680502E-07 -2.79716773E-02
 -8.12134983E-06  4.72725977E-06 -1.35533456E-06 -3.76731561E-01 -2.38129998E-07
 -1.22460567E-07  3.25115649E-07  5.03628377E-07  3.96597739E-01 -2.90355037E-01
 -1.24128944E-07 -2.64045766E-06 -4.96840652E-07 -7.00579361E-07  2.79482326E-02
  1.21367422E-05  1.31924585E-06  7.82870628E-06  3.76711403E-01 -4.81265638E-07
  1.83591871E-07  4.98727675E-07 -7.62232253E-07  5.30082622E-02  4.88611301E-01
  7.51405618E-08  7.51363765E-08 -7.66039054E-07 -5.04774171E-07 -2.79787223E-02
 -1.02864779E-05 -7.45678396E-06 -2.88130138E-06 -3.76737820E-01 -6.33163506E-07
 -5.58008838E-07  6.96641911E-07 -5.87982190E-07 -4.49679327E-01 -1.98487012E-01
 -6.44748378E-08 -1.15312327E-06 -1.66464288E-07 -5.76205123E-07  2.79717296E-02
  1.09016485E-05  6.26338103E-06 -3.50378612E-06  3.76731970E-01 -5.99323343E-07
  1.14204629E-06 -1.06223231E-07 -6.39697009E-07  3.96597354E-01 -2.90356811E-01
  1.09179673E-07  1.74228825E-06 -3.04247345E-07 -8.72799596E-07 -2.79483994E-02
 -9.64558201E-06  1.92576941E-06  5.47001714E-06 -3.76711939E-01  5.40329660E-07
 -1.10669976E-07 -2.49840801E-07 -3.64776761E-07  5.30065100E-02  4.88612424E-01
  5.84353977E-08 -8.38443781E-08 -4.32314445E-07 -3.49194673E-07  2.79787286E-02
  5.00628818E-06 -3.92128961E-06 -1.28808046E-06  3.76738018E-01 -7.10904478E-07
  6.84781777E-07  3.56963672E-07 -4.00731902E-07 -4.49680600E-01 -1.98485013E-01
  2.79172492E-07 -1.09782245E-06  1.88602436E-07  2.12649861E-06 -1.42913379E-06
 -1.48441612E-06  8.18580927E-07  1.45118948E-06  8.85294293E-07 -1.83172046E-06
  1.86167179E-06  2.03082858E-07  6.74405088E-02  2.12038970E-01  1.87333258E-01
  6.01818297E-02  2.46663206E-07 -2.39825286E+00  1.14172679E+00 -3.71948326E-01
  9.53185241E-07 -4.74503227E-01 -8.76430478E-02  5.50734025E-01  1.64902264E-03
 -1.56568796E-06 -7.66921171E-07 -7.93091138E-02 -2.49358971E-01  1.11135861E-01
  1.24727228E-01  3.56604933E-07  2.82033484E+00  3.71444027E-01  1.30942241E+00
  2.13911135E-06  2.85804241E-01  3.75275666E-01 -6.47657482E-01  1.43881379E-01
  7.74383154E-08  1.60467264E-06  1.18690508E-02  3.73226944E-02 -1.22036409E-01
  2.26211959E-01  7.51978749E-08 -4.22076850E-01 -4.26744996E-01  4.69752541E-01
  6.53222970E-07 -2.75218661E-01  1.76284788E-01  9.69268268E-02  2.21447174E-01
  7.85536959E-07 -1.91309688E-07  6.74399196E-02  2.12038584E-01 -1.87329460E-01
 -6.01813855E-02 -7.02142865E-08 -2.39823512E+00 -1.14171513E+00  3.71962513E-01
  5.79953060E-07 -4.74492392E-01 -8.76506742E-02  5.50731750E-01  1.65386921E-03
  9.37184139E-07  2.68177095E-07 -7.93086539E-02 -2.49358649E-01 -1.11132713E-01
 -1.24725680E-01  4.38904932E-08  2.82032022E+00 -3.71423425E-01 -1.30942259E+00
  1.88330817E-06  2.85800159E-01  3.75277348E-01 -6.47655505E-01  1.43868339E-01
  5.42618685E-07 -1.63390358E-06  1.18695364E-02  3.73209525E-02  1.22040164E-01
 -2.26210819E-01  7.24969657E-08 -4.22085074E-01  4.26740424E-01 -4.69756779E-01
  5.60682542E-07 -2.75219633E-01  1.76283321E-01  9.69273632E-02  2.21449983E-01
 -3.80756959E-07 -4.93337945E-07  2.04101143E-01 -3.30547503E-01 -2.40025064E-01
  3.88726063E-01  3.59249681E-02 -5.81840096E-02  2.04100475E-01 -3.30548450E-01
 -2.40024099E-01  3.88726129E-01  3.59251591E-02 -5.81824191E-02  5.26418228E-02
  1.65505827E-01 -4.75916001E-02 -2.17897345E-01 -6.60863550E-09 -1.87201149E+00
  4.35799456E-01 -9.12683554E-01 -1.08830108E-07 -8.95346841E-03 -4.29842374E-01
  4.29889321E-01  1.33762452E-01 -1.21935533E-07 -6.28148686E-07  3.20833781E-02
  1.00871270E-01  2.32509350E-01 -8.05739513E-02 -6.97597016E-08 -1.14092741E+00
  5.01676666E-01 -6.00464511E-01 -5.56383320E-07 -4.64352132E-02 -2.20995897E-01
  2.62003290E-01  3.05458683E-01  2.23087013E-07 -2.56096568E-07 -8.47255269E-02
 -2.66379452E-01  1.18433815E-01  9.14875288E-02 -8.51762313E-08  3.01295032E+00
  1.27748242E+00  6.55775537E-01 -2.47133090E-06  3.73198918E-01  3.33032353E-01
 -6.91892515E-01  9.64468141E-02 -2.47736776E-06  1.17414903E-08  5.26423015E-02
  1.65505661E-01  4.75904354E-02  2.17900854E-01 -5.40753969E-08 -1.87202376E+00
 -4.35789619E-01  9.12692348E-01  4.00721665E-07 -8.94730951E-03 -4.29851102E-01
  4.29890584E-01  1.33763692E-01  1.04603137E-06  5.56622099E-07  3.20839018E-02
  1.00870634E-01 -2.32509548E-01  8.05775632E-02 -1.19512700E-07 -1.14093976E+00
 -5.01683200E-01  6.00461654E-01 -1.15912202E-06 -4.64376953E-02 -2.20996191E-01
  2.62004365E-01  3.05462816E-01  5.37557752E-07  1.00432815E-06 -8.47253524E-02
 -2.66379491E-01 -1.18434021E-01 -9.14850499E-02 -2.38718987E-08  3.01294575E+00
 -1.27749003E+00 -6.55757636E-01 -1.64243199E-06  3.73206953E-01  3.33023308E-01
 -6.91891740E-01  9.64386136E-02  1.72937587E-06 -4.75314921E-07  1.59316452E-01
 -2.58016603E-01  9.71000422E-02 -1.57248879E-01 -2.56414866E-01  4.15266603E-01
  1.59316888E-01 -2.58014578E-01  9.71002055E-02 -1.57247020E-01 -2.56414723E-01
  4.15266649E-01  4.00421443E-07  2.88393258E-07 -2.14931483E-07 -1.48300285E-06
 -2.76956069E-06 -1.07192545E-05  6.93521991E-06 -5.02171978E-06 -2.45223959E-06
  1.88697990E-06 -2.58027584E-06  1.44603572E-06 -8.27034402E-06 -3.26826995E-01
 -4.46646755E-01 -1.07370133E-07 -1.43421041E-07  4.96035729E-06 -4.24978247E-07
  2.34457839E-06  2.64462392E-06  3.17388895E-07  2.44329549E-06  2.34871164E-06
  2.19267377E-06 -1.94214131E-06 -5.19966935E-07 -1.07213069E-06 -5.50219643E-01
  5.97241486E-02 -2.74995306E-07 -2.47604697E-07 -1.03036937E-06  3.39882113E-06
 -5.77929452E-07  7.23210323E-06  5.88395766E-06  1.60538315E-06 -1.19772353E-06
 -2.75431496E-06  3.22913314E-06 -1.03906735E-06 -5.23119045E-06 -2.23394224E-01
  5.06367228E-01  3.82998545E-07  3.87331774E-07  1.33606878E-07  1.11008860E-06
 -5.91106887E-07 -9.90704372E-06 -7.13649055E-06  4.63623006E-06  2.53264211E-07
  1.54629591E-06 -2.27064985E-06  1.55499518E-06 -8.48182872E-06  3.26830104E-01
  4.46645338E-01 -1.25433709E-07 -4.07637768E-08 -4.64731302E-06  2.29691493E-07
  2.94122272E-07  3.48710188E-06  4.79944072E-08 -2.55095305E-06 -2.97057504E-07
  2.02892456E-06 -1.81051613E-06 -4.06981868E-07 -1.42345348E-06  5.50221004E-01
 -5.97211036E-02 -2.75640715E-07 -2.43901279E-07  1.07021220E-06 -3.50348923E-06
  1.21251481E-06  7.26260098E-06 -5.44423287E-06 -2.60825490E-06  1.32293543E-06
 -3.23198715E-06  3.70577138E-06 -1.03507295E-06 -4.72394363E-06  2.23391782E-01
 -5.06368667E-01 -4.41286801E-06 -6.24204579E-07  1.30596593E-06  1.69231895E-07
  3.17041580E-06  4.21820065E-07 -4.47412300E-06 -5.92281747E-07  1.24245385E-06
  2.02338871E-07  3.16815246E-06  4.23010338E-07 -3.97133409E-02  6.30412703E-02
 -1.14864741E-01  7.51366915E-03 -1.18003119E-07  8.63463584E-01 -4.43766806E-01
  3.16966390E-01 -1.36121161E-07 -1.27502145E-01  2.80911732E-01 -2.46277302E-01
  7.16112704E-01 -2.85859027E-06 -4.03368005E-06  2.54605626E-02 -4.04122203E-02
 -3.02506265E-01 -2.98015115E-02 -4.46280487E-08 -5.53559583E-01 -6.77992656E-02
 -3.44294979E-01 -2.61342710E-07 -4.50760383E-01  3.52414386E-01  1.57888519E-01
  1.41657295E-01 -7.08922834E-06  1.21709910E-06  1.42527366E-02 -2.26233616E-02
  1.13145891E-01 -3.42821694E-01 -2.52118095E-07 -3.09859252E-01 -1.64296256E-01
 -1.12424950E-01  6.12576883E-08  1.00447451E-01 -1.55496180E-01  8.83865747E-02
  2.31470766E-01 -3.60479672E-06  6.09735776E-06 -3.97140872E-02  6.30476363E-02
  1.14889732E-01 -7.49470663E-03 -1.38559306E-07  8.63507468E-01  4.43822337E-01
 -3.16897599E-01 -3.49678311E-07 -1.27453398E-01  2.80873663E-01 -2.46282349E-01
  7.16130586E-01  3.51313941E-06  4.07907770E-06  2.54608769E-02 -4.04191620E-02
  3.02535372E-01  2.98075154E-02 -7.45058712E-08 -5.53607228E-01  6.78845471E-02
  3.44290580E-01 -2.34512919E-07 -4.50779363E-01  3.52421304E-01  1.57892115E-01
  1.41606339E-01  6.12951021E-06 -1.20285436E-06  1.42540011E-02 -2.26365999E-02
 -1.13129786E-01  3.42830972E-01 -2.07917346E-07 -3.09953659E-01  1.64302407E-01
  1.12430350E-01 -3.81550090E-08  1.00439700E-01 -1.55511940E-01  8.83965581E-02
  2.31475841E-01  2.98850489E-06 -5.30205339E-06  3.18019944E-01 -4.74900359E-03
 -2.03879555E-01  3.04079633E-03 -1.14141840E-01  1.71308890E-03  3.18016933E-01
 -4.74662728E-03 -2.03877352E-01  3.03822474E-03 -1.14136244E-01  1.70920981E-03
  6.46824210E-03 -1.02805960E-02 -2.11181277E-01 -3.15404921E-01 -4.55743252E-07
 -1.40654030E-01  4.88876838E-02 -8.36006427E-02 -3.63476701E-07 -2.11712384E-02
 -3.82438178E-03  4.01145330E-02 -1.32040122E-01  2.19847016E-06  2.26848642E-06
  3.11594503E-02 -4.94670235E-02  2.33490498E-01 -1.02010863E-01 -3.13649296E-07
 -6.77526198E-01 -2.15463830E-02 -4.28018678E-01 -2.09529057E-07 -5.66394839E-01
  4.46015315E-01  1.93233897E-01  9.59194784E-02  3.61363063E-06 -4.17176112E-07
 -3.76282465E-02  5.97412324E-02  1.39157262E-01 -8.73988715E-02 -2.55115801E-07
  8.18133417E-01  4.78318012E-01  1.95817939E-01 -7.96896309E-07 -3.55706389E-01
  5.01065711E-01 -2.33347958E-01 -5.15613095E-01  1.65071919E-06 -9.53348431E-07
  6.46811254E-03 -1.02726942E-02  2.11183578E-01  3.15390807E-01 -4.73084940E-07
 -1.40604666E-01 -4.89009706E-02  8.35720837E-02 -1.08282007E-07 -2.11825993E-02
 -3.79962827E-03  4.01117152E-02 -1.32042280E-01 -1.94043415E-06 -1.27584235E-06
  3.11589178E-02 -4.94591836E-02 -2.33479031E-01  1.01998908E-01 -3.16672892E-07
 -6.77476802E-01  2.15784223E-02  4.28011025E-01 -5.33063223E-07 -5.66388285E-01
  4.46022159E-01  1.93229168E-01  9.58999317E-02 -3.25269405E-06 -2.14172579E-07
 -3.76284628E-02  5.97410128E-02 -1.39148043E-01  8.73778381E-02 -3.69550104E-07
  8.18132469E-01 -4.78293067E-01 -1.95875748E-01 -5.56884248E-07 -3.55731117E-01
  5.01089697E-01 -2.33348523E-01 -5.15585531E-01 -1.23740816E-06  1.52858053E-06
 -5.18106459E-02  7.75839244E-04 -2.49501594E-01  3.72123191E-03  3.01316738E-01
 -4.50132175E-03 -5.18121470E-02  7.79198063E-04 -2.49504082E-01  3.72359963E-03
  3.01316306E-01 -4.50095519E-03  1.50363436E-02 -1.04524482E-01  3.13515312E-01
  1.79509404E-01  3.08521179E-07 -6.96872064E-01  6.67801065E-01  8.13045732E-01
  8.45639211E-07 -6.63279578E-01  4.93992243E-01  9.42068952E-02 -2.42674632E-01
 -7.54042911E-07 -3.08730899E-07 -1.09163882E-02  7.58870813E-02  3.76261948E-01
  6.65132574E-02  2.41487119E-07  5.05909230E-01  1.16565924E+00 -8.35977168E-02
  6.56612863E-07  2.26071407E-01 -1.03169438E-01 -6.83937904E-02  7.66687847E-01
  1.59466218E-06  4.45982625E-07 -2.59560346E-02  1.80395824E-01  2.47039425E-01
  6.86947510E-02 -3.40137019E-07  1.20311888E+00  1.40370505E-01 -6.63695677E-02
 -1.21992245E-06  1.67529324E-01  1.24701594E-01 -1.62628633E-01 -9.06391507E-02
 -1.18628342E-06 -1.93774914E-07 -1.50348270E-02  1.04522336E-01  3.13514162E-01
  1.79508592E-01 -1.02054487E-07  6.96866109E-01  6.67791407E-01  8.13056144E-01
 -2.70612062E-07  6.63298945E-01 -4.94008486E-01 -9.42017324E-02  2.42624895E-01
 -2.46520740E-07 -1.42480623E-07  1.09157777E-02 -7.58866368E-02  3.76245665E-01
  6.65171843E-02 -5.73019090E-08 -5.05924426E-01  1.16566005E+00 -8.35989415E-02
 -1.36877253E-07 -2.26045266E-01  1.03136028E-01  6.83945125E-02 -7.66701177E-01
  1.05973854E-06  1.85137974E-07  2.59550908E-02 -1.80393863E-01  2.47043911E-01
  6.86782931E-02  2.91812809E-07 -1.20309783E+00  1.40353385E-01 -6.63628228E-02
  6.80802834E-07 -1.67528921E-01 -1.24697957E-01  1.62622565E-01  9.06178949E-02
 -8.74568886E-07 -4.18736380E-08  5.31296902E-02 -3.25143077E-02 -3.85742686E-02
  2.36045694E-02 -9.17306489E-02  5.61661997E-02 -5.31580011E-02  3.25237736E-02
  3.85953750E-02 -2.36140562E-02  9.17374659E-02 -5.61658933E-02 -2.12875961E-02
  1.47973891E-01 -3.03032087E-02  3.11025465E-01 -2.38535951E-08  9.86679739E-01
  3.70977677E-01  6.48022573E-01 -1.28172623E-07 -3.05094887E-01  5.44774524E-01
 -1.33380962E-01 -1.12497410E-01 -5.04544797E-08 -2.77241022E-07 -2.36668503E-02
  1.64491862E-01 -1.43283701E-01  2.48285880E-01  5.00681392E-07  1.09700047E+00
 -5.25604867E-01  1.50241593E-01  1.36715138E-06  1.04312927E-01  1.62149401E-01
 -1.48285287E-01 -3.65603997E-01 -8.45563402E-07  1.14387313E-06 -2.37827482E-03
  1.65388579E-02 -1.41126251E-01  3.77506911E-01  1.08094681E-07  1.10191900E-01
 -5.08470533E-01  1.17555971E+00  2.24205318E-07 -5.43211167E-01  5.69986340E-01
 -1.49005595E-02  5.80375974E-01  3.85515168E-07 -8.02696017E-07  2.12873344E-02
 -1.47972730E-01 -3.02947817E-02  3.11032499E-01 -8.60549255E-08 -9.86658601E-01
  3.70980028E-01  6.48013542E-01 -1.74606863E-07  3.05094191E-01 -5.44767425E-01
  1.33376712E-01  1.12484533E-01  3.09241583E-07  2.15822254E-07  2.36675214E-02
 -1.64492473E-01 -1.43289480E-01  2.48286798E-01 -3.61908897E-07 -1.09700467E+00
 -5.25594997E-01  1.50247162E-01 -9.70657938E-07 -1.04334713E-01 -1.62126752E-01
  1.48287691E-01  3.65600366E-01 -3.39549973E-07  1.02958671E-06  2.37773314E-03
 -1.65386012E-02 -1.41125795E-01  3.77512090E-01 -1.16440585E-07 -1.10209038E-01
 -5.08470680E-01  1.17556047E+00 -2.84533765E-07  5.43187378E-01 -5.69970182E-01
  1.49017792E-02 -5.80401537E-01  5.20214529E-07 -1.00620272E-06 -7.52423893E-02
  4.60527264E-02 -8.36501004E-02  5.12116926E-02 -8.39156299E-03  5.13358520E-03
  7.52340240E-02 -4.60468590E-02  8.36375052E-02 -5.12076854E-02  8.41138122E-03
 -5.14266108E-03  9.86742103E-02  6.20260429E-01  1.02362611E-01 -7.49009943E-02
  1.99739595E-07 -7.36329704E+00  3.31542730E+00 -2.42604608E+00  2.51438757E-06
 -3.36504739E-01 -2.48086187E-01  5.28852460E-01  1.60793182E-01 -1.20584809E-06
  6.73908609E-07 -9.86736021E-02 -6.20262855E-01  1.36893620E-02  1.26093863E-01
  5.21924292E-07  7.36327177E+00  4.43322719E-01  4.08424511E+00  5.25212645E-06
  1.49601285E-01  4.34984612E-01 -5.28848253E-01  3.62102686E-02  5.14080800E-07
  2.39583580E-06  9.86731261E-02  6.20264843E-01 -1.16039491E-01 -5.11987092E-02
 -9.15769714E-08 -7.36327680E+00 -3.75872565E+00 -1.65822735E+00  6.55641299E-06
 -3.90783186E-01 -1.93800129E-01  5.28847228E-01 -1.24606082E-01  1.92222398E-06
  8.47681854E-07 -9.86743896E-02 -6.20261195E-01  1.02363990E-01 -7.48995166E-02
  5.88860475E-08  7.36330573E+00  3.31544255E+00 -2.42603330E+00 -1.64239680E-06
  3.36505561E-01  2.48086681E-01 -5.28853731E-01 -1.60793147E-01  7.08740029E-08
  2.42061452E-07  9.86737906E-02  6.20263412E-01  1.36910155E-02  1.26094407E-01
 -2.82036572E-07 -7.36328726E+00  4.43340046E-01  4.08424823E+00 -4.33551125E-06
 -1.49602482E-01 -4.34985169E-01  5.28849637E-01 -3.62096662E-02 -4.16765128E-08
  1.17195856E-06 -9.86732603E-02 -6.20265439E-01 -1.16039218E-01 -5.11995677E-02
 -1.75274131E-07  7.36328214E+00 -3.75872341E+00 -1.65824106E+00 -4.43343511E-06
  3.90784652E-01  1.93799543E-01 -5.28848133E-01  1.24605057E-01  9.74435784E-07
  4.13175562E-07  1.15654739E-01 -9.49540814E-01 -1.15652601E-01  9.49531118E-01
  1.15652546E-01 -9.49537570E-01 -1.15654951E-01  9.49542046E-01  1.15652823E-01
 -9.49531347E-01 -1.15652684E-01  9.49538649E-01 -4.13407480E-07 -9.49683820E-06
 -2.39783238E-01 -3.27699849E-01 -2.51927018E-07 -1.85367616E-05 -1.04749625E+00
 -1.43150680E+00 -2.42340663E-06  5.90943776E-01 -5.90951465E-01  1.87378168E-06
  2.16595550E-01  1.02498652E-06 -7.83672134E-08  5.41321214E-07  4.34154897E-06
 -4.03681317E-01  4.38209845E-02  1.36782556E-08  2.06016511E-05 -1.76347294E+00
  1.91408141E-01  4.18274547E-07 -1.33019204E-01  1.33025385E-01 -2.47993247E-07
 -6.99244479E-01 -1.40239789E-06  2.97801345E-07  3.95206119E-08 -2.96183393E-07
 -1.63899316E-01  3.71512736E-01  1.47020655E-07 -1.09101208E-05 -7.15980496E-01
  1.62291571E+00  1.58621922E-06 -4.57929810E-01  4.57929106E-01  8.62530690E-07
  4.82642157E-01  8.80212475E-07 -5.93656468E-07 -3.89761559E-07 -2.72229952E-06
  2.39788248E-01  3.27696779E-01 -1.63942729E-07  5.51415912E-06  1.04750047E+00
  1.43150613E+00 -2.01940587E-06  5.90947127E-01 -5.90947826E-01 -1.48714437E-06
  2.16599409E-01 -5.56139066E-07  4.52853590E-07  4.94469069E-07 -2.08314787E-06
  4.03682756E-01 -4.38155268E-02  1.04908718E-07 -1.53864590E-06  1.76347669E+00
 -1.91404975E-01  8.37199445E-07 -1.33026147E-01  1.33025624E-01  2.91221018E-06
 -6.99244915E-01  8.21913281E-07 -3.98785388E-07  1.23395213E-07  5.49192991E-06
  1.63894827E-01 -3.71514936E-01  1.50267196E-07  7.69500430E-06  7.15978089E-01
 -1.62291787E+00  1.60114637E-06 -4.57929619E-01  4.57935038E-01 -1.95710626E-06
  4.82639329E-01 -7.97818065E-07  3.92512197E-07 -4.09948474E-07 -3.86311363E-07
 -1.58158029E-07 -5.36938361E-08  4.33932957E-06 -3.10692759E-06 -2.13149123E-06
  1.47525135E-06  1.07742616E-06 -1.60767710E-06  3.83755683E-06 -2.01440352E-06
 -7.59075025E-02 -7.47772388E-02 -8.50761632E-02  6.22602091E-02 -1.63836219E-07
  4.16241544E+00 -1.88286171E+00  1.37777637E+00 -1.50830984E-06 -7.00538708E-02
  2.81474617E-01 -3.15481166E-01  6.39388879E-01  1.15359981E-06  7.62766155E-07
  7.59085430E-02  7.47740603E-02 -1.13692761E-02 -1.04808567E-01 -6.46472856E-07
 -4.16242654E+00 -2.51754026E-01 -2.31948462E+00 -2.73385173E-06 -6.73134127E-01
  4.61717144E-01  3.15485554E-01  1.43926475E-01  4.25932225E-08 -6.74177152E-07
 -7.59075728E-02 -7.47724641E-02  9.64551939E-02  4.25525625E-02 -2.34973766E-07
  4.16242011E+00  2.13462478E+00  9.41708201E-01 -3.99102231E-06 -2.85947021E-01
  4.97367445E-01 -3.15482741E-01 -4.95464430E-01 -2.18229059E-07  7.90524659E-07
  7.59075656E-02  7.47774799E-02 -8.50781431E-02  6.22578209E-02 -3.84555582E-08
 -4.16241999E+00 -1.88287529E+00  1.37776155E+00  1.15354083E-06  7.00573887E-02
 -2.81478703E-01  3.15481528E-01 -6.39388174E-01  1.92489591E-07  1.02348670E-06
 -7.59086770E-02 -7.47740076E-02 -1.13719524E-02 -1.04808358E-01  4.53079465E-07
  4.16243524E+00 -2.51772634E-01 -2.31948471E+00  2.34207818E-06  6.73134541E-01
 -4.61717147E-01 -3.15486298E-01 -1.43931148E-01  5.08346772E-07  1.84610464E-07
  7.59076083E-02  7.47727605E-02  9.64545410E-02  4.25543929E-02  2.82370878E-07
 -4.16242289E+00  2.13461972E+00  9.41723912E-01  2.59934526E-06  2.85943977E-01
 -4.97364833E-01  3.15482926E-01  4.95467895E-01 -2.90860841E-08  8.88401100E-07
  2.63166372E-01  3.96678459E-01 -2.63164635E-01 -3.96672565E-01  2.63166526E-01
  3.96677148E-01 -2.63166549E-01 -3.96678903E-01  2.63164699E-01  3.96672251E-01
 -2.63166678E-01 -3.96677630E-01 -1.90063927E-01  1.30343748E+00 -4.41519005E-02
  3.23075945E-02  5.35577553E-09  3.66249548E-01  4.94984357E-02 -3.62182248E-02
 -2.58269494E-07 -7.17726916E-01 -6.94111234E-01 -7.35634234E-01  4.29631891E-02
  1.64839788E-07  1.71217295E-08 -1.90065055E-01  1.30344359E+00  5.90268552E-03
  5.43894624E-02  2.72182187E-08  3.66256079E-01 -6.61664428E-03 -6.09741031E-02
  3.13465032E-07 -6.67796446E-01 -7.44050560E-01 -7.35638738E-01 -9.66963661E-03
  7.50213897E-09  1.45596856E-07 -1.90062648E-01  1.30343068E+00  5.00564710E-02
  2.20818875E-02 -9.96564333E-08  3.66243063E-01 -5.61166116E-02 -2.47569781E-02
 -7.61472965E-08 -7.32229604E-01 -6.79598539E-01 -7.35629276E-01 -3.32907953E-02
 -8.18862749E-08  4.65417936E-08 -1.90062186E-01  1.30342677E+00  4.41519449E-02
 -3.23080399E-02 -4.93458694E-08  3.66245554E-01 -4.94984900E-02  3.62180200E-02
  1.84636221E-07 -7.17722198E-01 -6.94102764E-01 -7.35627438E-01  4.29624906E-02
 -2.58927294E-09 -1.03260656E-07 -1.90062485E-01  1.30342819E+00 -5.90331980E-03
 -5.43897548E-02  7.88198986E-08  3.66247514E-01  6.61755148E-03  6.09755071E-02
 -1.22000704E-07 -6.67787303E-01 -7.44040590E-01 -7.35628759E-01 -9.67097068E-03
  3.89395343E-08  2.95394950E-08 -1.90061876E-01  1.30342586E+00 -5.00555437E-02
 -2.20843869E-02 -6.73693550E-08  3.66241884E-01  5.61154379E-02  2.47586376E-02
  1.57970478E-07 -7.32226939E-01 -6.79595281E-01 -7.35626248E-01 -3.32905243E-02
 -1.53357660E-08 -9.04956180E-08  8.79346059E-02 -1.73189849E-01  8.79349067E-02
 -1.73190396E-01  8.79333083E-02 -1.73188439E-01  8.79339343E-02 -1.73188610E-01
  8.79337800E-02 -1.73188911E-01  8.79330518E-02 -1.73187822E-01  2.08797298E-01
 -1.28291213E+00  5.28015008E-02  1.16642747E-01  5.38843186E-09 -6.06435432E-01
  5.81143566E-03 -1.09372498E-01  3.70563795E-07  7.05846347E-01  8.64239871E-01
  8.11910898E-01 -3.37027437E-02 -2.37765256E-07  1.57401186E-09  2.66904830E-01
 -1.63994716E+00 -5.41375788E-02  3.96516919E-02  8.74454766E-08 -7.75177850E-01
  2.95481882E-02 -9.22717958E-02 -4.40324247E-07  9.90315439E-01  1.01672111E+00
  1.03786375E+00 -4.28674485E-02 -1.25783295E-07 -1.36186231E-08  5.81067577E-02
 -3.57025248E-01 -6.73442230E-02  1.70759295E-01  3.10337081E-08 -1.68768213E-01
  3.24747771E-02 -1.21383818E-01  2.67123996E-07  1.28050075E-01  3.08891082E-01
  2.25949023E-01  9.69806792E-02  2.29438778E-07 -2.18368335E-07 -2.08797354E-01
  1.28291704E+00  5.28030909E-02  1.16640353E-01 -3.65422083E-08  6.06426170E-01
  5.80961624E-03 -1.09369692E-01 -1.86811170E-07 -7.05848148E-01 -8.64237078E-01
 -8.11911568E-01  3.37024067E-02 -6.54245245E-08  1.12188702E-08 -2.66905646E-01
  1.63995495E+00 -5.41365142E-02  3.96499935E-02 -2.48059797E-08  7.75174521E-01
  2.95472054E-02 -9.22698924E-02  2.13236332E-07 -9.90318382E-01 -1.01672336E+00
 -1.03786711E+00  4.28642630E-02 -4.98071600E-08  1.07217645E-07 -5.81111507E-02
  3.57048834E-01 -6.73418701E-02  1.70760668E-01 -2.91216555E-08  1.68790857E-01
  3.24720298E-02 -1.21385452E-01 -2.66163815E-07 -1.28067366E-01 -3.08908790E-01
 -2.25965367E-01 -9.69813375E-02  2.02200125E-07 -1.28142407E-07 -8.52670162E-02
  1.32403951E-01 -1.08995153E-01  1.69253202E-01 -2.37290599E-02  3.68454554E-02
  8.52670378E-02 -1.32404406E-01  1.08995442E-01 -1.69254074E-01  2.37310740E-02
 -3.68488351E-02  1.87645919E-01 -1.15296167E+00 -1.01389873E-01 -9.85880674E-02
 -6.88843003E-08 -5.44979207E-01  1.05976981E-01  3.94184859E-02 -1.07572163E-07
  7.95985006E-01  6.15050631E-01  7.29664868E-01  2.89583967E-02  1.59668374E-07
 -9.24070581E-09 -8.69985267E-02  5.34551439E-01 -1.78381522E-01  8.35489346E-03
 -5.37364156E-08  2.52661473E-01  1.23075188E-01  1.56690294E-02  2.40103262E-07
 -3.51259752E-01 -3.02939640E-01 -3.38295949E-01 -1.35650866E-01 -3.72349517E-07
  5.80976290E-08 -2.74647330E-01  1.68752012E+00 -4.72755125E-02  2.15584408E-02
 -1.33750156E-08  7.97679929E-01  9.39713757E-02  1.27425725E-02 -1.18826270E-07
 -1.05533457E+00 -1.00992329E+00 -1.06797011E+00  1.59988776E-02  1.46218026E-07
  2.65086143E-08 -1.87647419E-01  1.15296717E+00 -1.01392360E-01 -9.85874797E-02
 -2.55526785E-08  5.44991794E-01  1.05980010E-01  3.94181393E-02  2.73828707E-07
 -7.95993111E-01 -6.15054937E-01 -7.29670172E-01 -2.89590659E-02  1.26518278E-07
 -1.00721166E-07  8.70010030E-02 -5.34562176E-01 -1.78382337E-01  8.35198482E-03
 -2.05717331E-08 -2.52679125E-01  1.23076636E-01  1.56723166E-02 -1.65184499E-07
  3.51270074E-01  3.02949590E-01  3.38304891E-01  1.35651723E-01 -2.41543872E-07
  7.73847462E-08  2.74646877E-01 -1.68751848E+00 -4.72743332E-02  2.15577145E-02
 -4.47281514E-09 -7.97675865E-01  9.39702176E-02  1.27428452E-02  1.14431243E-07
  1.05533081E+00  1.00992310E+00  1.06796849E+00 -1.59967795E-02  9.94585138E-08
  2.83052535E-08 -7.66284525E-02  1.18993547E-01  3.55272898E-02 -5.51691139E-02
  1.12156967E-01 -1.74162031E-01  7.66291937E-02 -1.18994560E-01 -3.55284217E-02
  5.51708075E-02 -1.12156811E-01  1.74161819E-01  2.26366196E-01 -1.32652518E+00
 -3.56100510E-02  1.66418369E-01  1.09980527E-08 -1.43681689E+00  1.66541509E-01
 -2.63437629E-01  1.18249216E-07  8.92419914E-01  1.09377901E+00  8.44468585E-01
  7.64673185E-02  2.98825451E-08 -4.61138012E-08  3.15691856E-02 -1.84994341E-01
 -1.86465603E-01  3.80584183E-02  7.85184546E-08 -2.00385665E-01  1.85645092E-01
 -6.08274547E-02 -1.54624297E-07  1.23997265E-01  1.53001680E-01  1.17769302E-01
 -1.46476739E-01 -6.71809271E-07  3.59324979E-08 -2.57938621E-01  1.51154531E+00
 -1.01650207E-01 -1.28146181E-01  1.57567850E-07  1.63720647E+00  2.71267435E-01
  2.03697100E-01 -2.29983962E-07 -1.02199367E+00 -1.24122896E+00 -9.62251114E-01
  5.11729331E-02  1.58553084E-07  1.97041380E-07  2.26367657E-01 -1.32653648E+00
  3.56105713E-02 -1.66416246E-01  1.15267424E-07 -1.43681867E+00 -1.66541490E-01
  2.63436767E-01 -1.85495413E-07  8.92426294E-01  1.09378371E+00  8.44474661E-01
  7.64674776E-02 -1.11641914E-07  7.87073873E-09  3.15713783E-02 -1.85011809E-01
  1.86465829E-01 -3.80569795E-02  1.22892774E-07 -2.00388030E-01 -1.85645561E-01
  6.08269449E-02 -1.34237271E-07  1.24005467E-01  1.53010194E-01  1.17778524E-01
 -1.46476621E-01  4.33245871E-07 -7.70993445E-08 -2.57937936E-01  1.51153939E+00
  1.01649887E-01  1.28148465E-01  1.24862954E-07  1.63720672E+00 -2.71267544E-01
 -2.03697878E-01 -2.47578731E-07 -1.02199049E+00 -1.24122690E+00 -9.62248139E-01
  5.11724345E-02 -1.05661011E-07 -8.72724818E-08 -7.32709027E-02  1.38159950E-01
 -1.02183077E-02  1.92680959E-02  8.34897095E-02 -1.57430984E-01 -7.32713128E-02
  1.38161197E-01 -1.02189412E-02  1.92699011E-02  8.34895265E-02 -1.57430393E-01
  1.67149116E-01 -9.79514188E-01 -1.66270343E-01 -6.84136538E-02 -3.05933379E-07
 -1.06093115E+00  2.64160288E-01 -1.57195282E-03  3.82155098E-07  8.10402623E-01
  6.56205961E-01  6.23558207E-01  1.11970280E-01  2.13933883E-07  2.46430550E-07
 -2.79613125E-01  1.63856282E+00 -3.81947422E-02 -1.53661477E-01 -4.32265354E-07
  1.77478144E+00  6.00997333E-02  3.53754514E-01  8.01023040E-07 -1.34267868E+00
 -1.11072286E+00 -1.04310950E+00  1.24648572E-02 -9.97088567E-08 -1.48900437E-07
  1.12465575E-01 -6.59056853E-01  1.28288547E-01 -1.34453908E-01 -2.42449396E-07
 -7.13853054E-01 -2.02974155E-01  1.03158430E-01  2.65200436E-07  5.48591973E-01
  4.38211380E-01  4.19557233E-01 -1.30858514E-01 -2.75455839E-07  4.38869085E-07
  1.67147243E-01 -9.79499293E-01  1.66272389E-01  6.84144128E-02 -1.52385304E-07
 -1.06092870E+00 -2.64161124E-01  1.57174568E-03  1.31211174E-07  8.10396007E-01
  6.56198042E-01  6.23550348E-01  1.11970596E-01 -2.91637243E-08 -7.52660326E-08
 -2.79612943E-01  1.63856095E+00  3.81973740E-02  1.53661387E-01 -2.56089099E-07
  1.77478111E+00 -6.01006706E-02 -3.53754482E-01  4.22225660E-07 -1.34267813E+00
 -1.11072167E+00 -1.04310866E+00  1.24637872E-02 -1.32593355E-08  1.56202569E-07
  1.12467231E-01 -6.59070695E-01 -1.28286970E-01  1.34453713E-01 -2.30668547E-07
 -7.13853257E-01  2.02973419E-01 -1.03158450E-01  2.73732694E-07  5.48598190E-01
  4.38217571E-01  4.19564340E-01 -1.30858048E-01  1.70750697E-07 -2.95233502E-07
 -5.41028687E-02  1.02017187E-01  9.05052238E-02 -1.70658375E-01 -3.64030570E-02
  6.86407903E-02 -5.41023531E-02  1.02015550E-01  9.05050888E-02 -1.70658038E-01
 -3.64035833E-02  6.86421721E-02  2.15506170E-01 -1.01175771E+00 -1.30738581E-01
  9.56744330E-02 -1.97000659E-07 -3.54143704E+00  1.19416519E+00 -8.73834281E-01
  9.96666084E-07  9.15327440E-01  1.01550765E+00  7.35972518E-01  1.82208259E-01
  2.65240063E-07  5.93833739E-07 -2.15506360E-01  1.01176124E+00 -1.74767867E-02
 -1.61060181E-01 -3.86827125E-07  3.54143373E+00  1.59665825E-01  1.47108884E+00
  2.13656669E-06 -1.12711956E+00 -8.03717386E-01 -7.35973784E-01  4.10162994E-02
  1.51408720E-07  1.36565520E-07  2.15506189E-01 -1.01175585E+00  1.48224762E-01
  6.53900995E-02 -3.59329529E-07 -3.54144344E+00 -1.35384389E+00 -5.97264601E-01
  2.15679426E-06  8.53805622E-01  1.07703065E+00  7.35971737E-01 -1.41194976E-01
 -1.96551799E-07  3.76759703E-07 -2.15506347E-01  1.01175818E+00 -1.30741458E-01
  9.56709030E-02 -7.19420618E-09  3.54143963E+00  1.19417465E+00 -8.73823320E-01
 -4.00350964E-07 -9.15328741E-01 -1.01550767E+00 -7.35973094E-01 -1.82208640E-01
  4.34948338E-07  3.78778464E-07  2.15506592E-01 -1.01176218E+00 -1.74811493E-02
 -1.61059922E-01  1.82738528E-07 -3.54143821E+00  1.59679757E-01  1.47108813E+00
 -1.53862312E-06  1.12712091E+00  8.03718058E-01  7.35974533E-01 -4.10156807E-02
  1.99174197E-07 -1.28079193E-07 -2.15506280E-01  1.01175596E+00  1.48223282E-01
  6.53938087E-02  1.58281662E-07  3.54144483E+00 -1.35383936E+00 -5.97277009E-01
 -1.51560986E-06 -8.53805618E-01 -1.07703124E+00 -7.35972029E-01  1.41194724E-01
 -2.84904687E-07  3.40741384E-07 -8.50491894E-02 -1.26407498E-01  8.50487348E-02
  1.26404496E-01 -8.50490664E-02 -1.26407128E-01  8.50492505E-02  1.26407676E-01
 -8.50487234E-02 -1.26404238E-01  8.50491221E-02  1.26407344E-01
Orthonormal basis                          R   N=       10404
  1.06103936E-02  5.79371044E-02 -1.91674966E-02  1.40260182E-02 -1.41326465E-08
  8.13289086E-02 -4.82878261E-02  3.53320176E-02 -2.77322380E-08  4.87645806E-02
  4.90363725E-02  3.91991378E-02  7.94405398E-04  1.37368946E-08  5.64568535E-09
  1.06149619E-02  5.79589641E-02  2.56328198E-03  2.36175080E-02  3.89740502E-08
  8.13390974E-02  6.45390315E-03  5.94755306E-02  8.15032531E-08  4.93682498E-02
  4.84691097E-02  3.92126516E-02 -1.83313999E-04  6.98563867E-10  2.35440273E-08
  1.06123664E-02  5.79465229E-02  2.17324658E-02  9.58774246E-03 -1.76675332E-08
  8.13333303E-02  5.47409091E-02  2.41461942E-02 -3.57042997E-08  4.86024320E-02
  4.92141890E-02  3.92049767E-02 -6.21972256E-04 -2.05628757E-08 -6.58416915E-10
  1.06103963E-02  5.79371176E-02  1.91675325E-02 -1.40259771E-02  2.49100234E-09
  8.13289208E-02  4.82878069E-02 -3.53320472E-02  4.73520217E-09  4.87646168E-02
  4.90363580E-02  3.91991468E-02  7.94419937E-04 -8.21308169E-09 -5.94833198E-09
  1.06149673E-02  5.79589899E-02 -2.56333508E-03 -2.36175060E-02  2.29674057E-08
  8.13391247E-02 -6.45386560E-03 -5.94755349E-02  5.04335605E-08  4.93682790E-02
  4.84691224E-02  3.92126696E-02 -1.83273326E-04  2.91471732E-09 -1.93487984E-08
  1.06123671E-02  5.79465259E-02 -2.17324492E-02 -9.58778578E-03 -1.87646460E-08
  8.13333322E-02 -5.47409309E-02 -2.41461488E-02 -4.26722018E-08  4.86024215E-02
  4.92142044E-02  3.92049787E-02 -6.21948392E-04  1.84084390E-08 -4.15278359E-10
  1.22110181E-02  3.27636326E-02  1.22279499E-02  3.27751672E-02  1.22181353E-02
  3.27685671E-02  1.22110216E-02  3.27636397E-02  1.22279545E-02  3.27751784E-02
  1.22181373E-02  3.27685699E-02  1.75484915E-02  8.70837325E-02  6.50093122E-03
  1.22921741E-02 -1.32108456E-08  9.64362303E-02  3.13182508E-02  1.87039791E-02
 -1.52720097E-08  6.61604262E-02  7.58411728E-02  6.11926613E-02  5.88832930E-03
  1.07112212E-08  1.24074493E-08  3.00199882E-03  1.48887866E-02  3.83509387E-02
 -3.88155467E-03  2.86117635E-09  1.64311275E-02  9.20600040E-02 -1.25190574E-02
  4.92584477E-10  1.52068761E-02  9.07131360E-03  1.04556707E-02  1.85920705E-02
  4.02985104E-08 -1.93305083E-09 -1.46015514E-02 -7.24461428E-02  8.43756319E-03
 -2.29914180E-02  2.06299753E-09 -8.01404185E-02  3.49487655E-02 -4.95669280E-02
 -2.65061996E-09 -5.16316157E-02 -6.65011495E-02 -5.08973085E-02 -2.87635673E-03
  1.58799907E-08  1.25204211E-08 -1.75484749E-02 -8.70836475E-02  6.50088241E-03
  1.22920477E-02 -1.44121728E-08 -9.64361457E-02  3.13182440E-02  1.87039022E-02
 -2.60560541E-08 -6.61604122E-02 -7.58410467E-02 -6.11926039E-02 -5.88834921E-03
  1.51468382E-08  8.40764124E-09 -3.00204968E-03 -1.48890272E-02  3.83509872E-02
 -3.88147365E-03  3.16552814E-09 -1.64313388E-02  9.20600469E-02 -1.25189965E-02
  7.80494659E-09 -1.52070861E-02 -9.07149107E-03 -1.04558359E-02 -1.85920845E-02
  2.80355244E-08 -2.62677270E-09  1.46015870E-02  7.24463127E-02  8.43755861E-03
 -2.29915399E-02 -3.62389174E-09  8.01405726E-02  3.49487466E-02 -4.95669955E-02
 -2.82152934E-09  5.16317201E-02  6.65013192E-02  5.08974258E-02  2.87639274E-03
  1.19643064E-08  9.84784058E-09  3.87084889E-02  6.93424418E-02  6.72347117E-03
  1.18725907E-02 -3.23495116E-02 -5.77139050E-02 -3.87085074E-02 -6.93424678E-02
 -6.72344873E-03 -1.18725511E-02  3.23495196E-02  5.77139199E-02  6.67028318E-03
  3.31065966E-02 -2.21595406E-02 -2.89525174E-02 -2.22998003E-08  3.67309280E-02
 -4.76717802E-02 -7.42314080E-02 -4.06859864E-08  3.58194535E-02  1.81612210E-02
  2.32742509E-02  8.40486549E-03  1.93436973E-08  9.88384410E-09  1.85899580E-02
  9.22257238E-02 -6.05521561E-03  2.50769763E-03  4.83073921E-08  1.02054420E-01
 -1.64793374E-02 -1.36476716E-02  7.44954948E-08  7.96940897E-02  7.06801766E-02
  6.48053582E-02 -5.12328960E-03 -8.18286606E-09  2.09464379E-08  1.18370209E-02
  5.87419630E-02  1.34693873E-02 -2.72795324E-02 -1.44891789E-08  6.51199572E-02
  2.06894754E-02 -7.06948750E-02 -2.35765794E-08  5.19367549E-02  4.38422044E-02
  4.12903555E-02 -1.44212384E-02 -3.21209237E-08  1.67822820E-08 -6.67033070E-03
 -3.31068219E-02 -2.21596430E-02 -2.89525061E-02  1.05100419E-08 -3.67311234E-02
 -4.76718524E-02 -7.42313813E-02  2.35191323E-08 -3.58196537E-02 -1.81613839E-02
 -2.32744054E-02 -8.40490050E-03  1.13893302E-08  2.76863095E-11 -1.85899474E-02
 -9.22256703E-02 -6.05507746E-03  2.50765761E-03 -1.99592370E-08 -1.02054358E-01
 -1.64792725E-02 -1.36477199E-02 -3.22420110E-08 -7.96940588E-02 -7.06801198E-02
 -6.48053216E-02  5.12319225E-03 -1.08085836E-08  2.69362331E-08 -1.18369781E-02
 -5.87417587E-02  1.34692909E-02 -2.72794700E-02  1.58817284E-08 -6.51197685E-02
  2.06894070E-02 -7.06948406E-02  2.81393883E-08 -5.19365756E-02 -4.38420541E-02
 -4.12902150E-02  1.44211832E-02 -2.84050807E-08  1.73512951E-08  1.46073038E-02
  2.63655295E-02  4.11510537E-02  7.35292454E-02  2.59973566E-02  4.67975956E-02
 -1.46072609E-02 -2.63654556E-02 -4.11510494E-02 -7.35292374E-02 -2.59973530E-02
 -4.67975800E-02  2.30330223E-02  9.36202240E-02  1.59452362E-02 -3.13987884E-02
 -2.84639886E-08  7.28820800E-02  4.30241513E-02 -6.37840501E-02 -3.67501804E-08
  7.40684687E-02  6.56774104E-02  7.20626982E-02 -8.24554805E-03  1.66748159E-10
  2.99302500E-09 -7.40329488E-03 -3.01477197E-02  7.38888612E-02  2.59019492E-03
 -1.56079164E-08 -2.34155398E-02  1.23225376E-01  1.08015765E-02 -2.18579146E-08
 -1.86856175E-02 -2.63746566E-02 -2.31535517E-02  2.10360289E-02  7.40340061E-08
 -1.01195640E-08 -1.57209575E-02 -6.39714828E-02 -3.19979897E-03  6.16558709E-02
 -2.17265113E-09 -4.97220066E-02  7.58641681E-03  1.07528588E-01 -1.24772874E-08
 -5.69289337E-02 -3.86368829E-02 -4.91733901E-02  7.47728867E-03  4.17706292E-08
 -2.26953582E-08  2.30330256E-02  9.36202263E-02 -1.59453632E-02  3.13985525E-02
  1.00441269E-08  7.28820531E-02 -4.30244390E-02  6.37835958E-02  8.50773663E-09
  7.40684702E-02  6.56774081E-02  7.20626985E-02 -8.24553647E-03 -1.66458033E-08
  1.62803477E-08 -7.40327802E-03 -3.01476654E-02 -7.38889421E-02 -2.59033051E-03
 -1.20211675E-08 -2.34155895E-02 -1.23225510E-01 -1.08017010E-02 -1.56862396E-08
 -1.86855451E-02 -2.63746468E-02 -2.31535248E-02  2.10360127E-02 -5.34472518E-08
  2.07056066E-08 -1.57209430E-02 -6.39714356E-02  3.19977224E-03 -6.16560325E-02
 -3.98381139E-09 -4.97220382E-02 -7.58636290E-03 -1.07528909E-01 -1.82810889E-08
 -5.69289224E-02 -3.86368230E-02 -4.91733658E-02  7.47727462E-03 -3.43169535E-08
  2.31668085E-08  6.79666108E-02  8.50154687E-02 -2.18088471E-02 -2.75546724E-02
 -4.62619841E-02 -5.82743797E-02  6.79665312E-02  8.50153528E-02 -2.18091294E-02
 -2.75550853E-02 -4.62621508E-02 -5.82746210E-02  4.76413864E-03  1.93231102E-02
  4.96386872E-02  5.71404828E-02  1.06598048E-07  1.51049340E-02  8.56428861E-02
  9.23876373E-02  2.17351880E-07  3.15344474E-03  2.56451650E-02  1.49140153E-02
 -9.39848413E-03 -4.29147556E-08 -3.75084445E-11 -2.23968364E-02 -9.11001241E-02
 -2.04342503E-02  3.39357507E-02  6.13954967E-08 -7.09234992E-02 -3.20304743E-02
  7.56759001E-02  1.75476309E-07 -6.42971533E-02 -7.17519368E-02 -7.00682867E-02
 -8.80236791E-03 -2.42569173E-08  2.24722488E-08  1.75358342E-02  7.12469916E-02
 -4.26056495E-02  3.69866820E-02  1.04618045E-07  5.55465347E-02 -8.47609740E-02
  5.56010919E-02  2.19305942E-07  4.99867214E-02  5.63287333E-02  5.48735585E-02
  1.61416553E-02  1.14480254E-08 -3.23849372E-08  4.76411969E-03  1.93230502E-02
 -4.96388574E-02 -5.71404311E-02  1.06188059E-07  1.51049842E-02 -8.56430792E-02
 -9.23876274E-02  2.18982137E-07  3.15340776E-03  2.56451132E-02  1.49139837E-02
 -9.39855380E-03  2.22439820E-08 -1.09177289E-08 -2.23968442E-02 -9.11001472E-02
  2.04340286E-02 -3.39356889E-02  9.86573953E-08 -7.09234788E-02  3.20299839E-02
 -7.56758175E-02  2.19261919E-07 -6.42971794E-02 -7.17519438E-02 -7.00683006E-02
 -8.80235352E-03  1.90244794E-08  1.11139031E-09  1.75358454E-02  7.12470274E-02
  4.26055152E-02 -3.69865705E-02  1.06907861E-07  5.55464979E-02  8.47607648E-02
 -5.56007969E-02  2.26120593E-07  4.99867402E-02  5.63287693E-02  5.48735758E-02
  1.61416218E-02 -1.79877503E-08  2.72217650E-08  1.42161536E-02  1.75186051E-02
 -6.63283739E-02 -8.32275903E-02  5.20012768E-02  6.48447288E-02  1.42165077E-02
  1.75191051E-02 -6.63282830E-02 -8.32274586E-02  5.20011316E-02  6.48445091E-02
 -3.74511762E-03 -2.24296370E-02 -7.46390445E-02  5.36300903E-02 -7.96487810E-08
 -3.51498566E-02 -1.14043361E-01  8.20870925E-02 -1.48063358E-07 -1.53544571E-02
 -2.36205723E-02 -1.35083807E-02 -2.62969941E-02  1.91405464E-08 -4.81814581E-08
 -3.46872707E-03 -2.15341473E-02  9.20903579E-03  9.00464887E-02 -5.81031725E-08
 -3.38188464E-02  1.42029603E-02  1.38350822E-01 -1.52028875E-07 -3.30407135E-02
 -4.85837347E-03 -1.25528240E-02  6.25254178E-03  1.68838936E-08  1.91444673E-09
 -3.62788839E-03 -2.20502995E-02  8.40733829E-02  3.56070892E-02 -1.64069056E-07
 -3.45807621E-02  1.28753953E-01  5.47154840E-02 -2.50314415E-07 -9.84018199E-03
 -2.86800089E-02 -1.31025268E-02  2.08462411E-02  1.80220857E-08 -1.40795009E-08
 -3.74512823E-03 -2.24296779E-02  7.46388666E-02 -5.36303497E-02 -1.18169491E-07
 -3.51498843E-02  1.14043147E-01 -8.20874100E-02 -2.03310934E-07 -1.53545647E-02
 -2.36205241E-02 -1.35084124E-02 -2.62970294E-02  2.61174866E-08  2.70114102E-08
 -3.46872044E-03 -2.15341272E-02 -9.20872484E-03 -9.00465164E-02 -2.18651392E-08
 -3.38188362E-02 -1.42025988E-02 -1.38350849E-01 -1.01276308E-07 -3.30407253E-02
 -4.85833616E-03 -1.25528060E-02  6.25242663E-03 -3.24473075E-09  4.26289024E-08
 -3.62790050E-03 -2.20503455E-02 -8.40735235E-02 -3.56068262E-02 -1.26504438E-07
 -3.45807959E-02 -1.28754106E-01 -5.47151928E-02 -1.89932261E-07 -9.84018254E-03
 -2.86800744E-02 -1.31025635E-02  2.08461811E-02 -6.54910874E-09  1.89054258E-08
 -7.56236109E-02 -9.47581098E-02 -7.50279865E-02 -9.31664916E-02 -7.53428602E-02
 -9.40659453E-02 -7.56236449E-02 -9.47581409E-02 -7.50279627E-02 -9.31664747E-02
 -7.53428910E-02 -9.40659752E-02 -5.60578529E-09 -2.77239953E-08 -3.30032343E-07
 -6.71823269E-08  1.10816091E-01 -3.48929418E-08 -4.54648276E-07 -8.63859201E-08
  1.95974720E-01  8.99278146E-09 -3.16521894E-08 -4.10037351E-08  1.96741929E-08
 -2.66372392E-02  1.94920823E-02  1.68248897E-08  4.03884734E-08  1.05884697E-07
 -1.08263579E-07  1.10816085E-01 -2.74667663E-08  1.09033908E-07 -2.02550236E-07
  1.95974845E-01 -4.52866639E-08  2.50485290E-08  1.03562208E-07  7.12737169E-08
  3.56140202E-03  3.28145313E-02 -4.89864431E-08 -1.90778940E-07  2.06172615E-07
 -8.12741051E-08  1.10816313E-01 -1.18508408E-07  3.65453418E-07 -7.12179784E-08
  1.95974948E-01 -9.42457039E-08 -1.44325945E-07 -1.87171180E-07  7.57812143E-09
  3.01991242E-02  1.33228234E-02 -3.94365276E-09 -2.92715252E-08  1.96003606E-07
  1.95222596E-07  1.10816115E-01 -4.21757563E-08  2.73329728E-07  2.26409992E-07
  1.95974746E-01  2.88283366E-08 -7.89642992E-08 -1.91323910E-08 -5.17819990E-08
  2.66373925E-02 -1.94918888E-02  1.36867488E-08  3.57719182E-08 -9.51042180E-08
 -6.15149134E-08  1.10816130E-01 -2.05924751E-08 -1.27494909E-07 -8.47203752E-09
  1.95974905E-01 -1.10707600E-09 -1.92690678E-09  7.83171613E-08  6.79912917E-09
 -3.56163990E-03 -3.28145131E-02 -1.09748263E-08 -4.32645087E-08 -2.57172995E-07
  5.86323161E-08  1.10816323E-01 -4.35196884E-08 -4.07807782E-07  5.32472378E-08
  1.95974958E-01  1.93286281E-08 -4.70982350E-08 -6.88490665E-08  2.30718472E-08
 -3.01990401E-02 -1.33230296E-02 -2.13812674E-07 -2.23370012E-07  6.46840245E-08
  3.69315390E-08 -4.40699594E-09  8.58407633E-09  6.86790997E-08  5.80394707E-08
 -1.98350640E-07 -2.25809353E-07 -2.34783005E-08 -2.78128487E-08  2.49355793E-02
  8.36989026E-02  5.92546274E-02 -4.26192469E-02  1.10581106E-07  4.85032256E-02
  7.43013876E-02 -5.49162694E-02  1.86052420E-07  6.45576044E-02  4.85880329E-02
  6.94165974E-02 -5.01390574E-02 -1.20689731E-07 -7.65406171E-08 -2.52552282E-02
 -8.50723693E-02  6.53269112E-03  6.48352846E-02  3.31810358E-07 -4.65736309E-02
  9.43810733E-03  8.42356733E-02  5.46346862E-07 -3.39332633E-02 -8.17034834E-02
 -6.98327788E-02 -1.04439572E-02 -4.11545634E-08  6.31245336E-08  2.50670908E-02
  8.42629265E-02 -6.42862998E-02 -2.71615854E-02  3.62897864E-07  4.77031909E-02
 -8.13553068E-02 -3.66919865E-02  5.39909556E-07  7.43037682E-02  3.98649393E-02
  6.95867971E-02  3.75738956E-02  4.00629826E-09 -8.92322362E-08 -2.49355722E-02
 -8.36988723E-02  5.92548431E-02 -4.26188587E-02  3.55064895E-09 -4.85032002E-02
  7.43015894E-02 -5.49158799E-02  4.21016258E-08 -6.45576431E-02 -4.85879478E-02
 -6.94165760E-02  5.01390172E-02 -1.85417692E-08 -1.46290367E-07  2.52552122E-02
  8.50723054E-02  6.53311306E-03  6.48352565E-02 -2.14367986E-07  4.65736022E-02
  9.43855909E-03  8.42356332E-02 -3.12849894E-07  3.39332424E-02  8.17034110E-02
  6.98327295E-02  1.04440045E-02 -5.34889151E-08 -4.92328125E-08 -2.50670815E-02
 -8.42628872E-02 -6.42861072E-02 -2.71619037E-02 -1.83315343E-07 -4.77031537E-02
 -8.13550778E-02 -3.66923147E-02 -2.52505352E-07 -7.43037281E-02 -3.98649215E-02
 -6.95867661E-02 -3.75738894E-02 -2.31822672E-08 -9.98372972E-08  1.08814652E-01
  9.33594156E-02 -9.99892905E-02 -8.61664519E-02  1.05087010E-01  9.03662426E-02
 -1.08814584E-01 -9.33593543E-02  9.99892650E-02  8.61664437E-02 -1.05086957E-01
 -9.03661784E-02 -1.28534512E-02 -4.52896698E-02  1.02420356E-01 -1.08551859E-01
  4.97034337E-07  1.92508110E-03  1.08358189E-01 -8.26528122E-02  6.72221905E-07
 -5.86273023E-03 -6.00703461E-02 -3.29672420E-02 -1.84611839E-02 -1.85397136E-08
  1.90067370E-07  3.77404662E-03  1.31284422E-02 -5.48184149E-02  4.60492337E-02
  3.30422256E-10 -1.87325736E-04 -6.35368627E-03  3.80634696E-02 -3.34722631E-08
  4.97621182E-03  1.39532384E-02  9.70911612E-03 -9.15440584E-02  1.34678894E-07
  1.93172946E-08  1.57768090E-02  5.60238424E-02  1.69938135E-01  8.23658954E-02
 -6.83253724E-07 -3.48081618E-03  1.61195735E-01  7.05501582E-02 -7.54894193E-07
  1.86101829E-02  6.34040471E-02  4.04246011E-02 -2.41056132E-02  9.89764125E-08
  3.79184306E-09  1.28534440E-02  4.52896376E-02  1.02420208E-01 -1.08551339E-01
 -3.48206571E-07 -1.92501211E-03  1.08357783E-01 -8.26526973E-02 -4.50105862E-07
  5.86269398E-03  6.00703175E-02  3.29672326E-02  1.84611454E-02  1.41812564E-07
  7.65348411E-08 -3.77401042E-03 -1.31284112E-02 -5.48185032E-02  4.60484416E-02
  1.83653256E-07  1.87133287E-04 -6.35385661E-03  3.80628422E-02  3.01011178E-07
 -4.97618621E-03 -1.39532442E-02 -9.70911048E-03  9.15440682E-02  1.62761995E-07
 -7.39693964E-08 -1.57767904E-02 -5.60238052E-02  1.69938243E-01  8.23663167E-02
  8.35222193E-07  3.48086167E-03  1.61196042E-01  7.05500656E-02  9.98249405E-07
 -1.86101107E-02 -6.34040900E-02 -4.04245626E-02  2.41056166E-02 -2.86593238E-09
 -2.70020604E-08  1.17982317E-01  1.03434948E-01 -3.31731569E-02 -2.83313350E-02
 -1.53766603E-01 -1.34389269E-01 -1.17982050E-01 -1.03434789E-01  3.31726433E-02
  2.83309307E-02  1.53766835E-01  1.34389414E-01  1.27554159E-02  4.40694469E-02
 -1.27760864E-01  4.54588056E-02  1.55852620E-07  2.30234936E-04 -1.00407010E-01
  6.61489129E-02  2.67207816E-07  5.57561351E-02  7.45065101E-03  3.28709335E-02
  4.46439458E-02  2.87888677E-08 -2.66922405E-08  1.53410450E-02  5.50731067E-02
  2.94699365E-02  1.94849939E-01  4.27273322E-07 -4.84969427E-03  2.07975572E-02
  1.83414326E-01  4.42781050E-07  6.92838248E-02  1.19177182E-02  3.93283500E-02
  3.51323718E-03  5.38406660E-08  1.11573728E-07  6.54631340E-03  2.21242279E-02
  7.38253566E-02 -2.57158824E-02 -1.01948711E-09  1.27759424E-03  5.17590028E-02
  1.31462895E-02  7.88547906E-08  4.16588559E-02 -1.04601164E-02  1.69337623E-02
 -6.48127563E-02  3.91643847E-08  4.16308474E-09 -1.27554338E-02 -4.40694571E-02
 -1.27761526E-01  4.54589823E-02 -4.46550514E-08 -2.30086899E-04 -1.00407333E-01
  6.61493679E-02 -1.23158718E-07 -5.57561165E-02 -7.45067616E-03 -3.28709265E-02
 -4.46439701E-02 -8.75538747E-08 -7.99406777E-09 -1.53410415E-02 -5.50730807E-02
  2.94704435E-02  1.94850029E-01 -4.40665398E-07  4.84974680E-03  2.07974056E-02
  1.83414473E-01 -4.42675357E-07 -6.92838253E-02 -1.19176810E-02 -3.93283252E-02
 -3.51324236E-03 -1.13431986E-08 -7.69903384E-08 -6.54629086E-03 -2.21242146E-02
  7.38245968E-02 -2.57160633E-02  4.69111637E-08 -1.27775568E-03  5.17584301E-02
  1.31459820E-02 -6.44313522E-09 -4.16588813E-02  1.04601495E-02 -1.69337703E-02
  6.48125664E-02  3.00967439E-08 -5.48894541E-08 -1.03998105E-01 -9.03366852E-02
 -1.62679523E-01 -1.41890183E-01 -4.65734413E-02 -3.93639558E-02  1.03998544E-01
  9.03369898E-02  1.62679652E-01  1.41890285E-01  4.65728166E-02  3.93634956E-02
 -5.37362918E-04 -1.73732539E-03 -1.27641149E-01 -1.83849390E-01 -1.44069749E-06
 -2.52964901E-04 -9.35188990E-02 -1.36243152E-01 -1.63710876E-06  1.52103012E-02
 -1.75494327E-02 -1.45584056E-03  1.13477736E-02  1.99803963E-07 -2.06521812E-07
  4.10552965E-04  1.31780764E-03  2.19127501E-01 -1.96485112E-02 -3.98009042E-07
  2.05610290E-04  1.63155975E-01 -1.38970385E-02 -4.68361352E-07  3.77114059E-03
 -2.01118410E-03  1.11989958E-03  2.55410240E-02 -3.55128342E-07 -4.01789886E-08
  9.59265000E-04  3.08396720E-03 -8.06617644E-02  2.06731662E-01  9.80594712E-07
  4.75586476E-04 -5.83717841E-02  1.53971910E-01  1.12554097E-06 -9.19166368E-03
  1.33221453E-02  2.60497709E-03  2.16072077E-02  7.70622564E-08  3.31560477E-07
  5.37074793E-04  1.73667209E-03 -1.27641645E-01 -1.83849211E-01  1.39624049E-06
  2.53259096E-04 -9.35188861E-02 -1.36243214E-01  1.60826395E-06 -1.52105891E-02
  1.75489191E-02  1.45534210E-03 -1.13491950E-02  1.59546479E-07 -2.60181913E-07
 -4.10793055E-04 -1.31834969E-03  2.19128027E-01 -1.96483864E-02  4.56533418E-07
 -2.05273866E-04  1.63156165E-01 -1.38973257E-02  5.16027256E-07 -3.77206006E-03
  2.01141105E-03 -1.12027389E-03 -2.55409282E-02 -4.21280653E-07 -4.53017864E-08
 -9.59438186E-04 -3.08431641E-03 -8.06619701E-02  2.06731966E-01 -9.75970849E-07
 -4.75226213E-04 -5.83722294E-02  1.53971941E-01 -1.11807679E-06  9.19178954E-03
 -1.33227162E-02 -2.60519659E-03 -2.16064878E-02  5.18889658E-08  3.77071918E-07
  3.32760887E-03  3.39297890E-03 -2.91457404E-03 -2.67865994E-03 -6.21090164E-03
 -6.03714459E-03 -3.32590227E-03 -3.39163005E-03  2.91570460E-03  2.67969017E-03
  6.21166441E-03  6.03786553E-03 -1.15666475E-07 -3.71178710E-07  9.84314135E-07
  6.17880589E-07 -1.88409444E-01 -6.86369923E-08  7.63951390E-07  5.22772418E-07
 -2.12392624E-01 -2.28012354E-07 -2.82279612E-07 -2.85524586E-07 -1.06054170E-07
 -1.55963298E-02 -8.29771605E-02  5.06481184E-08  1.26178416E-07 -1.17059687E-06
  2.45391348E-07  5.31867253E-02  1.85418534E-10 -5.71624672E-07  1.46405087E-07
  5.99567903E-02 -3.18230531E-08  1.45648071E-07  1.46708997E-07 -3.89474769E-07
 -1.09357400E-01  2.22093626E-02  1.22070872E-08  7.40431619E-08  1.36084701E-06
 -8.61004629E-07  2.41594479E-01 -8.69588227E-08  1.11631329E-06 -5.34648965E-07
  2.72347785E-01  1.27565159E-07  1.02843476E-07 -6.24601479E-08 -2.24590332E-07
  2.86164373E-02  5.08158444E-02  5.75097740E-08  1.80596603E-07  1.04766870E-06
  8.14699408E-07  1.88408562E-01 -1.81191771E-08  8.44990581E-07  6.05506656E-07
  2.12391875E-01  1.69231321E-07  6.37105861E-08  1.53316848E-07 -1.57064776E-07
 -1.55958033E-02 -8.29759605E-02 -4.50312824E-08 -1.42570304E-07 -1.18256022E-06
 -5.51539734E-09 -5.31854061E-02 -3.65289405E-08 -6.30446840E-07 -7.41224915E-08
 -5.99556765E-02 -2.28853171E-09 -1.49500162E-07 -1.52126644E-07  3.73014097E-07
 -1.09357172E-01  2.22089018E-02 -1.26732801E-08 -9.45360464E-08  1.23772303E-06
 -6.52018342E-07 -2.41594914E-01  7.35698570E-08  1.01856039E-06 -4.55060581E-07
 -2.72348144E-01 -2.08384695E-08 -2.27438483E-07  3.11585658E-08  3.09205115E-07
  2.86159349E-02  5.08173561E-02  3.27677297E-07  2.79724151E-07 -7.24481114E-08
 -8.10346261E-08 -3.09589710E-07 -2.12989676E-07 -2.17727635E-09 -5.62015806E-08
 -9.25721204E-08 -3.75980426E-08  4.69825993E-07  3.15223250E-07 -1.52399483E-08
 -6.63516287E-08 -6.86962540E-07 -3.64012709E-07  1.70191502E-01 -2.98833327E-08
 -5.47472659E-07 -3.27148948E-07  1.91855598E-01 -5.70918930E-08  2.89004504E-08
 -1.20484669E-07  3.79911755E-07 -7.63415209E-02 -4.86281704E-02 -5.00767288E-08
 -1.84904258E-07  8.54184642E-07 -8.94717765E-07  2.48263433E-01 -3.34508963E-08
  4.90214363E-07 -7.11137604E-07  2.79865230E-01 -3.98818109E-07 -8.56784603E-09
  4.25402885E-09  3.25804518E-07  2.88415930E-02  4.51324129E-02 -6.19219850E-08
 -1.89778290E-07 -3.10949150E-07  9.37666158E-07  7.80718368E-02 -5.35409939E-08
 -5.57530416E-08  4.77706154E-07  8.80094336E-02 -2.68779331E-07  8.14523401E-08
 -2.16502143E-07  2.45172717E-07  5.74507900E-02 -9.28422445E-02  1.23769366E-07
  3.65417226E-07 -1.41911529E-07 -8.53893590E-07 -1.70192486E-01  6.77562774E-08
 -1.59319795E-07 -6.17084199E-07 -1.91856390E-01  1.71996858E-07  2.67475154E-07
  3.35556532E-07  3.94255893E-08 -7.63424826E-02 -4.86288980E-02 -5.40930151E-08
 -1.15875583E-07  3.01751804E-07 -3.93752861E-07 -2.48263687E-01 -5.29230841E-08
  3.26136408E-07 -4.26559562E-07 -2.79865389E-01  3.67973217E-08 -5.44740697E-08
 -2.14226170E-07  1.76670320E-07  2.88432763E-02  4.51323030E-02  4.22098542E-08
  1.25623808E-07  2.13978807E-07  3.15196060E-07 -7.80705215E-02  6.27565362E-08
  1.91113875E-07  2.46935864E-07 -8.80083055E-02  1.00731449E-07  3.86067135E-09
  1.62533310E-07  2.74645203E-07  5.74502138E-02 -9.28419201E-02 -4.88486895E-07
 -2.88453121E-07  6.52506451E-07  4.44570207E-07  1.16702936E-08  3.21342630E-08
 -4.21566646E-07 -3.51407160E-07  4.69777846E-08  6.37616680E-08  2.92153479E-07
  1.59533566E-07  1.42092355E-02  3.90554120E-02 -1.67486590E-01  4.54175380E-02
 -6.65176237E-07 -7.37407682E-03 -9.44448557E-02  4.33334279E-02 -6.38837287E-07
  2.77830702E-02  2.15447031E-02  3.21601958E-02  1.18134069E-01  4.28925086E-07
  1.76679028E-07 -3.33210824E-03 -9.34432527E-03  1.93507976E-01 -5.78560887E-02
 -7.31981471E-07  2.00307101E-03  6.33246949E-02 -2.96953453E-02 -7.24810638E-07
 -5.29858590E-03 -6.73450450E-03 -7.49174323E-03  1.38686152E-01  7.14525233E-08
 -1.84691356E-07 -1.11611427E-02 -3.08678974E-02 -1.70382828E-01  7.48841093E-02
  2.93370841E-07  6.13520396E-03 -9.02325649E-02  9.85972823E-03  1.52614487E-07
 -2.35859804E-02 -1.56433474E-02 -2.52148786E-02  1.30939742E-01 -2.40011465E-07
 -3.06233343E-08  1.42092548E-02  3.90553106E-02  1.67486047E-01 -4.54178607E-02
  1.72494536E-07 -7.37420479E-03  9.44442527E-02 -4.33337919E-02  2.51418042E-07
  2.77824353E-02  2.15451308E-02  3.21601174E-02  1.18133554E-01  1.78156609E-07
 -1.26226840E-07 -3.33200836E-03 -9.34451355E-03 -1.93507278E-01  5.78566867E-02
  3.26720878E-07  2.00271240E-03 -6.33242688E-02  2.96960547E-02  4.05264864E-07
 -5.29894571E-03 -6.73463127E-03 -7.49186468E-03  1.38686290E-01 -1.94271571E-07
 -8.33977650E-08 -1.11610931E-02 -3.08680660E-02  1.70382960E-01 -7.48834771E-02
  4.22303994E-07  6.13493056E-03  9.02328809E-02 -9.85941599E-03  3.15171409E-07
 -2.35864135E-02 -1.56432850E-02 -2.52150050E-02  1.30940145E-01 -3.55674408E-08
  4.60013435E-07 -1.75195677E-01 -1.09008946E-01  4.08492751E-02  2.52909878E-02
  1.38223520E-01  8.55944002E-02 -1.75195479E-01 -1.09008845E-01  4.08496923E-02
  2.52912263E-02  1.38223665E-01  8.55944604E-02  5.11915386E-03  1.29260022E-02
  8.47135020E-02  2.06985444E-01  5.91316869E-08 -2.40686470E-03  2.18502346E-02
  8.68747903E-02 -3.39909563E-08 -5.38090916E-02  6.91822138E-02  1.13982980E-02
  1.34300837E-02 -1.14796505E-07  6.88681873E-08 -1.57493155E-02 -3.86675404E-02
 -6.69506278E-02 -1.67266858E-01 -3.94696837E-07  5.75565596E-03 -2.99951266E-02
 -1.08058241E-01 -3.24213442E-07 -8.96386983E-02  4.50854961E-02 -3.52951346E-02
  2.68213453E-03 -4.55439990E-08  1.29978021E-07  1.12675310E-02  2.82868082E-02
  4.14538163E-02  2.03452526E-01 -2.18267590E-08 -4.89694699E-03  4.28797756E-02
  8.98854738E-02  2.17534431E-08 -4.96382758E-02  8.30511515E-02  2.51093545E-02
 -1.65976814E-02  3.76863319E-07  3.69399720E-07  5.11905890E-03  1.29261529E-02
 -8.47127352E-02 -2.06985755E-01  7.28693441E-07 -2.40655494E-03 -2.18496159E-02
 -8.68752989E-02  6.37664404E-07 -5.38090166E-02  6.91825428E-02  1.13983784E-02
  1.34297264E-02  3.46393853E-07 -1.96869663E-07 -1.57493363E-02 -3.86675052E-02
  6.69508718E-02  1.67266595E-01  9.42325676E-08  5.75573808E-03  2.99949853E-02
  1.08058035E-01  1.73964698E-07 -8.96385167E-02  4.50853966E-02 -3.52951027E-02
  2.68372173E-03 -2.84832582E-07 -5.26511449E-07  1.12675598E-02  2.82865765E-02
 -4.14531826E-02 -2.03452497E-01 -9.18525861E-08 -4.89720630E-03 -4.28793231E-02
 -8.98850744E-02 -7.18248956E-08 -4.96383368E-02  8.30507584E-02  2.51091986E-02
 -1.65983726E-02 -4.29271278E-07 -3.81666391E-08 -6.42288065E-02 -3.86168284E-02
  1.94811097E-01  1.19157316E-01 -1.38641883E-01 -8.43261284E-02 -6.42288380E-02
 -3.86169605E-02  1.94811055E-01  1.19157276E-01 -1.38641845E-01 -8.43260099E-02
  1.08310067E-03  1.00544416E-02  3.28267321E-02 -2.74706219E-03 -3.77674492E-08
 -1.45725935E-02  4.39330230E-02 -1.31846139E-03 -2.05869780E-08 -5.12894009E-05
  2.18207822E-02  1.67898150E-03  3.38101538E-01 -7.50151028E-09 -2.93610282E-09
  2.09359822E-02  6.89346072E-02  4.03990871E-02  3.23231204E-02  5.23658680E-07
 -2.49540968E-02  2.90754530E-02 -1.63429845E-02  2.64044740E-07  1.59292147E-01
 -5.39425240E-02  3.82477582E-02 -1.09604103E-01 -1.60436306E-08  3.27506416E-08
  8.27065232E-03  3.32517342E-02 -3.50341851E-02  4.22371288E-02 -1.44022108E-07
 -1.88867263E-02 -5.53823397E-02  3.61788095E-02 -3.16997866E-08 -1.07002788E-02
  6.71056221E-02  1.45140325E-02 -2.96367094E-01  3.18626673E-07  2.51857329E-07
  1.08311349E-03  1.00544860E-02 -3.28262330E-02  2.74561609E-03  2.24376363E-08
 -1.45726666E-02 -4.39326868E-02  1.31786739E-03  3.97861948E-08 -5.27385009E-05
  2.18223392E-02  1.67896359E-03  3.38097017E-01  1.02757665E-07 -2.40361522E-07
  2.09360141E-02  6.89346385E-02 -4.03961062E-02 -3.23229048E-02  3.87104754E-07
 -2.49541162E-02 -2.90746004E-02  1.63432065E-02  1.85149322E-07  1.59292253E-01
 -5.39426211E-02  3.82477912E-02 -1.09606302E-01  5.16719822E-09  2.06775556E-07
  8.27054239E-03  3.32515258E-02  3.50351582E-02 -4.22355026E-02 -4.14353735E-07
 -1.88867412E-02  5.53829216E-02 -3.61782083E-02 -2.54642017E-07 -1.07003360E-02
  6.71054511E-02  1.45138520E-02 -2.96372721E-01 -1.36069051E-07 -1.48324211E-07
 -1.23548062E-01 -4.00245769E-02 -9.97592280E-02 -6.27557121E-02 -9.40971853E-02
 -3.87007555E-02 -1.23546977E-01 -4.00245269E-02 -9.97595007E-02 -6.27557378E-02
 -9.40983831E-02 -3.87008099E-02  7.45464137E-07  2.47483444E-06 -1.73398202E-05
  4.72038628E-06 -1.94260078E-01 -2.98561149E-07 -1.04092028E-05 -1.03372783E-06
 -1.12591518E-01 -1.67163264E-06  5.65501597E-06  1.22393117E-06 -6.85196338E-05
 -9.13070960E-02 -2.01274876E-01  1.51692044E-07  3.61084746E-07 -2.41314361E-05
  4.08643679E-06  2.09201492E-01 -1.25839213E-07  4.09886165E-07 -1.05627333E-07
  1.21252248E-01 -4.67477758E-06  5.06758634E-06  2.98344408E-07  8.97913472E-06
 -1.66823996E-01  6.70379893E-02 -1.22302506E-06 -2.88085907E-06 -1.88540950E-05
  7.96236997E-06 -1.49426708E-02 -3.64633342E-07 -9.81767307E-06  5.59468766E-06
 -8.66107235E-03 -6.42640469E-06  3.00513458E-06 -2.52947871E-06 -6.32097182E-05
  1.54010019E-01 -3.57704207E-01 -6.68661960E-07 -2.31387668E-06 -1.74989411E-05
  4.43155353E-06 -1.94261044E-01  3.26572777E-07 -1.03860626E-05 -9.47854288E-07
 -1.12592889E-01  1.67272129E-06 -5.34545511E-06 -1.21133962E-06  6.84284236E-05
  9.13067304E-02  2.01273274E-01 -3.08590275E-07 -7.20911505E-07 -2.42893520E-05
  4.69802119E-06  2.09202314E-01  1.37426481E-07  3.44368405E-07  2.25684180E-07
  1.21253360E-01  4.05799701E-06 -5.26007089E-06 -2.06225160E-07 -8.49068227E-06
  1.66825816E-01 -6.70376003E-02  1.31202119E-06  3.05829401E-06 -1.91837292E-05
  8.31121305E-06 -1.49408550E-02  4.02373601E-07 -1.00217017E-05  5.95081066E-06
 -8.65854383E-03  6.50786873E-06 -2.64751174E-06  2.44641617E-06  6.29761311E-05
 -1.54009661E-01  3.57706160E-01  1.76500122E-05  5.97306930E-07  4.13315385E-06
  1.17950753E-06 -1.40602712E-05 -5.55277272E-07 -1.77185898E-05 -6.75211498E-07
 -3.92690784E-06 -1.05732507E-06  1.38431776E-05  4.44089429E-07  3.50931827E-07
  1.32892582E-06 -1.09774831E-05  3.16824241E-06 -1.29410150E-01 -2.22269925E-07
 -6.67872663E-06 -6.15937979E-07 -7.50067804E-02 -1.43179216E-06  3.44405765E-06
  8.15021083E-07 -4.50234891E-05  2.16068773E-01  2.44324288E-01  2.26383438E-07
  5.10718662E-07 -1.55631785E-05  2.87668415E-06 -1.03530721E-01 -7.46937804E-08
  5.65013084E-07  1.35491931E-08 -6.00071892E-02 -2.70391715E-06  3.48997493E-06
  2.06510783E-07  5.59445208E-06 -3.50303814E-01  1.38081728E-02 -8.27117734E-07
 -1.88344678E-06 -1.21164341E-05  5.44441173E-06  2.32939785E-01 -3.10310757E-07
 -6.35544356E-06  3.95559418E-06  1.35009992E-01 -4.08496537E-06  2.00807563E-06
 -1.80430295E-06 -4.17451254E-05  5.96387771E-02 -9.88870201E-04 -4.96276742E-07
 -1.67682270E-06 -1.16388726E-05  2.88102640E-06 -1.29408593E-01  1.96172916E-07
 -6.83235929E-06 -6.52904313E-07 -7.50045541E-02  9.15712814E-07 -3.72840669E-06
 -7.19621548E-07  4.46858935E-05 -2.16073005E-01 -2.44328180E-01 -1.73379583E-07
 -3.83979965E-07 -1.59835776E-05  2.77519611E-06 -1.03529090E-01  4.07305661E-08
  1.13468620E-09 -2.28008000E-08 -6.00048562E-02  2.77228127E-06 -3.32910509E-06
 -1.88192534E-07 -5.86724772E-06  3.50309564E-01 -1.38077065E-02  8.91596810E-07
  2.07021133E-06 -1.28285127E-05  5.25701444E-06  2.32939850E-01  2.14499823E-07
 -6.64306696E-06  3.60623457E-06  1.35010086E-01  4.41963016E-06 -1.77266599E-06
  1.61129016E-06  4.08587250E-05 -5.96411241E-02  9.94191574E-04  1.16726639E-05
  4.89384086E-07  2.60428137E-06  6.86296935E-07 -9.11187522E-06 -2.78905960E-07
 -1.15691546E-05 -4.10430145E-07 -2.50536257E-06 -6.63962496E-07  9.02829357E-06
  2.98133520E-07  3.98313799E-03  1.34656503E-02 -9.66797948E-02  2.52237529E-02
  5.00296163E-05 -1.62385062E-03 -5.76951146E-02 -5.76877172E-03  2.90052926E-05
 -9.51455049E-03  3.10737040E-02  6.80929163E-03 -3.81423558E-01 -6.06647416E-06
  1.14346268E-05  1.33156316E-03  3.15224056E-03 -1.34970693E-01  2.39368840E-02
 -2.52979742E-05 -6.22885958E-04  2.15332176E-03 -6.07233130E-05 -1.46986472E-05
 -2.39580459E-02  2.86795416E-02  1.40539992E-03  4.81629740E-02  6.54935732E-05
 -1.27688206E-05 -7.07773940E-03 -1.65630463E-02 -1.06140776E-01  4.55190483E-02
 -2.47146201E-05 -2.14976619E-03 -5.53597533E-02  3.22374933E-02 -1.43726046E-05
 -3.61646178E-02  1.58931623E-02 -1.39096745E-02 -3.51640721E-01 -3.19999359E-05
  5.98769366E-05 -3.98311911E-03 -1.34655367E-02 -9.66791158E-02  2.52240880E-02
  5.01371875E-05  1.62345798E-03 -5.76950385E-02 -5.76794412E-03  2.90318321E-05
  9.51219942E-03 -3.10710259E-02 -6.80935841E-03  3.81428203E-01  1.21278697E-05
 -3.54661987E-06 -1.33110646E-03 -3.15188081E-03 -1.34972454E-01  2.39384571E-02
 -2.54846156E-05  6.22333121E-04  2.15203600E-03 -5.94428191E-05 -1.47078049E-05
  2.39605143E-02 -2.86817731E-02 -1.40531242E-03 -4.81680392E-02 -7.66782917E-05
  1.44715291E-05  7.07829018E-03  1.65647082E-02 -1.06141875E-01  4.55179363E-02
 -2.47268468E-05  2.14927216E-03 -5.53593029E-02  3.22369775E-02 -1.42882989E-05
  3.61648283E-02 -1.58909140E-02  1.39106790E-02  3.51638513E-01  3.71521419E-05
 -6.89342143E-05  9.83591667E-02  3.43516610E-03  2.22215133E-02  6.11771356E-03
 -7.77564135E-02 -2.76041106E-03 -9.83613149E-02 -3.43592433E-03 -2.22231240E-02
 -6.11828125E-03  7.77552111E-02  2.75941975E-03  9.98025610E-08  3.04870224E-07
 -1.63719863E-06  2.97686153E-07  1.85430023E-06 -3.11907262E-08 -9.62228650E-07
 -1.55321622E-07  2.63339644E-06 -4.44084951E-08  7.16333995E-07 -4.02869853E-08
 -5.83823885E-06 -2.00105085E-01 -2.73464615E-01  1.58899413E-08  4.31185060E-08
 -2.50323239E-06  3.95509136E-07  6.61595017E-07 -1.31949456E-08 -5.33284870E-08
 -4.84353557E-09  1.69138908E-06 -3.77017923E-07  4.72729197E-07 -1.19015476E-08
  4.02175327E-07  3.36880548E-01 -3.65659876E-02 -1.32517574E-07 -3.14041342E-07
 -1.78306151E-06  9.18995214E-07 -2.15037979E-06 -3.02119329E-08 -9.13501008E-07
  5.92756900E-07 -9.51938948E-07 -6.52701874E-07  1.32507557E-07 -1.24813086E-07
 -5.38835508E-06 -1.36774996E-01  3.10027464E-01 -8.53267624E-08 -2.77376840E-07
 -1.52963348E-06  4.12466577E-07  8.78555454E-07  3.49833602E-08 -9.16480300E-07
 -1.10008684E-07  5.25653987E-08  8.59706484E-08 -6.75176026E-07  1.05121484E-08
  5.85400367E-06 -2.00102834E-01 -2.73460756E-01 -3.98610842E-08 -9.54882762E-08
 -2.37736130E-06  4.17484479E-07 -3.52561908E-07  1.51285124E-08 -2.32093984E-08
  2.48099375E-09 -4.16396971E-07  2.79683450E-07 -4.94298617E-07  2.73841233E-08
 -4.92371017E-07  3.36873929E-01 -3.65642874E-02  1.38352408E-07  3.26476102E-07
 -1.78924861E-06  8.86684548E-07 -2.18878705E-06  3.04313469E-08 -9.30796495E-07
  6.05367034E-07 -4.78892031E-07  6.48924996E-07 -1.12562895E-07  1.32984463E-07
  5.47652489E-06 -1.36772265E-01  3.10026136E-01  1.54482612E-06  3.34200282E-08
  3.54283977E-07  1.04094247E-07 -1.21540312E-06 -2.76112805E-08 -1.54173462E-06
 -3.71303469E-08 -3.36277814E-07 -8.30789980E-08  1.22715916E-06  2.46609148E-08
  4.07026561E-02  7.72302776E-02  2.97410202E-02  1.00512540E-01  1.89671269E-07
 -7.03186868E-03  5.93176792E-02  8.66458671E-02  2.23368392E-07  1.93645351E-01
 -1.03445039E-01  5.97849806E-02  1.35131668E-03  5.94097266E-07 -1.06148166E-07
  2.51724173E-02  4.54599243E-02 -1.98068248E-01  5.76185985E-02  1.29272502E-07
 -4.84437683E-03 -1.45701070E-01  2.73394083E-02  3.13402160E-08  6.17426704E-02
 -1.09304816E-02  3.72535135E-02  3.98290281E-01 -2.42191374E-07  1.62904369E-07
 -6.01469365E-02 -1.06319525E-01 -5.97772897E-02 -5.40370910E-02 -3.33456247E-08
  4.63454295E-03 -1.20030072E-02 -4.48336288E-02 -1.73335304E-07 -1.51927378E-01
  3.65026921E-02 -8.87980153E-02 -1.16643204E-01  8.83074605E-07  3.94737514E-07
  4.07027021E-02  7.72303538E-02 -2.97387043E-02 -1.00515642E-01  2.42693559E-07
 -7.03259288E-03 -5.93212695E-02 -8.66520450E-02  1.88723612E-07  1.93661751E-01
 -1.03460762E-01  5.97842215E-02  1.34906059E-03 -4.75436685E-07 -1.52786987E-07
  2.51727264E-02  4.54605297E-02  1.98068919E-01 -5.76256542E-02  9.08068402E-08
 -4.84412036E-03  1.45709081E-01 -2.73438016E-02  4.91884549E-08  6.17364367E-02
 -1.09236558E-02  3.72542415E-02  3.98322962E-01  2.48916759E-07  1.54583360E-07
 -6.01458260E-02 -1.06318450E-01  5.97767518E-02  5.40273745E-02 -1.06680679E-07
  4.63534387E-03  1.19978434E-02  4.48369642E-02 -1.51284315E-07 -1.51931679E-01
  3.65068738E-02 -8.87959233E-02 -1.16624228E-01 -5.20860734E-07 -2.04001303E-07
  2.66026840E-02 -1.32802985E-02 -1.54151821E-02 -2.41183394E-02 -5.13329868E-02
  1.98971293E-02  2.66076701E-02 -1.32791533E-02 -1.54092120E-02 -2.41178784E-02
 -5.13332985E-02  1.98955894E-02 -4.18015839E-03  8.00458964E-04 -4.42848157E-02
 -1.92484843E-03  3.32963865E-08 -7.78116153E-03  4.35730754E-02  6.81175709E-02
  2.09555973E-07  2.02416890E-01 -1.88532751E-01 -1.16131961E-02 -5.97844152E-02
  7.61511749E-07 -8.77985052E-07  1.00398847E-02  1.33096775E-02 -3.94836198E-02
  6.09330351E-02 -7.95167877E-08  6.07854052E-03 -1.11098838E-01  4.32609497E-02
 -4.58555749E-08 -4.19320434E-02  4.92400749E-02  1.89421284E-02  4.50300959E-01
  3.41935748E-07  2.95786514E-07  5.97906830E-03  4.19887465E-03 -1.96342029E-02
  1.07969687E-01  1.29430695E-07  1.06368088E-02  5.67557109E-02 -5.31881104E-02
 -1.86678165E-07 -9.72340391E-02  8.81720950E-02  1.82921534E-02  1.80285404E-01
  1.26636570E-06  4.93527412E-07  4.18353037E-03 -7.93321655E-04 -4.42873939E-02
 -1.93185431E-03  1.21756630E-08  7.78102079E-03  4.35692352E-02  6.81114005E-02
 -1.63592324E-07 -2.02402825E-01  1.88527237E-01  1.16188970E-02  5.97823340E-02
  7.71526507E-07 -1.06578904E-06 -1.00389766E-02 -1.33075462E-02 -3.94667353E-02
  6.09310245E-02  9.72057002E-08 -6.07826944E-03 -1.11086528E-01  4.32592873E-02
  4.91130636E-08  4.19368926E-02 -4.92425673E-02 -1.89400787E-02 -4.50268491E-01
  6.30888386E-08  2.53782954E-07 -5.98457341E-03 -4.20708498E-03 -1.96305311E-02
  1.07975206E-01 -1.68722406E-07 -1.06359864E-02  5.67553577E-02 -5.31832027E-02
  1.51649021E-07  9.72206268E-02 -8.81669414E-02 -1.82989727E-02 -1.80290388E-01
  1.19387217E-06  2.64721346E-07  6.73797674E-02  1.27399912E-02  3.66310491E-02
 -3.41522185E-03 -2.83632353E-02 -2.01012545E-02 -6.73780270E-02 -1.27415681E-02
 -3.66331508E-02  3.41385872E-03  2.83586277E-02  2.01024841E-02  3.60141957E-07
  7.06857960E-07 -1.22046070E-06 -1.28610445E-06 -1.33839394E-02 -1.30729030E-07
 -3.67819620E-07 -6.59001336E-07 -5.45412209E-02 -3.35638350E-07  1.35667271E-06
  3.69892567E-07  3.33445925E-08 -2.97595089E-01  2.17761908E-01 -6.69730140E-07
 -7.84223725E-07 -7.96155246E-08 -6.95991362E-07 -1.33815063E-02 -6.50361699E-08
 -4.23400371E-07 -4.24302532E-07 -5.45396145E-02  1.47921227E-06 -2.32125102E-06
 -5.59156651E-07  2.88284740E-07  3.97921510E-02  3.66603629E-01  3.99016284E-07
  5.64402838E-07  3.83931454E-07 -2.01841618E-06 -1.33844453E-02  5.03101028E-08
  9.67928365E-08 -1.17057801E-06 -5.45417037E-02 -9.68700014E-07  1.63848878E-06
  3.90955630E-07  1.44127772E-06  3.37386018E-01  1.48844241E-01  9.54703411E-07
  1.21858153E-06  1.10375770E-06  1.16497252E-06 -1.33840252E-02 -5.80272221E-09
  3.02629936E-07  6.27542518E-07 -5.45413494E-02 -1.72994292E-07  1.23802617E-06
  1.18127900E-06 -3.59579324E-07  2.97594723E-01 -2.17763222E-01 -1.22863634E-06
 -1.23809912E-06  1.91352463E-07  3.08168089E-07 -1.33815069E-02 -1.84924330E-07
  3.26411471E-07  2.60288146E-07 -5.45397452E-02  1.01264908E-06 -1.83452378E-06
 -1.32163403E-06  3.75784059E-07 -3.97908984E-02 -3.66604456E-01  8.96685440E-07
  1.02733063E-06 -7.02499510E-07  1.57605790E-06 -1.33845147E-02  3.45107278E-08
 -2.86453754E-07  9.81345446E-07 -5.45417830E-02 -6.16426494E-07  1.51356523E-06
  9.58200806E-07  1.25707780E-06 -3.37386838E-01 -1.48843024E-01 -1.13121906E-07
 -2.63028373E-07 -9.99472914E-07 -3.96552309E-08 -8.16396631E-07 -2.78480921E-07
 -7.79177429E-07 -4.91799435E-07  4.13357061E-08  2.20716002E-07 -1.09783813E-06
 -5.35504283E-07  9.33343804E-02  1.27183679E-01 -9.82707145E-02 -7.61007525E-02
 -1.55720376E-07 -1.44190809E-02 -4.63585429E-02 -7.82196991E-02  4.17659062E-07
 -7.49539843E-02  2.03923538E-01  1.08890997E-01 -1.30797363E-02  3.40038126E-06
 -1.47672453E-06 -9.93363725E-02 -1.02920727E-01 -6.60253268E-02 -8.73782251E-02
  6.75918117E-07 -1.17107363E-02 -4.96515527E-02 -5.80725752E-02  8.66844498E-07
  1.59017990E-01 -2.23073057E-01 -1.16225204E-01  2.24012200E-02 -1.10687131E-06
 -4.18904734E-06  4.84337767E-02  7.05994843E-02  9.39107960E-02 -1.66904231E-01
 -6.84678015E-07 -1.35632044E-02  4.39261379E-02 -1.27981882E-01 -1.52393112E-07
 -1.57177197E-01  2.34824733E-01  5.65670720E-02  1.44366891E-01 -1.04928677E-06
  2.70939111E-07  9.33351766E-02  1.27184573E-01  9.82692061E-02  7.60972416E-02
 -1.37261076E-07 -1.44189673E-02  4.63581163E-02  7.82182357E-02  1.89554634E-07
 -7.49511019E-02  2.03921348E-01  1.08891934E-01 -1.30850269E-02 -2.14097731E-06
  2.68759341E-07 -9.93364052E-02 -1.02920665E-01  6.60258161E-02  8.73750700E-02
  9.07965578E-07 -1.17107084E-02  4.96520484E-02  5.80712548E-02  1.00660468E-06
  1.59013010E-01 -2.23067885E-01 -1.16225236E-01  2.24057011E-02  5.55592151E-07
  4.68728294E-06  4.84340407E-02  7.05996594E-02 -9.39119927E-02  1.66900596E-01
 -6.77610796E-07 -1.35632140E-02 -4.39271408E-02  1.27981558E-01  1.17060367E-07
 -1.57174468E-01  2.34821997E-01  5.65673297E-02  1.44367251E-01  2.66114322E-06
  6.76840844E-07 -6.03853133E-02 -5.56709377E-02 -7.41109718E-02  1.07384565E-02
 -8.54096786E-02 -5.25085426E-02 -6.03847555E-02 -5.56715697E-02 -7.41074557E-02
  1.07390153E-02 -8.54082278E-02 -5.25083095E-02  2.31674027E-06  1.50662385E-06
 -8.35017829E-07 -9.76885050E-07  3.42252596E-02  2.10848647E-07 -2.24001605E-07
 -1.13316946E-07  7.19890212E-02 -9.30402318E-07  1.03212623E-06  2.20224935E-06
  1.87265036E-06  2.50290173E-01 -2.93401029E-01 -2.63887685E-06 -1.92756035E-06
  1.23845961E-07 -2.13424074E-06 -1.04352254E-02 -1.53528558E-07 -1.83106038E-07
 -8.70457270E-07 -2.19465059E-02  1.70053121E-06 -2.36657520E-06 -2.44954957E-06
 -2.72434557E-07 -1.14313704E-01  1.27474442E-01  2.70320523E-06  1.74533294E-06
 -1.54618273E-07 -1.20998025E-06 -4.46541784E-02  3.95907064E-07 -2.57335897E-07
 -6.07187895E-08 -9.39319597E-02 -1.04132385E-06  1.22905537E-06  2.46773519E-06
 -1.23761931E-06  4.32469927E-01  2.32789418E-01 -2.68619713E-06 -2.04107090E-06
 -1.45332581E-06 -9.37350509E-07 -3.42225515E-02  8.50095177E-09 -4.80147256E-07
 -2.57467001E-07 -7.19872848E-02  1.07330800E-06 -1.93995636E-06 -2.44663707E-06
 -2.19528699E-06  2.50287256E-01 -2.93398728E-01  3.06291731E-06  2.29326764E-06
 -2.48268269E-07 -2.42605659E-06  1.04311268E-02  2.91042745E-07 -5.18042780E-07
 -1.06805466E-06  2.19438916E-02 -2.59272357E-06  3.38775512E-06  2.93822461E-06
 -1.24387251E-07 -1.14314200E-01  1.27468961E-01 -2.82389737E-06 -1.93435992E-06
  1.96934443E-07 -1.75780041E-06  4.46555629E-02 -2.57536136E-07 -4.30639244E-08
 -6.07832658E-07  9.39328288E-02  1.96030860E-06 -2.38229126E-06 -2.59948689E-06
  9.26926997E-07  4.32471370E-01  2.32790402E-01 -2.51533419E-06 -7.91661163E-07
  8.81418049E-07  8.65528775E-07 -3.31645605E-06 -8.59358912E-07  2.45122147E-06
  1.07787004E-06 -6.31917531E-07 -8.44954555E-07  3.61995315E-06  1.09594747E-06
  2.41982601E-06  1.78309999E-06 -4.74202843E-07  1.49299490E-06 -3.18039736E-02
  1.05473268E-07 -3.80455312E-07  4.05295615E-07 -6.69006390E-02  6.76170960E-07
  5.65035214E-08  2.13609888E-06  8.11935569E-08 -3.37972642E-01  1.28674451E-01
 -2.45632843E-06 -1.72017035E-06  3.62840679E-07 -4.86260044E-07 -4.55399711E-02
 -1.18840493E-07  1.20268262E-07 -2.19803693E-07 -9.57932431E-02 -1.58498580E-06
  8.66426172E-07 -1.98663692E-06 -1.96699597E-07  8.28979705E-02  4.93278172E-01
  2.69829017E-06  1.98237962E-06  9.07195484E-07  1.05116107E-06 -1.37373509E-02
  1.85831370E-07  3.99296703E-07  4.04804383E-07 -2.88933274E-02  1.25285587E-06
 -5.44711445E-07  2.47667200E-06  4.19515933E-07  1.88218327E-01 -5.35056822E-02
 -2.75266300E-06 -1.94727593E-06 -1.97026889E-07  1.03164744E-06  3.18070966E-02
 -2.23979743E-07 -2.13821275E-07  3.86490748E-07  6.69025848E-02 -7.57039642E-07
  2.70947785E-07 -2.60121207E-06 -2.15196776E-08 -3.37975606E-01  1.28676581E-01
  2.74733903E-06  1.85840302E-06  1.11902323E-07  2.52137307E-07  4.55406842E-02
  2.78669815E-07  1.59758301E-07  6.34511349E-08  9.57936883E-02  1.47281057E-06
 -1.04505414E-06  2.46002130E-06  2.77684575E-07  8.28982104E-02  4.93278714E-01
 -2.57660752E-06 -1.86002410E-06  1.07945943E-06  5.64377094E-07  1.37333838E-02
 -1.71415025E-07  3.39511867E-07  5.21376344E-07  2.88907436E-02 -1.46880980E-06
  8.53084141E-07 -2.35189708E-06  7.50047918E-08  1.88212965E-01 -5.35078887E-02
 -1.77934818E-06 -9.46232993E-07  2.66658587E-06  1.04471909E-06 -1.75390388E-06
 -9.48413669E-07  2.18297189E-06  9.80080989E-07 -3.23267074E-06 -1.04952505E-06
  1.60763304E-06  8.70198209E-07  1.83247780E-01  1.09397943E-01 -8.68085859E-02
 -8.19562271E-02 -1.16613015E-06  7.41053423E-03 -7.87047601E-03  3.55622407E-03
 -9.13709326E-07 -2.83459892E-02  4.32716509E-02  1.48354730E-01  9.04297441E-02
 -1.56499858E-06  4.43732534E-06 -2.02313409E-01 -1.25635815E-01 -4.63398689E-02
 -1.28804468E-01  1.61721284E-06 -1.37371248E-02 -3.83862684E-02 -5.55606777E-02
  1.49059846E-06  1.42052423E-01 -1.63475461E-01 -1.71610505E-01  7.02003076E-02
  6.33432513E-07 -6.68402277E-06  1.84952217E-01  1.05167357E-01  1.35704096E-02
 -5.71807222E-02 -7.01113875E-07  1.28877666E-02  1.58867497E-02 -2.69803460E-02
  1.01165723E-06 -1.43142707E-01  1.42445085E-01  1.55202962E-01 -7.52411806E-02
 -6.13330319E-06 -2.34193443E-06 -1.83250305E-01 -1.09399701E-01 -8.68085487E-02
 -8.19565786E-02  1.76251022E-06 -7.41028171E-03 -7.87025450E-03  3.55615335E-03
  1.19211536E-06  2.83462756E-02 -4.32729727E-02 -1.48356363E-01 -9.04292814E-02
 -2.63263842E-06  4.23251322E-06  2.02314612E-01  1.25636656E-01 -4.63410899E-02
 -1.28804179E-01 -1.34499239E-06  1.37374188E-02 -3.83875651E-02 -5.55608812E-02
 -1.43504698E-06 -1.42054109E-01  1.63477253E-01  1.71611751E-01 -7.02042459E-02
  1.52970434E-06 -6.88190019E-06 -1.84952124E-01 -1.05167279E-01  1.35717533E-02
 -5.71827040E-02 -5.33891089E-07 -1.28876935E-02  1.58871441E-02 -2.69817579E-02
 -1.82068746E-06  1.43143889E-01 -1.42446247E-01 -1.55202891E-01  7.52415498E-02
 -8.55951506E-06 -3.11533035E-06 -1.46900396E-01 -5.49950670E-02  5.21781602E-02
  5.19696669E-02 -1.99944434E-01 -6.52873197E-02  1.46900946E-01  5.49957096E-02
 -5.21780687E-02 -5.19697411E-02  1.99945110E-01  6.52874304E-02 -1.46679463E-01
 -8.43727125E-02 -3.69888300E-02 -1.82128730E-01 -1.22994050E-06 -9.36391649E-03
  2.97450090E-02 -2.90789767E-02 -9.19261353E-07 -5.31283545E-02  4.63314369E-02
 -1.19145169E-01  8.14543214E-02 -3.92223215E-06  1.31504038E-06  1.22247408E-01
  6.19965111E-02 -4.74870559E-02 -7.43953956E-02 -6.76239710E-08  4.03277208E-03
 -4.34219306E-02 -2.04894206E-02 -8.91963653E-07  2.36880060E-01 -2.45094337E-01
  9.31203846E-02  7.19709723E-02  1.08961875E-06  4.60277792E-06 -1.46213347E-01
 -9.04234288E-02 -7.49882358E-02 -1.34629071E-01 -4.33027865E-07 -3.72907618E-03
 -2.76460942E-02 -6.27034732E-02 -2.55959364E-07 -1.97645923E-01  1.72653861E-01
 -1.13203824E-01 -6.12448001E-02  1.72363286E-06 -8.19612544E-07  1.46674058E-01
  8.43689121E-02 -3.69892693E-02 -1.82129441E-01  1.21138734E-06  9.36425713E-03
  2.97453188E-02 -2.90788842E-02  1.12381461E-06  5.31263790E-02 -4.63316123E-02
  1.19141396E-01 -8.14542744E-02 -4.46742955E-06  2.54173444E-06 -1.22245477E-01
 -6.19952597E-02 -4.74916625E-02 -7.43951586E-02 -4.86919449E-07 -4.03234066E-03
 -4.34249716E-02 -2.04897940E-02  7.50750079E-07 -2.36882963E-01  2.45097289E-01
 -9.31184777E-02 -7.19757475E-02  5.99945452E-07  4.57512225E-06  1.46214766E-01
  9.04243939E-02 -7.49863526E-02 -1.34632676E-01  1.32938001E-06  3.72928081E-03
 -2.76455501E-02 -6.27060493E-02  9.55120051E-07  1.97650091E-01 -1.72657726E-01
  1.13204993E-01  6.12433899E-02  3.91464965E-06  5.75377815E-07  7.16099661E-02
  4.82269465E-02 -2.17668801E-01 -5.75741411E-02  4.89343493E-03  3.64967434E-02
 -7.16087148E-02 -4.82255846E-02  2.17669225E-01  5.75740799E-02 -4.89232107E-03
 -3.64966801E-02 -8.71698808E-07 -3.26466859E-07  4.08458253E-07  8.43676428E-07
 -2.60317940E-01 -5.79441903E-08  7.10957526E-08  1.95317828E-07 -1.31346513E-01
  2.76061476E-08  1.08979864E-07 -5.34231780E-07 -9.41204620E-08 -2.45938536E-01
  2.85753540E-01  1.57420018E-06  4.74455457E-07 -2.45784411E-07 -1.67648273E-07
  2.58327208E-01  4.71997478E-08  8.23491384E-09  8.99633455E-08  1.30342055E-01
 -1.12021817E-07  1.80301741E-07  4.08922152E-07 -1.37839806E-07  4.75299956E-02
 -3.71715605E-01 -1.41185781E-06 -5.10559678E-07 -2.04136117E-07  4.90930237E-07
  1.99033067E-03  8.78964084E-09 -9.64625700E-08  1.03244947E-07  1.00402931E-03
 -1.03633006E-07  7.18703842E-08 -5.74979414E-07  1.74850008E-07 -7.22883371E-02
  1.56906324E-01 -9.51377576E-08 -1.69768938E-07 -1.19440709E-06 -9.74798376E-07
 -2.60318042E-01  2.05545080E-07 -1.44445579E-07 -3.58852484E-08 -1.31346746E-01
 -9.81040524E-08 -3.44099210E-07  1.13673667E-07 -7.97808713E-07  2.45940947E-01
 -2.85755648E-01  2.37651068E-06  6.45406320E-07  4.25526066E-07  5.41806142E-07
  2.58327324E-01  3.18588230E-07 -1.76495795E-07  4.51863631E-08  1.30342338E-01
 -1.14500779E-06  6.49237259E-07  1.06801128E-06 -2.44397703E-07 -4.75298006E-02
  3.71719316E-01 -1.38369951E-06 -4.83009540E-07  3.10731441E-07 -1.28096759E-06
  1.99181595E-03 -1.03363557E-09 -1.50929493E-08 -6.96168711E-08  1.00500091E-03
  2.68004778E-07 -2.58069382E-07 -5.67848630E-07  4.70306963E-07  7.22956430E-02
 -1.56903098E-01  3.95463747E-07  1.35928792E-07 -3.59727304E-07 -2.09037285E-07
  3.92450691E-07  2.52524204E-07 -2.35950203E-07  9.79730871E-08 -7.25712556E-07
 -1.65962903E-07  5.76159715E-07  2.46755409E-07 -5.47376178E-06 -1.80258731E-06
 -4.52104673E-07 -8.02506507E-07  1.47996796E-01 -1.01157111E-07  3.62508649E-07
 -9.40469516E-08  7.46731806E-02  6.13755814E-07 -2.83720255E-07 -2.32078612E-06
 -6.23617908E-08  2.57166875E-01 -2.10277810E-03  2.00079211E-06  5.99713673E-07
  2.39289931E-06  4.76290240E-08  1.51444682E-01  1.68826899E-07 -7.09516500E-08
  2.99384949E-07  7.64129443E-02 -4.87817297E-07  2.54116142E-07  8.40800859E-07
  1.58781103E-06 -1.71202947E-01 -1.96316412E-01  2.85980856E-06  6.98948179E-07
 -1.73468621E-06  1.02964899E-06 -2.99439639E-01  4.33451531E-07 -1.89323940E-07
  1.34115055E-07 -1.51085404E-01  1.42344599E-07 -8.99763114E-07  1.28717457E-06
  9.63937957E-07  3.86011257E-01  1.71551131E-01 -3.62888389E-06 -1.21745184E-06
  9.41092698E-07  4.16247220E-07  1.47996018E-01 -1.33519017E-07 -1.65866411E-07
 -9.38045893E-08  7.46725374E-02  6.36963110E-07 -3.58623730E-07 -1.65199960E-06
  1.25455104E-07 -2.57161521E-01  2.09910144E-03  1.07336926E-07  1.54198860E-08
 -2.30412234E-06  5.36667406E-07  1.51443605E-01  1.76926387E-07  1.17722225E-07
 -1.81216213E-08  7.64122101E-02 -5.53230325E-07  4.31666034E-07  1.25735725E-07
  1.69403817E-06  1.71201997E-01  1.96309977E-01  4.87094283E-06  1.31987358E-06
  1.38129082E-06 -1.26372811E-06 -2.99439473E-01  4.96951358E-07 -2.65043730E-08
 -2.46690319E-07 -1.51085327E-01 -9.68510979E-08 -9.85554580E-07  2.25392849E-06
  7.27154778E-07 -3.86010999E-01 -1.71550750E-01  1.82672820E-06  9.76570160E-07
 -4.89638207E-07 -2.69748885E-07 -1.27869622E-06 -2.72191881E-07  1.31751377E-06
  6.35357815E-07  1.13096115E-07  9.64018173E-08 -2.00863773E-06 -6.18605705E-07
 -4.13492613E-01 -6.44498345E-02 -5.88414267E-02 -5.49032997E-02 -3.46184852E-06
 -2.04997573E-02  2.60799298E-02 -6.12667062E-03 -1.31896705E-06  7.77827937E-02
  2.44550937E-02 -1.09317449E-01  2.37338966E-02 -3.32787041E-06  8.50860894E-07
 -7.35868873E-03  2.88487861E-04  9.94538720E-02 -9.43053904E-03 -4.16159529E-08
 -1.66094877E-03 -3.05551644E-02  2.03589579E-03 -1.27515857E-07  2.95610101E-02
 -2.46258233E-02 -1.82476944E-03  1.59243275E-01  2.33345681E-06 -1.07528448E-07
  4.41293829E-01  7.42272175E-02 -4.74594237E-02  4.75564567E-02  2.40685013E-06
  1.90389380E-02  2.32816248E-02 -8.17108283E-03  1.36491925E-06 -8.25638949E-02
 -1.51173756E-02  1.17069778E-01  2.38403505E-02 -3.32963904E-06 -1.38448888E-06
 -4.13490945E-01 -6.44499586E-02  5.88416319E-02  5.49049144E-02 -9.89134076E-07
 -2.04998523E-02 -2.60803135E-02  6.12679008E-03 -6.22252520E-07  7.77826939E-02
  2.44546296E-02 -1.09317811E-01  2.37350308E-02  2.07084957E-06  3.39298815E-07
 -7.35303368E-03  2.88954061E-04 -9.94537972E-02  9.43198934E-03 -2.75838653E-06
 -1.66113685E-03  3.05554399E-02 -2.03555421E-03 -1.08136977E-06  2.95623964E-02
 -2.46283885E-02 -1.82459061E-03  1.59243268E-01 -2.42058732E-06 -2.53092672E-06
  4.41295550E-01  7.42271371E-02  4.74600736E-02 -4.75550808E-02  4.95037228E-06
  1.90388560E-02 -2.32813837E-02  8.17149018E-03  2.16376047E-06 -8.25652831E-02
 -1.51165623E-02  1.17069509E-01  2.38392635E-02  5.31362413E-06  2.31144845E-06
  1.02961945E-01  4.06781640E-02 -7.76265001E-03 -4.56720518E-03 -1.16820942E-01
 -4.62216868E-02  1.02961918E-01  4.06782608E-02 -7.76397229E-03 -4.56777164E-03
 -1.16821279E-01 -4.62216721E-02 -2.17670662E-01 -8.89285277E-03  4.11835670E-02
  7.69937200E-02  3.61158385E-06 -1.38334035E-02 -8.49224043E-03 -3.65576082E-02
  1.23353311E-06 -4.53016338E-02  1.24952760E-01 -3.19973850E-02 -2.25177999E-02
  2.17455508E-06 -2.36783206E-06  5.45327078E-01  5.26839434E-02 -4.85173688E-03
 -6.26917795E-02 -4.03558880E-06  1.92421853E-02 -6.60135528E-03 -3.03095186E-04
 -1.41758802E-06 -1.45684410E-02 -1.20918920E-01  8.23358386E-02 -1.64550821E-02
  2.55413881E-07  3.65195373E-06 -2.03506936E-01 -9.67125638E-03 -6.87726302E-03
  6.28053170E-02  3.17686248E-06 -1.31338288E-02  8.86686508E-03 -4.33445357E-02
  1.02483070E-06 -5.14813437E-02  1.23301054E-01 -3.00144816E-02  1.12958204E-01
 -2.06187366E-06 -1.90192249E-06 -2.17678218E-01 -8.89302938E-03 -4.11826771E-02
 -7.69936887E-02 -1.80378911E-06 -1.38334687E-02  8.49213291E-03  3.65574259E-02
 -5.60903774E-07 -4.53002071E-02  1.24953552E-01 -3.19975045E-02 -2.25182685E-02
  1.90644781E-06 -6.59476254E-07  5.45327433E-01  5.26839049E-02  4.85254783E-03
  6.26921921E-02  1.08764805E-06  1.92421553E-02  6.60197297E-03  3.03176058E-04
  3.99611430E-08 -1.45676516E-02 -1.20919837E-01  8.23357386E-02 -1.64537052E-02
  7.13056836E-08  1.39815477E-07 -2.03499443E-01 -9.67102177E-03  6.87847213E-03
 -6.28047233E-02 -2.14641173E-06 -1.31337427E-02 -8.86682279E-03  4.33448816E-02
 -6.68841663E-07 -5.14836176E-02  1.23301195E-01 -3.00142830E-02  1.12957014E-01
 -2.27997430E-06  6.40958524E-08  3.48166937E-02  5.82903846E-03 -1.30510883E-01
 -3.86706734E-02  2.15378219E-02 -1.47584702E-03  3.48172058E-02  5.82920100E-03
 -1.30511248E-01 -3.86707243E-02  2.15368359E-02 -1.47608269E-03  9.59499684E-07
 -4.69903680E-08 -1.46993503E-06 -2.63804960E-06  3.03002100E-01  1.42637959E-07
  4.55346859E-07  4.56110560E-07  9.37443541E-02  4.01056531E-07 -1.01545238E-06
  2.15505847E-07  7.49973323E-07  2.09782345E-01 -1.53508863E-01 -1.11468127E-05
 -6.89850634E-07 -5.63539702E-07  6.53716125E-07 -3.03001807E-01 -4.36288244E-07
 -1.68814954E-07 -3.31508231E-07 -9.37443102E-02  2.37858373E-06  4.79614681E-07
 -9.97348026E-07  9.95315517E-07  2.80488470E-02  2.58432102E-01 -8.32531527E-08
  4.92561603E-08  1.01631759E-06 -9.67267379E-07  3.03002417E-01 -1.14718181E-07
  9.90093303E-09  3.12957597E-07  9.37445605E-02 -4.35342576E-07  4.97927001E-07
  7.53730653E-08 -1.86155522E-06 -2.37836248E-01 -1.04925076E-01  3.37882614E-07
 -1.58958470E-07 -1.01783976E-06 -8.96209504E-07 -3.03002386E-01  2.22299030E-07
  2.04192327E-08 -7.55054490E-08 -9.37444772E-02  6.83671395E-07 -1.26953485E-06
  1.53029293E-07 -6.69965591E-07  2.09783270E-01 -1.53508272E-01  2.40003245E-06
  2.70976114E-08 -1.03078348E-06  1.75503385E-07  3.03002232E-01  3.75521457E-07
 -1.05098420E-07 -2.43607270E-07  9.37444952E-02 -2.48381555E-06  1.46175676E-06
  3.62673932E-07  3.44392399E-07  2.80500969E-02  2.58432730E-01  9.50929380E-06
  4.63105598E-07  1.28195982E-06 -3.84419845E-07 -3.03002568E-01  6.19942795E-07
 -8.18588527E-08 -4.88954114E-07 -9.37446251E-02  3.81885403E-07 -3.31385707E-06
  1.06360808E-06  8.08389546E-08 -2.37835820E-01 -1.04926487E-01 -3.47615452E-07
  1.01804504E-07  1.06658152E-06  4.22964954E-07 -2.02652099E-07 -4.77471866E-08
 -1.01518023E-07  8.91507127E-08  5.42117869E-07  1.95544707E-07 -9.04931720E-07
 -1.67883447E-07  5.61996342E-01  1.75688541E-02  4.37879983E-02 -3.88806835E-02
  3.55623126E-08  2.36072161E-02 -1.20663117E-02  9.87849634E-03 -3.28984063E-08
 -7.38835629E-02 -7.84010371E-02  2.36344281E-02 -5.47214721E-03 -2.72540654E-07
 -5.07217140E-09  2.79107900E-01  8.25937494E-03 -6.02953415E-02 -2.59719312E-02
 -9.44614803E-08  1.21630104E-02  1.03708072E-02  5.55652629E-03 -1.05939440E-08
 -3.65484470E-02 -4.03289507E-02  1.20672692E-02 -7.65138832E-03 -1.40965928E-07
 -7.73739976E-08 -2.80097794E-01 -8.87110352E-03  3.14981857E-03  6.11737744E-02
  1.88929971E-07 -1.18060043E-02 -1.15967645E-03 -1.66424935E-02  4.13051814E-09
  2.31671256E-02  5.23098936E-02 -1.16167758E-02  1.08479694E-02 -2.91486248E-08
  3.26915964E-08 -5.61996247E-01 -1.75689661E-02  4.37891411E-02 -3.88791437E-02
 -5.06201120E-07 -2.36071511E-02 -1.20664794E-02  9.87810390E-03 -2.17231877E-07
  7.38842850E-02  7.84000032E-02 -2.36343828E-02  5.47239805E-03  3.65247042E-07
 -5.66192798E-07 -2.79116004E-01 -8.25999445E-03 -6.02961777E-02 -2.59725779E-02
  5.05615102E-07 -1.21633354E-02  1.03708254E-02  5.55659994E-03  2.10997333E-07
  3.65485951E-02  4.03304808E-02 -1.20680013E-02  7.65186217E-03 -1.56592690E-07
  5.66264303E-07  2.80101741E-01  8.87146359E-03  3.14974405E-03  6.11746568E-02
 -1.59278434E-07  1.18062678E-02 -1.15968389E-03 -1.66429715E-02  4.20355214E-09
 -2.31669120E-02 -5.23109884E-02  1.16173662E-02 -1.08492202E-02  1.11150623E-07
 -1.74613418E-07 -4.22799843E-02 -1.38773943E-02 -2.33960653E-02 -6.61015106E-03
  1.75358588E-02  5.63600425E-03  4.22799377E-02  1.38774482E-02  2.33975126E-02
  6.61055257E-03 -1.75364479E-02 -5.63609755E-03  4.38415465E-04 -1.28943004E-04
  3.74288767E-02  4.88258973E-02  3.64941913E-06  8.41202106E-05 -9.37074457E-03
 -1.31557246E-02  1.02387343E-06 -1.59858457E-02  1.54345234E-02  1.54889025E-04
 -4.23690203E-03  2.17644167E-06 -1.60509376E-06  4.85503171E-01  1.45594257E-02
  2.54805605E-02 -5.88346881E-02 -3.71825005E-06  2.03673799E-02 -3.93454190E-03
  1.17555409E-02 -1.07141354E-06 -6.09991818E-02 -7.09894876E-02  1.95589505E-02
  8.74025117E-04  4.89029713E-07  2.64815875E-06  4.86170923E-01  1.48614426E-02
 -6.02132297E-02  3.36487535E-03  3.88459286E-06  2.01391072E-02  1.34479473E-02
 -9.37850856E-04  1.20136014E-06 -7.01885705E-02 -6.12207228E-02  1.93823716E-02
  2.78528190E-03 -2.85836870E-06 -1.38853487E-06 -4.41132179E-04  1.28559525E-04
  3.74289797E-02  4.88257719E-02 -3.87831899E-06 -8.43258018E-05 -9.37082997E-03
 -1.31554541E-02 -1.11950767E-06  1.59857400E-02 -1.54339745E-02 -1.55476957E-04
  4.23632573E-03  2.37451887E-06 -1.79514576E-06 -4.85496553E-01 -1.45590094E-02
  2.54794061E-02 -5.88339239E-02  4.00711533E-06 -2.03671219E-02 -3.93437414E-03
  1.17554752E-02  1.23995820E-06  6.09990607E-02  7.09881477E-02 -1.95584831E-02
 -8.73477125E-04  5.05239442E-07  3.24718140E-06 -4.86166474E-01 -1.48610520E-02
 -6.02123279E-02  3.36371683E-03 -3.90118241E-06 -2.01389379E-02  1.34477701E-02
 -9.37561138E-04 -1.19616191E-06  7.01874748E-02  6.12210447E-02 -1.93820117E-02
 -2.78478728E-03 -2.80762400E-06 -1.52677151E-06 -2.10962224E-03 -5.41265941E-04
 -3.99669439E-02 -1.17195412E-02 -3.83910563E-02 -1.18258338E-02  2.11024619E-03
  5.41410332E-04  3.99659196E-02  1.17192478E-02  3.83904279E-02  1.18255832E-02
  4.33169727E-01  1.76227784E-03  2.68678689E-02 -2.36391054E-02 -5.67082068E-07
  2.00792818E-02 -4.14297609E-03  9.60349132E-03 -1.94490731E-07 -4.73828200E-02
 -7.33370190E-02 -7.04327313E-04 -1.00759170E-02 -5.91810801E-07  2.44531467E-07
  3.49563181E-01  3.32570953E-03 -2.07268818E-03 -2.57293908E-02  3.77220467E-07
  1.68938692E-02  3.64998329E-03  8.57237914E-03  1.51834038E-07 -6.32663797E-02
 -2.94281961E-02 -1.15457677E-03 -1.79316195E-04 -9.94551747E-09 -6.74388650E-07
  4.17640766E-01  2.43316671E-03 -3.23756849E-02 -1.43920036E-02 -3.11848284E-07
  1.94714330E-02  4.02398647E-03  1.07290918E-02 -8.45058806E-08 -3.86866667E-02
 -7.60747181E-02 -7.54455860E-04 -5.99009243E-03  3.68829927E-07  1.21118645E-07
  4.33168671E-01  1.76222321E-03 -2.68683705E-02  2.36380345E-02  5.00000344E-07
  2.00792407E-02  4.14321947E-03 -9.60318537E-03  1.62592991E-07 -4.73829940E-02
 -7.33366299E-02 -7.04354686E-04 -1.00761067E-02 -3.01608159E-07  3.81451653E-07
  3.49565466E-01  3.32577153E-03  2.07250291E-03  2.57294867E-02 -6.73255492E-07
  1.68939681E-02 -3.65037549E-03 -8.57242418E-03 -1.78377756E-07 -6.32670809E-02
 -2.94280492E-02 -1.15454278E-03 -1.80268698E-04 -1.12004287E-07 -2.96003517E-07
  4.17644377E-01  2.43329424E-03  3.23757683E-02  1.43924207E-02  7.28182903E-07
  1.94715638E-02 -4.02394433E-03 -1.07294648E-02  2.22292091E-07 -3.86865400E-02
 -7.60756592E-02 -7.54410508E-04 -5.99021842E-03  4.14214020E-07  2.20475462E-07
 -2.27711439E-02 -4.05937944E-03 -6.38608644E-03 -1.42857367E-03 -1.77779135E-02
 -2.31761638E-03 -2.27710780E-02 -4.05936046E-03 -6.38606143E-03 -1.42858253E-03
 -1.77779764E-02 -2.31767065E-03 -3.30902948E-01  9.63911169E-02 -1.67448252E-02
  1.61981015E-02  1.82716126E-07  5.25950868E-03 -1.33939515E-02  1.10618703E-02
  5.82237924E-09  3.04467625E-02  2.99061098E-02  2.14676312E-01  1.22905824E-02
  7.50236539E-08  1.03558567E-07  3.33829623E-01 -9.59868811E-02 -3.33611126E-03
 -2.16714174E-02 -5.78486642E-07 -6.95940781E-03 -2.49931864E-03 -1.85468723E-02
 -5.41215259E-08 -3.48600905E-02 -2.04192540E-02 -2.19864229E-01  4.55052881E-03
  2.23130040E-07  9.07012890E-08 -3.32344329E-01  9.63196519E-02  2.03722825E-02
  1.32547790E-02  8.64943601E-07  6.03462445E-03  1.60077743E-02  9.20936753E-03
  3.82871218E-07  2.89509068E-02  2.92687334E-02  2.17129492E-01 -1.15180679E-02
 -1.12417404E-06 -3.36818108E-07  3.30902081E-01 -9.63908048E-02 -1.67445808E-02
  1.61984223E-02 -6.44561733E-07 -5.25948678E-03 -1.33939245E-02  1.10618335E-02
 -2.22218428E-07 -3.04462230E-02 -2.99065395E-02 -2.14675580E-01 -1.22904500E-02
  7.39272397E-07 -1.01351817E-07 -3.33829404E-01  9.59868296E-02 -3.33530059E-03
 -2.16713267E-02  1.36117461E-07  6.95940449E-03 -2.49913898E-03 -1.85468483E-02
 -1.57379764E-07  3.48601629E-02  2.04192129E-02  2.19864049E-01 -4.55099980E-03
 -8.19673204E-08 -5.39154857E-07  3.32344844E-01 -9.63198406E-02  2.03723099E-02
  1.32548351E-02 -2.52407301E-07 -6.03464271E-03  1.60077978E-02  9.20941201E-03
 -1.88054910E-07 -2.89514173E-02 -2.92683555E-02 -2.17129873E-01  1.15185405E-02
 -6.50979612E-07 -1.32108808E-07 -1.00537459E-01 -4.50184330E-02  1.05592004E-01
  4.62804012E-02 -1.01477272E-01 -4.53680407E-02  1.00537237E-01  4.50183098E-02
 -1.05591989E-01 -4.62803916E-02  1.01477303E-01  4.53680731E-02  2.54584447E-01
 -1.26129424E-01 -8.22470767E-02 -7.54381647E-02 -5.71593760E-07 -2.34443026E-02
  3.49392800E-02 -1.48927597E-02 -1.14767402E-07  3.66802676E-02  9.19410255E-03
 -3.54525400E-01  3.80377228E-02  5.88640668E-07 -2.98674818E-07 -1.56637814E-02
  8.38775378E-03  1.59928196E-01 -2.10193100E-02 -8.08021122E-07  1.86841370E-03
 -3.05850889E-02  5.53754566E-03 -1.44694997E-07  2.02436939E-02 -2.75286017E-02
  2.78005711E-02  1.66742976E-01  1.63930877E-06 -1.64977803E-07 -2.47224326E-01
  1.25862782E-01 -7.82439190E-02  9.10400252E-02  1.94295840E-06  2.34849760E-02
  3.54988144E-02 -3.72605396E-03  6.59059220E-07 -4.81502488E-02 -6.37687787E-04
  3.55871168E-01  4.42104615E-02 -4.23633715E-07 -7.43743594E-07  2.54586122E-01
 -1.26130054E-01  8.22507174E-02  7.54412006E-02 -1.34450613E-06 -2.34453898E-02
 -3.49412388E-02  1.48916602E-02 -3.56621804E-07  3.66848626E-02  9.19396346E-03
 -3.54531566E-01  3.80395846E-02  5.61040115E-07 -6.55841685E-08 -1.56615891E-02
  8.38758068E-03 -1.59928749E-01  2.10164078E-02 -3.64323057E-07  1.86597769E-03
  3.05852923E-02 -5.53631442E-03 -1.14046890E-07  2.02496703E-02 -2.75243760E-02
  2.77894598E-02  1.66742798E-01 -1.13984162E-06  3.17422838E-07 -2.47222625E-01
  1.25862281E-01  7.82411912E-02 -9.10367615E-02  1.22525963E-06  2.34836947E-02
 -3.54973918E-02  3.72505897E-03  4.49700125E-07 -4.81468670E-02 -6.35832981E-04
  3.55864469E-01  4.42079576E-02  8.99807717E-08  4.82521422E-07  1.63648450E-01
  7.03577176E-02 -1.92715259E-02 -8.69061474E-03 -1.67399747E-01 -7.02669323E-02
  1.63650846E-01  7.03582381E-02 -1.92675991E-02 -8.69066147E-03 -1.67397004E-01
 -7.02664977E-02 -4.82357689E-02 -1.60786934E-02  1.18295291E-01 -4.10320016E-02
  4.00488687E-07  7.42494811E-02 -2.97403468E-02  1.62465885E-02  1.19011285E-07
 -1.68944169E-01 -1.47298126E-01  2.93518212E-01 -1.27530427E-02 -1.73638245E-06
 -7.14474101E-07 -1.06375104E-01  1.49029515E-02 -1.78124676E-02 -1.33667787E-01
 -1.68480939E-06  8.09093492E-02  5.44373445E-03  3.92630731E-02 -4.94009665E-07
 -1.69112253E-01 -1.64826995E-01  3.85499070E-01 -9.30671799E-03 -6.56618621E-08
 -2.19902650E-06 -3.28109319E-02 -2.43388424E-02 -1.14658195E-01 -2.62979510E-02
  1.24542143E-06  7.24846095E-02  3.10083332E-02  9.19676938E-03  4.06811252E-07
 -1.63598043E-01 -1.48025685E-01  2.69109079E-01  2.31181885E-02  1.51061607E-06
 -4.82039771E-07 -4.82364558E-02 -1.60784465E-02 -1.18295843E-01  4.10324828E-02
  5.81903219E-07  7.42500017E-02  2.97409202E-02 -1.62464254E-02  1.67606002E-07
 -1.68945084E-01 -1.47299492E-01  2.93521151E-01 -1.27532585E-02  6.79341105E-07
  9.79043271E-07 -1.06375461E-01  1.49029593E-02  1.78145169E-02  1.33667970E-01
 -1.94149119E-06  8.09097008E-02 -5.44424248E-03 -3.92632067E-02 -5.89258297E-07
 -1.69113058E-01 -1.64827677E-01  3.85500660E-01 -9.30561614E-03 -4.66614296E-07
  1.04345852E-06 -3.28106716E-02 -2.43389566E-02  1.14658063E-01  2.62972316E-02
  1.48039008E-06  7.24844309E-02 -3.10083394E-02 -9.19659828E-03  4.42977262E-07
 -1.63598363E-01 -1.48024486E-01  2.69107930E-01  2.31192301E-02 -1.16125857E-06
  6.29487592E-07 -8.30042098E-02  1.14527819E-02 -1.25648930E-01 -3.78971413E-03
 -7.18443802E-02  1.53867625E-02 -8.30051842E-02  1.14526361E-02 -1.25649536E-01
 -3.78976650E-03 -7.18441688E-02  1.53867302E-02  1.20515876E-01 -4.78907084E-02
  8.18185871E-02  1.83336109E-01  7.44065385E-07 -3.22606605E-02  3.46440082E-03
 -4.28296558E-02  1.40797339E-07 -2.33988590E-02  1.42985383E-01 -2.38894735E-01
 -1.83277644E-02 -2.15486230E-07  3.55106864E-08 -2.36399474E-01  1.42727529E-01
 -3.65211567E-03 -6.15165000E-02 -1.91634792E-07  1.31996852E-02 -2.49079891E-03
  1.26849494E-02 -1.36115373E-07  2.18342682E-02 -4.51471078E-02  3.58445372E-01
 -3.06433603E-02 -3.09632794E-07 -3.06561668E-07  1.38531483E-01 -6.01027039E-02
 -2.45332968E-03  1.50579307E-01 -3.85639434E-07 -3.44729762E-02 -6.05557758E-03
 -4.72604720E-02 -2.47361190E-07 -2.78113747E-02  1.49941528E-01 -2.69656799E-01
  1.26498889E-01  6.72700874E-07 -5.04874740E-07  1.20510914E-01 -4.78890888E-02
 -8.18198893E-02 -1.83328942E-01  8.97765888E-07 -3.22571475E-02 -3.46365679E-03
  4.28266054E-02  7.14263572E-08 -2.34042612E-02  1.42975328E-01 -2.38874937E-01
 -1.83290815E-02  4.23762402E-07 -5.36823857E-07 -2.36400198E-01  1.42727747E-01
  3.66244663E-03  6.15162902E-02 -8.25842211E-07  1.31999511E-02  2.48859132E-03
 -1.26848102E-02 -3.79948480E-07  2.18336391E-02 -4.51476236E-02  3.58447064E-01
 -3.06450167E-02  5.13954708E-08 -7.07759459E-07  1.38536243E-01 -6.01040963E-02
  2.45155023E-03 -1.50586690E-01  2.57498089E-08 -3.44762681E-02  6.05650715E-03
  4.72634337E-02 -1.38720665E-07 -2.78070250E-02  1.49951623E-01 -2.69675034E-01
  1.26499127E-01 -5.04381134E-07  4.17396758E-07  9.54237891E-02  2.28410995E-02
 -2.00427070E-01 -7.98562520E-02  1.00695273E-01  2.09890807E-02  9.54171770E-02
  2.28400230E-02 -2.00427732E-01 -7.98563591E-02  1.00701101E-01  2.09897673E-02
 -1.08368401E-01  3.77100635E-02  1.45147010E-01  5.95682164E-03  7.61658073E-07
  6.25742218E-02 -5.29102938E-02 -3.80017653E-04  4.21332947E-08 -1.64192002E-01
 -1.36901808E-01  3.95295701E-01 -5.45037707E-02 -2.04663241E-06 -6.22163286E-07
 -1.10288949E-01  3.60033724E-02 -9.99754588E-02 -1.19948212E-01 -1.26701607E-06
  6.67218604E-02  3.07195142E-02  3.47268271E-02 -3.86102913E-07 -1.75799215E-01
 -1.41042562E-01  4.08264179E-01 -2.27954541E-02 -6.35672213E-07 -1.71159597E-06
 -5.47827248E-03  2.86046075E-03 -7.69300409E-02  1.61378332E-01  6.64109121E-07
  1.65576898E-03  2.77310225E-02 -5.47456567E-02 -1.49798002E-08 -3.89777375E-02
  2.82553499E-02  1.71987867E-02  5.15916300E-02  7.99452923E-07 -8.08289151E-07
  1.08365612E-01 -3.77082034E-02  1.45142119E-01  5.95078357E-03 -8.29432785E-07
 -6.25742268E-02 -5.29096426E-02 -3.79638750E-04 -1.26416212E-07  1.64189828E-01
  1.36904427E-01 -3.95291961E-01  5.45020390E-02 -5.91549018E-07 -1.19295590E-06
  1.10282728E-01 -3.59995558E-02 -9.99731384E-02 -1.19945519E-01  1.29694192E-06
 -6.67212173E-02  3.07190689E-02  3.47264689E-02  4.68254209E-07  1.75798320E-01
  1.41041240E-01 -4.08253242E-01  2.27889696E-02 -8.78071533E-08 -2.58916530E-07
  5.48687402E-03 -2.86547749E-03 -7.69322304E-02  1.61376934E-01 -6.46376893E-07
 -1.65658605E-03  2.77317723E-02 -5.47445675E-02  2.46412643E-08  3.89767160E-02
 -2.82520079E-02 -1.72125793E-02 -5.15887850E-02  8.18500050E-07 -7.86988803E-07
 -1.36678948E-01 -2.86614976E-02 -1.40160515E-01 -2.26593361E-02 -1.17328284E-02
 -5.67265748E-03  1.36676947E-01  2.86602717E-02  1.40154869E-01  2.26573089E-02
  1.17391852E-02  5.67523971E-03  6.64037082E-02 -2.38834832E-02  3.97564181E-02
  1.81082264E-01  6.42065544E-07 -3.85104773E-02 -1.27403337E-02 -5.77471767E-02
 -9.79419896E-08  5.17072418E-02  1.35266711E-01 -2.45998021E-01  1.27562856E-03
  2.37863086E-07  4.51810724E-07 -5.87715495E-02  2.10634019E-02  1.61042034E-01
 -8.69922783E-02 -1.14266690E-06  3.40511600E-02 -3.88761958E-02  2.47790727E-02
 -1.98553868E-07 -8.85456236E-02 -7.71251964E-02  2.17737462E-01  2.21539038E-02
  1.38089569E-06 -1.12863291E-06 -1.25271486E-01  4.50623342E-02 -1.26342277E-01
 -6.96245458E-02  1.62846548E-06  7.25038448E-02  3.70821416E-02  2.60653752E-02
  5.77125202E-07 -1.50775132E-01 -2.01755139E-01  4.63856448E-01  1.11213987E-02
  9.23996356E-07 -7.27054109E-07 -6.64115938E-02  2.38874573E-02  3.97587527E-02
  1.81088844E-01 -6.90427089E-07  3.85116788E-02 -1.27397742E-02 -5.77488797E-02
  1.43511988E-07 -5.17061272E-02 -1.35272396E-01  2.46011776E-01 -1.27598612E-03
 -1.64002362E-07  9.35481505E-07  5.87813962E-02 -2.10697430E-02  1.61043690E-01
 -8.69964426E-02  1.06799821E-06 -3.40518159E-02 -3.88766857E-02  2.47796767E-02
  2.32822800E-07  8.85451885E-02  7.71275827E-02 -2.17753810E-01 -2.21550489E-02
  1.30405987E-06 -6.16402131E-07  1.25269045E-01 -4.50614667E-02 -1.26343099E-01
 -6.96183338E-02 -1.34130493E-06 -7.25029825E-02  3.70825155E-02  2.60635899E-02
 -4.57407492E-07  1.50777900E-01  2.01748881E-01 -4.63850853E-01 -1.11285625E-02
  6.48343698E-07 -8.64612473E-07  8.08640659E-02  1.48183378E-02 -7.39700676E-02
 -1.36320635E-02 -1.55039233E-01 -2.87307549E-02 -8.08702320E-02 -1.48204899E-02
  7.39793338E-02  1.36357892E-02  1.55037597E-01  2.87309012E-02 -9.87756820E-03
  1.13379398E-01  3.27218652E-01 -3.66055769E-02 -8.21295909E-07 -5.93873613E-02
  3.81037762E-02  3.39486684E-02 -9.03349714E-08  1.70593377E-01  5.79716601E-02
 -9.67338837E-03  3.02044677E-01  1.93955847E-06  9.65502707E-07 -9.93787222E-03
  1.15285827E-01 -1.71107604E-01 -1.69954143E-01  1.47879443E-06 -6.43288784E-02
 -5.66550715E-02  2.87654390E-02  2.90539955E-07  1.98562025E-01  3.27875954E-02
 -1.14881679E-02  1.63333104E-01  7.96317757E-07  1.36951076E-06  1.01606119E-03
 -1.73805137E-02 -1.00395529E-01  2.84593405E-01 -8.38828298E-08  1.23369594E-02
 -6.74588763E-02  1.14333973E-01  9.19039859E-08  1.68684522E-01 -2.09930087E-01
  8.53734765E-03 -3.00182040E-01 -4.86758888E-07  1.14535164E-06  9.87761271E-03
 -1.13379983E-01  3.27235024E-01 -3.65896288E-02 -2.71156662E-07  5.93872910E-02
  3.81079345E-02  3.39536317E-02 -9.99576349E-08 -1.70610784E-01 -5.79544771E-02
  9.67246241E-03 -3.02062441E-01  8.71942693E-07  1.19815371E-06  9.93767671E-03
 -1.15286592E-01 -1.71090960E-01 -1.69954222E-01 -4.29262444E-07  6.43292998E-02
 -5.66586704E-02  2.87669883E-02 -1.92877341E-07 -1.98562402E-01 -3.27905412E-02
  1.14899427E-02 -1.63322731E-01  5.88347704E-08  5.64341789E-07 -1.01596635E-03
  1.73832217E-02 -1.00383123E-01  2.84574203E-01  2.60312084E-07 -1.23379942E-02
 -6.74581634E-02  1.14332617E-01 -8.92182906E-08 -1.68675475E-01  2.09927565E-01
 -8.53841258E-03  3.00160951E-01 -4.90185045E-07  5.13857971E-07  7.83026968E-03
 -8.62098148E-02  1.06586022E-02 -1.14646628E-01  2.61090848E-02  4.23789674E-02
 -7.83194291E-03  8.62084862E-02 -1.06613993E-02  1.14646941E-01 -2.61064930E-02
 -4.23794010E-02  1.76782787E-03  6.86709621E-03  2.34576375E-01  2.63182360E-01
 -1.80520480E-08  2.30844162E-06  5.40211176E-02  5.77255417E-02 -3.41870012E-08
  2.77267161E-01 -2.55304851E-01 -8.11772531E-03  2.06723720E-01  3.60673016E-07
  5.03963051E-08  3.11535432E-03  5.24205753E-03  3.07874929E-01  3.67541484E-03
 -2.85962422E-07 -2.89450471E-03 -4.03321303E-02  1.01206845E-02  2.62089765E-08
 -2.32298311E-02  6.27167186E-02 -2.83344975E-02 -1.88210764E-01  8.62691794E-07
 -3.16107738E-07 -4.54693925E-03 -2.52239643E-02  1.62626515E-01 -3.21282327E-01
  5.11587395E-07  1.04229497E-02  1.72822720E-02 -2.45595841E-02  2.24644396E-07
 -1.85226651E-01  9.90967242E-02  3.46136616E-02  2.76000369E-01  4.47135570E-07
 -9.94309429E-08  1.76877069E-03  6.85433459E-03 -2.34551971E-01 -2.63203595E-01
 -7.78324479E-08  9.00814264E-06 -5.40252719E-02 -5.77293825E-02  1.92874393E-08
  2.77263771E-01 -2.55330130E-01 -8.11359841E-03  2.06713039E-01  1.35154302E-07
  2.54501225E-07  3.11500708E-03  5.23812197E-03 -3.07897044E-01 -3.67938288E-03
 -3.83121193E-07 -2.89250893E-03  4.03240023E-02 -1.01181776E-02 -2.28403557E-09
 -2.32394345E-02  6.27177722E-02 -2.83339949E-02 -1.88231294E-01 -2.25630895E-07
  4.42066975E-07 -4.54730686E-03 -2.52133064E-02 -1.62612391E-01  3.21303521E-01
  2.75777795E-07  1.04172600E-02 -1.72894495E-02  2.45677081E-02  1.09835050E-07
 -1.85233125E-01  9.91272099E-02  3.46106159E-02  2.76009397E-01 -3.83215075E-07
  2.26323314E-07  2.62955169E-02  1.87345508E-02  3.55309521E-02  4.95320406E-03
 -5.00570887E-02 -4.60153462E-03  2.62966160E-02  1.87479228E-02  3.55316745E-02
  4.95848023E-03 -5.00586788E-02 -4.61470050E-03 -4.21823321E-03  7.51439388E-02
  1.45416206E-02 -2.73711074E-01 -2.33736012E-07 -3.95068608E-02 -1.09731063E-01
 -1.11911653E-01 -3.17963055E-07 -1.66635423E-01  3.32390960E-01 -1.94309739E-02
 -4.41208677E-02 -8.55451114E-08  1.03690630E-07  5.66208209E-03 -9.37301493E-02
 -1.92525496E-01  1.99682810E-01 -1.65439548E-06  4.85666460E-02 -7.70498123E-02
 -1.90725594E-02 -2.62121425E-07 -1.19350870E-01 -8.07739683E-02  1.86241232E-02
  1.80978642E-01  2.16681619E-06 -2.00863574E-06  9.77666865E-03 -1.65976420E-01
  3.58357363E-01  8.57914284E-02  1.61534866E-06  8.55056034E-02 -4.74187013E-02
  2.09756053E-03  5.55681968E-07 -8.58886356E-02 -2.72902889E-01  3.59818222E-02
  1.01011135E-01  3.08859769E-06 -5.01489131E-07  4.21774295E-03 -7.51441634E-02
  1.45553236E-02 -2.73694107E-01 -6.33279680E-07  3.95070076E-02 -1.09727347E-01
 -1.11907711E-01  2.43355895E-07  1.66615101E-01 -3.32374687E-01  1.94343813E-02
  4.41158832E-02  3.86465981E-07  1.46200921E-06 -5.66204505E-03  9.37280634E-02
 -1.92504844E-01  1.99679601E-01  1.18303107E-07 -4.85657835E-02 -7.70512672E-02
 -1.90712179E-02  7.69428643E-08  1.19348710E-01  8.07711622E-02 -1.86233288E-02
 -1.80965406E-01  1.47070062E-06 -6.93830697E-07 -9.77638043E-03  1.65977191E-01
  3.58362400E-01  8.57724737E-02  1.58480670E-08 -8.55059765E-02 -4.74184055E-02
  2.09741882E-03 -2.17171294E-07  8.58995060E-02  2.72896129E-01 -3.59843774E-02
 -1.01024194E-01  1.17447797E-06 -1.13525462E-06 -1.36284749E-02 -9.55869177E-02
 -1.25100723E-02  1.02511035E-01 -1.70715901E-03  1.87600968E-01  1.36269488E-02
  9.55871070E-02  1.25086084E-02 -1.02509286E-01  1.71120203E-03 -1.87599606E-01
 -4.54228591E-08 -5.64238771E-08  7.26552007E-07  1.97093709E-07 -2.84628574E-01
  1.52576228E-07 -8.96655244E-08  9.10760737E-08 -4.98973536E-02 -8.45053177E-07
 -7.35141521E-07  1.48431270E-06 -1.31787842E-06  3.97105288E-01  1.06590782E-02
 -2.61268406E-07  5.67237000E-07 -8.11057675E-08 -2.65372627E-06  4.01423263E-01
  1.81729612E-07  6.97369136E-08  2.63319149E-07  7.03710834E-02 -6.11457162E-07
 -7.46118622E-07  2.47741007E-06 -4.19001234E-07  1.26106245E-01  4.32009963E-01
 -1.85826898E-08 -1.37023422E-07 -3.08934434E-07 -5.97258131E-08 -1.16795356E-01
  1.51680151E-07  7.68361013E-08  2.63688051E-08 -2.04703548E-02 -8.99107099E-07
 -7.53564213E-07  1.39856357E-06  1.24475958E-06 -2.47831622E-01  2.42373824E-01
  3.77308277E-08  7.13103518E-08 -1.04398816E-06 -3.53530088E-07 -2.84619970E-01
 -4.47765680E-08 -2.16835597E-07 -5.37089358E-07 -4.98909866E-02  1.66299298E-07
 -8.35643813E-07  8.35740193E-07 -2.54665291E-07 -3.97073296E-01 -1.06363696E-02
 -1.83770445E-07  1.13836770E-06 -7.96494006E-08  3.35743554E-06  4.01419667E-01
 -2.65840346E-07 -7.36906008E-08 -5.91238851E-07  7.03689491E-02  6.73211622E-07
 -6.86491201E-08  1.63760226E-06 -1.61199370E-07 -1.26053800E-01 -4.32010441E-01
 -1.80036073E-08  2.18461573E-07  1.28632489E-06  1.30406666E-07 -1.16804112E-01
 -3.53451722E-08  4.22153326E-09 -5.00656543E-07 -2.04784923E-02 -1.93001335E-07
 -5.42457807E-07  1.18689641E-06  3.79533037E-07  2.47849742E-01 -2.42382199E-01
 -3.35329248E-07 -2.70586972E-07 -1.22056346E-06 -8.09909745E-07 -1.71738112E-07
 -1.98812195E-07  2.03412793E-07 -4.48558393E-07 -5.87492850E-07 -1.69695865E-06
 -1.01248713E-07 -6.22812332E-07 -9.99019446E-08  9.09150869E-09  1.71097284E-07
  2.76858577E-08 -2.99193276E-01  1.32413103E-07  2.78369941E-07  1.61647232E-07
 -5.24455066E-02 -3.83846988E-07  3.63542628E-07  1.51061431E-08  6.96173409E-07
  1.29975718E-01 -3.81619106E-01  2.32590082E-08 -5.02821485E-08 -6.90016872E-07
  7.68733049E-07 -9.68902262E-02 -4.57022864E-08  7.92693718E-08 -9.11957405E-08
 -1.69809972E-02  3.41021788E-07  2.73781009E-07 -7.27067923E-07 -6.40018858E-07
  3.12688293E-01 -1.41512417E-01  2.00346780E-07 -2.97216017E-07  1.30228219E-06
  7.13009774E-07  3.96091572E-01 -1.84733064E-07 -9.59435439E-08 -3.32181667E-07
  6.94357900E-02  1.02602021E-06  4.34818334E-07 -2.04043688E-06  1.37697377E-07
  3.61700817E-01  2.63310226E-01 -7.11500063E-08  5.45316603E-07 -6.61461196E-07
  8.24274251E-07 -2.99199868E-01 -2.07955838E-07  2.62902650E-07  1.20405348E-07
 -5.24510325E-02 -2.88516429E-07  1.76206320E-06 -4.19380868E-07  8.06873264E-07
 -1.29960445E-01  3.81656417E-01  4.19090031E-08 -2.94576232E-07  1.12927966E-06
 -1.13637537E-06 -9.68999388E-02  5.97225421E-08  4.36139388E-07  1.47074178E-07
 -1.69891975E-02  2.42256548E-07 -5.11098763E-08 -7.79372940E-07  9.68066394E-08
 -3.12696777E-01  1.41527721E-01  1.74110213E-07 -1.01292974E-06 -2.89151300E-06
 -1.32973020E-06  3.96088256E-01  2.52361870E-07  4.71557648E-07  2.10330155E-07
  6.94330952E-02  3.98325295E-07 -1.04282298E-06 -1.34580255E-06  1.92385422E-07
 -3.61716225E-01 -2.63263310E-01 -5.07956753E-07  3.07632245E-07  1.45537967E-07
  2.29477341E-07  7.41702727E-07  5.66464030E-07 -1.86295946E-07 -4.99296030E-07
  7.94344514E-08  5.28352527E-07  6.42518279E-07  1.53519661E-06 -4.44851141E-03
  1.06564959E-01  2.75206874E-01 -1.86161332E-01  4.71141443E-07 -7.51778215E-02
 -6.23465591E-02  6.26396613E-02  4.73011899E-08  1.51577931E-01  5.46693055E-02
  3.39445926E-03 -1.19552914E-01 -1.11421221E-06 -8.10878009E-07 -2.86646513E-03
  1.25144159E-01 -1.86896942E-02 -3.65142901E-01 -1.09561863E-06 -8.08452850E-02
  2.12596980E-02  8.74985043E-02 -1.64636164E-07  6.66103876E-02  1.94087680E-01
 -1.35761675E-02 -1.02210814E-02 -3.35739764E-07 -1.25713964E-06 -3.80297272E-03
  1.13966131E-01 -3.48548438E-01 -1.60109530E-01  1.82498220E-06 -7.68332252E-02
  6.76843195E-02  5.50135086E-02 -1.28298056E-07  1.61827050E-01  6.07862137E-02
  1.91498488E-03  3.72051894E-02  7.36263673E-07  1.38818213E-07 -4.44853374E-03
  1.06563843E-01 -2.75205383E-01  1.86158366E-01  5.96325092E-07 -7.51773474E-02
  6.23453496E-02 -6.26394011E-02 -1.77203645E-07  1.51576579E-01  5.46679665E-02
  3.39485664E-03 -1.19550938E-01  6.11319379E-07  9.76961048E-07 -2.86645470E-03
  1.25145171E-01  1.86922790E-02  3.65145175E-01 -1.48719430E-06 -8.08457538E-02
 -2.12609980E-02 -8.74989691E-02 -1.62460169E-07  6.66113639E-02  1.94089068E-01
 -1.35765295E-02 -1.02186724E-02 -5.58902684E-07  1.28842706E-06 -3.80294029E-03
  1.13968285E-01  3.48553141E-01  1.60112004E-01  1.57762786E-06 -7.68341311E-02
 -6.76856419E-02 -5.50146682E-02  8.30799050E-08  1.61830195E-01  6.07878084E-02
  1.91463502E-03  3.72061279E-02 -1.27668116E-06  4.57005622E-07  3.85098132E-03
 -2.46902888E-01  2.41679886E-02 -2.51852983E-01  2.68880589E-03 -2.47821672E-01
  3.85104141E-03 -2.46900526E-01  2.41677945E-02 -2.51854656E-01  2.68869698E-03
 -2.47825444E-01 -5.35666143E-08  3.17837878E-07  7.02235634E-07 -6.02648552E-07
 -3.27693797E-01 -1.72934416E-08 -5.42164835E-07 -1.85561397E-07 -3.06895077E-02
 -5.95243547E-07  6.44858927E-07  5.88304754E-07 -1.26712071E-06  3.17374246E-01
 -2.31836301E-01 -1.06408752E-07 -1.99069826E-07  1.33254818E-07 -7.85942421E-07
  3.27748830E-01  4.01051721E-07 -2.80654315E-07 -1.83490720E-09  3.07357127E-02
 -1.30321913E-06 -1.01292414E-06  1.95694009E-06 -7.57824129E-08  4.25824943E-02
  3.90802354E-01 -7.76368927E-08 -4.69553761E-07  1.30978224E-06  2.15593168E-07
 -3.27639653E-01  4.07131173E-07 -7.69019479E-08 -2.98342047E-07 -3.06448173E-02
 -1.89772695E-06 -9.96332021E-07  1.95206532E-06  1.02501240E-06 -3.59579272E-01
 -1.58468696E-01  1.69079997E-08 -2.12170721E-07  1.08270607E-07 -1.21555972E-07
  3.27695089E-01  8.47121333E-08 -7.03001107E-07 -2.70008260E-07  3.06895629E-02
  5.67522550E-07 -7.37005390E-07 -2.59901124E-07  1.08753214E-06  3.17367255E-01
 -2.31847849E-01  7.41914662E-08  3.47054875E-07  3.14477077E-07 -1.21453736E-07
 -3.27750259E-01 -3.48478851E-07 -1.54274762E-07  4.56679500E-08 -3.07360889E-02
  1.17575329E-06  1.15021226E-06 -1.67284849E-06  1.38162782E-07  4.25686143E-02
  3.90805592E-01  7.02274405E-08  3.21723282E-07  5.68698849E-07 -1.90258882E-07
  3.27640405E-01 -2.78145155E-07  8.46446942E-08 -2.88249795E-07  3.06447870E-02
  1.66129830E-06  2.31523794E-07 -1.24425472E-06 -8.14144596E-07 -3.59586097E-01
 -1.58454719E-01 -4.63679475E-07 -6.67690106E-07 -8.14608356E-07  1.55755434E-07
 -2.03593144E-07  6.20528580E-07 -1.55123320E-07  6.22585177E-07  2.94185589E-07
 -2.12957705E-07  2.38866965E-07 -3.27534935E-07  2.58868582E-04 -1.29924087E-01
 -1.70179357E-01  2.50990135E-01 -4.93378620E-07  5.60051375E-02  1.07292513E-01
 -1.13472280E-01 -4.41805452E-07 -1.04833755E-01 -1.82959131E-01  2.41058621E-02
  3.10705163E-01 -8.10979587E-06 -1.28733994E-05 -2.92390152E-04 -1.26789374E-01
 -3.04243737E-02  3.85086935E-01 -2.32162184E-06  4.87949464E-02  7.07098960E-03
 -1.35055048E-01 -2.63205845E-06 -2.52053738E-02 -2.47502075E-01  9.83379647E-03
  7.35507822E-02 -6.03183917E-06 -3.53193952E-06  2.44252829E-04 -2.04551142E-02
 -6.61382089E-02  1.60774105E-01 -2.72203447E-06  1.12968207E-02 -8.86681512E-03
 -5.82620251E-02 -2.10162020E-06  5.85511400E-02 -1.07560731E-01  9.72908510E-03
 -2.45673097E-01  1.79276248E-07 -1.05118789E-05 -2.59094756E-04  1.29921957E-01
 -1.70174722E-01  2.50974478E-01  1.21992520E-06 -5.60044089E-02  1.07292664E-01
 -1.13469338E-01  3.81994690E-07  1.04836613E-01  1.82951103E-01 -2.41051688E-02
 -3.10710078E-01 -7.98344272E-06 -1.29152874E-05  2.92256660E-04  1.26787944E-01
 -3.04290681E-02  3.85082194E-01  1.93459797E-06 -4.87943922E-02  7.06729191E-03
 -1.35053048E-01  2.56973998E-06  2.52020635E-02  2.47501673E-01 -9.83309361E-03
 -7.35563436E-02 -5.86560546E-06 -3.52018851E-06 -2.43866084E-04  2.04585131E-02
 -6.61252660E-02  1.60786882E-01  2.73023011E-06 -1.12978641E-02 -8.86888795E-03
 -5.82632919E-02  2.04175103E-06 -5.85530623E-02  1.07571378E-01 -9.73062307E-03
  2.45670193E-01  1.36450161E-07 -1.03143580E-05 -9.29392951E-04  2.83670793E-01
 -5.43843110E-03  2.60411158E-01  3.22092905E-03  5.30040562E-02  9.31046893E-04
 -2.83666483E-01  5.43866480E-03 -2.60408050E-01 -3.22400694E-03 -5.30104047E-02
 -1.16914305E-07 -2.28490275E-06 -2.60398864E-06  3.79248001E-06 -7.53386712E-02
  1.25441020E-06  2.16158112E-06 -1.15088297E-06 -6.30364541E-02 -2.52466937E-06
 -4.06094707E-06  1.93988674E-06  4.49483997E-06  4.23444233E-01  3.83849235E-01
 -8.25291497E-08 -1.65594986E-06 -1.33192315E-06  4.92980082E-06  5.91336041E-02
  7.22920033E-07  1.64714151E-07 -1.96070676E-06  4.95001751E-02 -8.66127832E-08
 -3.78538172E-06  3.83935747E-07  2.68025017E-08  6.12788169E-01  2.43336037E-02
  1.31477173E-07 -4.31229603E-07 -2.62254461E-07  3.45650601E-06  1.34890604E-01
 -9.00814287E-08  5.74990209E-08 -1.47372185E-06  1.12577522E-01  1.46705421E-06
 -1.57744071E-06 -7.20971703E-07 -3.39971256E-06  2.07220642E-01  4.03005367E-02
  5.81448109E-08  2.92183022E-06 -4.76445978E-06  6.08143360E-06  7.53694399E-02
 -1.42977495E-06  2.16790892E-06 -1.89377135E-06  6.30412176E-02  2.40038504E-06
  5.16066086E-06 -1.66695630E-06 -3.84683370E-06  4.23478161E-01  3.83842397E-01
  2.50944083E-08  2.20871049E-06 -2.58808184E-07  6.71820513E-06 -5.91657041E-02
 -8.79469681E-07  8.50123194E-07 -2.49683259E-06 -4.95052127E-02  5.49922459E-07
  4.18006680E-06 -1.60497088E-07  4.36262714E-07  6.12804137E-01  2.43647894E-02
 -9.49314941E-08 -4.18201736E-07 -2.87105643E-06  1.65087471E-06 -1.34889109E-01
  2.98715474E-07  4.01341363E-07 -1.29949557E-06 -1.12577340E-01 -1.50070538E-06
 -3.95547124E-07  1.04208203E-06  4.26491269E-06  2.07207105E-01  4.03278451E-02
 -6.27268697E-07  4.80539623E-06 -4.87384171E-07  3.64713490E-06  8.41591115E-07
  1.01228553E-06 -7.01657076E-08 -5.83518811E-06  1.09529800E-07 -4.54933000E-06
  4.90979031E-09  1.14693333E-07  5.06718828E-09 -2.41865912E-06 -4.13285939E-06
  5.03637095E-06  1.12126038E-01  1.07674939E-06  1.35357535E-06 -2.30940978E-06
  9.35868663E-02 -2.59747294E-06 -3.23788257E-06  9.53652870E-07  3.05366514E-06
  8.46649859E-02  4.05474553E-01 -1.69575571E-07 -2.00748405E-06 -1.93025939E-07
  5.31734795E-06  1.21306196E-01  1.11951819E-06  2.67385384E-07 -2.18705273E-06
  1.01385447E-01 -7.86355640E-07 -4.75593530E-06  1.37265804E-06  1.23928616E-06
 -2.74529160E-01  2.16074348E-01 -3.99868134E-08 -7.94486762E-07 -1.24971264E-07
  3.00858193E-06  9.42643475E-03  5.34525822E-07 -3.54876951E-07 -9.69600588E-07
  7.82026835E-03 -4.46225393E-07 -2.27126264E-06  1.15758690E-06 -2.61382042E-06
 -2.58676447E-01  6.21941369E-01  3.34337544E-08  1.78441610E-06 -1.84665013E-06
  3.10428504E-06 -1.12106674E-01 -8.40213392E-07  9.37149876E-07 -2.24833588E-06
 -9.35840032E-02  2.19994535E-06  2.25985782E-06 -8.19603628E-07 -4.25521940E-06
  8.46672167E-02  4.05444560E-01  1.31617927E-07  2.39332665E-06 -4.35568727E-07
  6.64932255E-06 -1.21290761E-01 -1.16561164E-06 -6.23292222E-08 -2.22157630E-06
 -1.01383212E-01  1.82345849E-06  4.56103006E-06 -1.46096477E-06 -1.84041801E-06
 -2.74505658E-01  2.16056006E-01  5.65737422E-08  6.63519397E-07 -6.68191430E-09
  3.01091635E-06 -9.46065370E-03 -4.35673386E-07  8.09439666E-08 -1.35635403E-06
 -7.82569495E-03 -3.20958494E-08  2.44495073E-06 -1.10454001E-06  1.85996157E-06
 -2.58645002E-01  6.21956852E-01  1.92381978E-07  4.87399639E-06 -1.04634590E-06
  4.23781229E-06 -2.72099732E-07  1.54515181E-06  3.40955708E-07 -3.95375276E-06
  4.12154461E-07 -4.49123583E-06  5.02684992E-08 -1.18285217E-06 -5.59662298E-03
 -1.12389185E-01 -4.30792453E-01  3.91932170E-01 -8.32159025E-07  4.10477008E-02
  5.27492806E-02 -7.53182930E-02 -5.90984392E-07 -9.15165294E-02 -2.10010613E-01
  7.47631186E-02 -2.04804721E-01  1.59833062E-07 -2.56308964E-06  1.93289087E-03
  2.36959381E-02  8.42193197E-03 -1.05922520E-01 -1.73864554E-07 -5.83246487E-03
  1.22257279E-01 -6.50657268E-03 -2.16795588E-07  6.17180277E-02  3.47855905E-03
 -1.68544446E-02 -1.21208252E-01  1.45160628E-06 -6.05754911E-07  4.93106542E-03
  7.69258902E-02 -3.30145924E-01 -2.28686712E-01  1.84593255E-06 -2.42600618E-02
  6.54010978E-03  9.38558700E-02  3.45562513E-07  2.22080232E-02  1.85262214E-01
 -5.14111040E-02 -1.52082198E-01  8.40631069E-07  8.91007322E-07 -5.59678459E-03
 -1.12402067E-01  4.30831829E-01 -3.91934774E-01 -1.45223201E-07  4.10527296E-02
 -5.27620535E-02  7.53335843E-02  2.51375640E-07 -9.15699591E-02 -2.09984112E-01
  7.47632917E-02 -2.04783093E-01  2.63247530E-06  2.62706251E-06  1.93332762E-03
  2.36997001E-02 -8.38104747E-03  1.05928847E-01 -6.43444495E-07 -5.83378976E-03
 -1.22267858E-01  6.50231817E-03 -1.27233152E-07  6.17180697E-02  3.48713822E-03
 -1.68548442E-02 -1.21169367E-01  3.20092841E-06  2.40606436E-07  4.93172954E-03
  7.69415164E-02  3.30190997E-01  2.28701043E-01  1.50730650E-06 -2.42656837E-02
 -6.55859586E-03 -9.38702517E-02 -2.52273398E-07  2.22569579E-02  1.85246036E-01
 -5.14105124E-02 -1.52069600E-01  8.09138374E-07 -3.27503836E-06  8.56689471E-02
  2.01830942E-01 -3.06332895E-02 -2.99453321E-02 -8.44004763E-02 -1.24515431E-01
  8.56666471E-02  2.01863313E-01 -3.06335947E-02 -2.99558585E-02 -8.43980276E-02
 -1.24555074E-01  1.81164069E-03  6.16707390E-02  2.47900995E-01  4.17931586E-02
  1.00900516E-07 -2.27343103E-02 -5.66199302E-02  8.68327499E-02  6.24739382E-08
  3.51518582E-01 -2.24334998E-01  3.26380382E-03 -6.61951288E-02 -9.55103139E-08
  8.20060693E-08 -1.36275331E-03 -4.30336153E-02  2.78975298E-01  9.92061732E-02
 -1.17910441E-06  1.57788489E-02 -7.08347930E-02 -6.20950285E-02  1.55664588E-07
  1.24925665E-02 -1.01552257E-01 -2.39282755E-03 -2.56699847E-01  6.82969758E-07
 -7.93020107E-07 -3.17190454E-03 -1.04825375E-01  2.71986608E-01  1.36239838E-01
 -7.24435478E-07  3.85927254E-02 -1.33790415E-01 -1.09400767E-01  7.81365391E-07
 -3.19213142E-01  1.02633854E-01 -5.53355514E-03 -1.62407667E-01  1.30589576E-06
  9.16646234E-08 -1.81119638E-03 -6.16630029E-02  2.47877049E-01  4.18462345E-02
 -1.49062590E-06  2.27320443E-02 -5.66343502E-02  8.68048810E-02  4.71578761E-07
 -3.51511107E-01  2.24350168E-01 -3.27086276E-03  6.62176327E-02 -9.89305979E-08
  2.31476035E-07  1.36397098E-03  4.30574033E-02  2.78982571E-01  9.92867386E-02
 -2.97148853E-07 -1.57869470E-02 -7.08127870E-02 -6.21185752E-02  3.38823600E-07
 -1.24491186E-02  1.01576086E-01  2.37381314E-03  2.56714233E-01  1.36108115E-07
 -4.40613776E-07  3.17035417E-03  1.04791819E-01  2.71862376E-01  1.36185715E-01
 -5.98614839E-08 -3.85805045E-02 -1.33762709E-01 -1.09397483E-01 -1.20525725E-07
  3.19184634E-01 -1.02697390E-01  5.55797241E-03  1.62430400E-01  5.99541464E-07
  1.51885610E-07  1.39031308E-02 -1.61693341E-01 -6.63739607E-03  1.16714823E-01
 -2.05156441E-02  2.78744858E-01 -1.39137944E-02  1.61680211E-01  6.62545800E-03
 -1.16757575E-01  2.05374542E-02 -2.78685465E-01  1.77898177E-03  4.46915280E-02
  1.89716456E-01 -1.46190004E-02  9.73385061E-07 -1.65236768E-02 -1.11491704E-01
 -8.23894641E-02 -1.23211424E-06  4.72575204E-02  7.79642619E-02 -3.53238851E-02
  1.03312783E-02  2.16288622E-06  1.05638167E-06 -6.61623345E-03 -1.46654276E-01
  4.50661800E-02  5.14242659E-01  3.31892606E-06  5.15450412E-02  1.87239378E-02
 -1.24794942E-01 -7.90934494E-07 -2.58428339E-01 -1.52411003E-01  1.15242563E-01
  3.48627725E-03  1.43261645E-06  1.20975732E-06  4.41454937E-03  1.04544954E-01
 -3.69152789E-01 -1.00290540E-01  2.57209581E-06 -3.78534061E-02  1.25999123E-01
 -5.60635368E-02 -1.03423865E-06  1.10267178E-01  1.82504732E-01 -8.22644523E-02
 -1.61684173E-02 -9.88507278E-07  1.32641271E-06  1.77889097E-03  4.46777980E-02
 -1.89666841E-01  1.46238961E-02  1.68934230E-06 -1.65183626E-02  1.11478253E-01
  8.24089785E-02 -1.27674899E-06  4.71880627E-02  7.80066903E-02 -3.53254219E-02
  1.03513167E-02 -1.08577910E-07  1.18089557E-06 -6.61595680E-03 -1.46647679E-01
 -4.50107756E-02 -5.14229901E-01  3.10464052E-06  5.15426478E-02 -1.87374161E-02
  1.24785175E-01 -1.37888086E-06 -2.58430673E-01 -1.52395065E-01  1.15243052E-01
  3.53813990E-03  1.99381688E-07  2.28986284E-07  4.41501159E-03  1.04564811E-01
  3.69207320E-01  1.00313942E-01  2.38734130E-06 -3.78607493E-02 -1.26025399E-01
  5.60423436E-02 -1.43173765E-06  1.10330736E-01  1.82481446E-01 -8.22627413E-02
 -1.61410078E-02  5.98780525E-07  1.14007833E-07 -2.00086842E-02 -8.21803248E-02
  8.51232713E-02  2.58336081E-01 -5.46897457E-02 -1.89697495E-01 -2.00118163E-02
 -8.21446320E-02  8.51245269E-02  2.58317411E-01 -5.46855490E-02 -1.89751034E-01
 -1.90048102E-08 -2.45211196E-07 -1.03225473E-06 -3.01139483E-07  4.69480458E-01
  1.06275883E-07  8.50017164E-07  4.42587612E-07 -2.61821053E-01 -2.02495614E-07
 -6.85307795E-07  4.03477236E-07  7.87222251E-07  1.75004180E-02 -1.28078177E-02
  7.74324688E-08  3.87349806E-07 -1.89553547E-07 -2.62499083E-06  4.69482398E-01
 -8.35732216E-08 -2.45825317E-07  8.51015169E-07 -2.61821286E-01  8.64391264E-07
  5.50388468E-07 -6.03198181E-07  1.84916276E-07 -2.33805866E-03 -2.15580087E-02
 -5.12034100E-08 -5.18689100E-07  3.32545749E-06  6.72231832E-07  4.69481851E-01
  2.61733242E-07 -1.01392763E-06  1.70549098E-07 -2.61821263E-01 -6.93884455E-07
 -7.52961873E-07  3.98310201E-07  4.54480832E-07 -1.98409893E-02 -8.75236904E-03
 -2.23169075E-09 -5.04140204E-07  1.33482703E-06  3.20083854E-07  4.69480379E-01
  2.34507223E-07 -9.95557873E-07 -2.87175701E-07 -2.61821055E-01 -1.00036316E-06
 -2.83362275E-07  2.84933242E-07  1.00813356E-06 -1.75013949E-02  1.28067615E-02
  5.50055371E-08  5.71363111E-07  7.36294042E-07  2.53324583E-06  4.69482687E-01
 -1.83541442E-07  4.37007360E-08 -8.69372411E-07 -2.61821303E-01  1.02351698E-06
  6.48923397E-07 -5.12663132E-07  7.95590604E-07  2.33926458E-03  2.15576559E-02
 -2.95294352E-08 -1.26136021E-07 -2.04289994E-06 -2.18737816E-07  4.69481732E-01
  6.39211936E-08  4.88001565E-07 -5.40611657E-07 -2.61821261E-01  4.70467354E-07
 -9.71303313E-07  2.54526933E-07  9.01311501E-07  1.98407991E-02  8.75323429E-03
 -1.71964798E-09  7.08606122E-07 -3.13230166E-07 -1.03167206E-06  5.99542168E-07
  9.97342556E-07  1.33239891E-07  8.70879078E-07 -4.69982447E-07 -9.42580715E-07
  5.14158824E-07  8.23174556E-10 -8.13437427E-04 -1.39469258E-01  2.42492887E-02
 -2.95933775E-02 -4.78893213E-07  4.77769542E-02  1.11589013E-01 -1.05762167E-01
  5.19656119E-07 -2.73561936E-01 -1.09193337E-01  1.08813453E-01  4.71837327E-01
 -1.03728862E-09  5.48122553E-07 -7.09645224E-04  2.74661062E-02 -2.33709768E-01
  5.71454582E-03 -4.24534020E-07 -1.07099626E-02  4.91299292E-02  4.97050538E-02
  4.81566407E-07 -4.64107558E-03  8.81472356E-02 -2.98597318E-02  2.76108052E-01
 -2.92440720E-07  4.03090031E-07 -6.21469220E-04  1.03503414E-01  1.82577007E-02
 -5.47122069E-02 -7.37895411E-07 -3.70709300E-02  1.20493820E-01  9.05322126E-02
  1.74936755E-07  2.71322388E-01  2.39865407E-02 -9.25481581E-02  3.72683371E-01
 -5.98851346E-07 -1.10175225E-07 -8.13498217E-04 -1.39469491E-01 -2.42427032E-02
  2.95987538E-02 -1.13610674E-06  4.77770142E-02 -1.11588512E-01  1.05763154E-01
  6.55862894E-07 -2.73567148E-01 -1.09188581E-01  1.08813295E-01  4.71834242E-01
  3.79940023E-08 -2.92702167E-07 -7.09643305E-04  2.74654201E-02  2.33713738E-01
 -5.71682617E-03 -9.98204350E-07 -1.07096489E-02 -4.91305289E-02 -4.97064075E-02
  6.28996075E-07 -4.64284566E-03  8.81473407E-02 -2.98591422E-02  2.76111143E-01
 -9.66061100E-08 -3.61086496E-08 -6.21424969E-04  1.03503458E-01 -1.82602910E-02
  5.47161658E-02 -7.16216835E-07 -3.70709438E-02 -1.20495738E-01 -9.05335402E-02
  2.44466136E-07  2.71324634E-01  2.39839027E-02 -9.25474791E-02  3.72689323E-01
  1.60038018E-07  5.81766967E-07 -1.05303914E-02  2.61948024E-01  2.23367878E-02
 -7.08887103E-02  4.17128741E-02 -2.17649680E-01 -1.05299177E-02  2.61948350E-01
  2.23397401E-02 -7.08898552E-02  4.17150509E-02 -2.17652296E-01  3.27086738E-03
  6.42364926E-02  3.50034443E-01 -2.58357366E-01  2.40824406E-07 -2.77814093E-02
 -7.84959242E-02  5.73161863E-02 -2.03986925E-07  1.24538319E-01  1.28007071E-01
 -1.21340603E-01  8.06488924E-04  5.47228665E-07  8.35240726E-07 -3.13984344E-03
 -6.36528903E-02  4.79234108E-02  4.29490942E-01  1.46784362E-06  2.75874581E-02
 -1.01555621E-02 -9.42170649E-02 -5.91104812E-07 -1.31486313E-01 -1.20406272E-01
  1.22188897E-01  1.63220356E-04  2.29355730E-07  2.89697713E-07  3.21573474E-03
  6.39887180E-02 -3.95678112E-01 -1.77934941E-01  1.64387719E-06 -2.76990537E-02
  8.80554885E-02  3.86590514E-02 -7.16513174E-07  1.22284932E-01  1.29982492E-01
 -1.21698545E-01 -6.04562356E-04 -8.74042264E-07  4.08309536E-07 -3.27087155E-03
 -6.42363889E-02  3.50033758E-01 -2.58357685E-01 -3.51486643E-08  2.77813611E-02
 -7.84960754E-02  5.73160189E-02 -8.54009171E-08 -1.24538806E-01 -1.28006368E-01
  1.21340572E-01 -8.06710893E-04  9.02689277E-07  5.47342695E-07  3.13986752E-03
  6.36526476E-02  4.79225673E-02  4.29490157E-01 -1.23833127E-06 -2.75873476E-02
 -1.01559403E-02 -9.42166546E-02  2.95463802E-07  1.31486055E-01  1.20405801E-01
 -1.22188593E-01 -1.62695503E-04  4.19270443E-07 -1.69127021E-07 -3.21573505E-03
 -6.39885239E-02 -3.95678419E-01 -1.77934036E-01 -1.01384865E-06  2.76989880E-02
  8.80552962E-02  3.86594195E-02  2.47867261E-07 -1.22284446E-01 -1.29982477E-01
  1.21698410E-01  6.04661533E-04 -5.08322681E-07  4.53152087E-07 -1.30417350E-01
 -1.99020094E-01  1.31520793E-01  1.95678786E-01 -1.30888353E-01 -1.97611536E-01
  1.30417062E-01  1.99019932E-01 -1.31520706E-01 -1.95678242E-01  1.30888222E-01
  1.97611327E-01  1.30514199E-07  6.35840176E-08  1.57513945E-06 -1.30659697E-06
 -1.30535872E-05 -1.56440727E-07 -2.00121185E-07  2.00317765E-07 -1.89650578E-06
  8.34865055E-07  4.85886260E-07 -1.08186715E-06  1.24878781E-06 -3.26819476E-01
 -4.46650871E-01 -2.52899914E-08 -1.54793425E-08  9.20357763E-07  4.58586637E-07
  1.12994349E-05  1.31917880E-08 -2.63819789E-07 -8.14812950E-08  1.46920266E-06
  1.87713137E-08 -1.96898578E-07  1.18083805E-07  1.22604915E-06 -5.50215809E-01
  5.97307244E-02 -8.77410430E-08 -3.77707384E-08  1.19652656E-06  1.13739500E-06
 -3.80874250E-06  9.72107281E-08 -1.63980888E-07 -2.26132845E-07 -9.04010365E-09
 -5.30068914E-07 -3.04923473E-07  6.80535637E-07  1.07163563E-06 -2.23397882E-01
  5.06369557E-01  1.10411503E-07  5.64277990E-08 -1.51543941E-06  1.33230141E-06
 -1.68008671E-06 -1.14358258E-07  1.59849460E-07 -2.34833665E-07 -5.72469841E-07
  3.64566991E-07  6.93313991E-07 -8.49928581E-07  9.44422733E-07  3.26829207E-01
  4.46645082E-01 -4.12646933E-08 -5.90712750E-08 -6.74629527E-07 -5.17771863E-07
  5.53010535E-08  7.79431163E-08  3.39395404E-07  8.97705947E-08  3.80926706E-07
 -3.34316616E-07 -2.79070985E-07  4.68663112E-07  1.08247025E-06  5.50218618E-01
 -5.97200338E-02 -8.42183860E-08  4.74263070E-09 -1.05685884E-06 -1.10871814E-06
  7.18790787E-06  8.02124295E-08 -1.07492411E-08  3.27019773E-07  6.27761231E-07
 -3.05594451E-07 -4.36732676E-07  6.79821824E-07  1.25456509E-06  2.23388704E-01
 -5.06374219E-01 -1.96474908E-08 -6.11252640E-07  3.57516895E-08  1.79619671E-07
  4.86851631E-08  4.74555286E-07 -1.55727554E-07 -5.73605818E-07 -2.43035616E-08
  2.57524047E-07  5.77221963E-08  2.95803528E-07  4.94239297E-08  6.71356902E-07
 -9.45929475E-07  1.45747936E-06 -5.11177046E-01 -2.32829749E-07 -3.57569928E-08
  8.44092317E-09  4.51396634E-01  1.84952032E-06 -8.24033901E-07  1.89195988E-07
 -1.09959896E-06 -4.13984835E-02  1.69848751E-02  3.89998579E-08 -5.03280830E-07
  5.59491494E-07 -1.33358864E-06  9.47587984E-02  1.95485354E-07 -1.09909143E-06
 -1.01705882E-06 -8.36776733E-02  1.59354271E-06 -2.80224740E-06  3.57777868E-07
 -7.12839632E-07 -1.78929197E-02 -6.15874919E-03 -6.90483650E-08  4.52499131E-07
  1.95786533E-06  1.72596075E-06  6.05934519E-01  1.52610019E-08 -4.73409900E-07
 -1.60345529E-07 -5.35071726E-01  2.46178957E-06 -1.20596447E-06 -5.68267056E-07
  8.57440856E-07 -4.96862204E-02 -1.49435883E-02  2.79573852E-08 -3.82782183E-07
 -2.17217358E-07  3.59968607E-07  5.11176391E-01  1.97787864E-07 -6.97413573E-07
  1.50633636E-07 -4.51395685E-01  1.80058367E-07 -1.04095956E-06  2.61354351E-07
  5.75460327E-07 -4.13981037E-02  1.69842293E-02  4.77184305E-08  2.58397111E-07
  7.53778575E-07 -8.32791302E-07 -9.47577273E-02 -1.51537449E-07 -8.17405773E-07
  4.79964157E-07  8.36761600E-02  3.27137544E-07 -1.62503646E-07  3.13494139E-07
  5.51839066E-07 -1.78926968E-02 -6.15768974E-03  1.19540893E-07  3.80945835E-07
  8.63673577E-07  5.06789231E-07 -6.05934941E-01 -3.03239205E-07 -4.08545164E-07
 -4.10549131E-07  5.35072296E-01  7.09137822E-07 -5.30919134E-07  6.91726224E-07
  3.99311955E-08 -4.96863352E-02 -1.49442876E-02  5.76598442E-07 -6.28897902E-07
 -1.27126156E-06  1.37231887E-06  5.12997987E-07 -1.12625880E-06 -4.34370832E-07
  7.25975458E-08  2.97757800E-07  4.30025989E-08 -3.44276534E-07 -1.63766469E-07
 -1.92783895E-08  6.79944796E-07 -1.45456800E-06  4.65892815E-07  4.04544713E-01
 -2.33721651E-07 -9.68481645E-09  2.08164401E-07 -3.57234814E-01 -1.66473595E-07
  1.53326384E-06 -2.52437903E-07 -1.09847563E-06  1.97272873E-02 -3.12537941E-02
  6.84901969E-08 -1.70278092E-07 -1.20994759E-07 -7.74877454E-07  6.44964593E-01
  1.49894036E-07  2.71324984E-08  3.22999388E-07 -5.69539198E-01 -6.27704595E-07
  1.06774492E-07  3.66331020E-07 -1.98771513E-07 -3.41224568E-03 -5.47591708E-02
 -2.34042153E-08  1.63745234E-07  1.43631239E-06  8.00232603E-08  2.40419465E-01
  3.62863735E-09 -5.17468565E-07  1.53351162E-07 -2.12303864E-01 -5.11369830E-07
  8.61457206E-07 -1.50685680E-07  5.45300790E-07 -1.21992040E-02 -2.29653228E-02
  2.90749450E-08 -6.00908170E-07 -1.49088608E-06  1.66077926E-06 -4.04545518E-01
  1.40772696E-07  8.41533609E-08  2.71148449E-07  3.57235984E-01 -2.32106041E-06
  1.04966876E-06  2.94460985E-07  1.18748595E-06  1.97282337E-02 -3.12539784E-02
 -6.69481330E-08  6.91201400E-07 -7.37372176E-07 -2.81037789E-06 -6.44964637E-01
 -1.58401865E-07 -5.26132561E-08 -5.51637496E-07  5.69539296E-01 -2.30546849E-06
  3.97388427E-06 -5.28595495E-07  2.77807166E-07 -3.41281065E-03 -5.47592760E-02
  2.49582785E-08 -8.79841485E-07  2.10385662E-06  1.26328270E-06 -2.40418427E-01
  2.39559993E-07  1.79547655E-07  8.56706625E-07  2.12302453E-01 -3.23746235E-06
  1.38624659E-06  3.50154095E-07 -1.50918458E-06 -1.21982498E-02 -2.29650698E-02
  3.87930230E-07 -2.48878615E-07 -1.60356857E-07 -6.98935936E-08  5.23243334E-07
  6.42743807E-08 -8.57689828E-07  7.51859303E-07  1.67712031E-06 -1.99530620E-06
 -1.05614727E-06  1.37599706E-06 -2.30951707E-03 -5.01111823E-02  7.45839680E-03
 -1.19632065E-01 -3.29370185E-06  1.99628930E-02  4.18267549E-03 -2.72077778E-02
  2.63709180E-06 -3.61534346E-01  2.73257470E-01 -4.16934019E-03  6.10412533E-02
 -2.63317887E-08  4.32926520E-07 -3.03161744E-03  9.56519547E-02  6.23374759E-02
  1.65442340E-01 -1.79836391E-06 -2.46462448E-02  2.35818960E-02  1.80678019E-01
  2.17588602E-06 -3.12091790E-01  5.31168850E-01 -4.74902580E-02  3.25749431E-02
  2.28937198E-07  1.22005859E-06 -2.17828750E-03 -9.50800380E-02 -9.75985742E-02
 -1.57951808E-01  9.13716888E-07  3.35345686E-02 -6.54636541E-02 -4.83490558E-02
 -7.71805900E-07 -4.61671660E-01  2.79116802E-01  8.66113247E-03 -9.57475582E-02
  3.41834575E-09  7.05597860E-07 -2.30997608E-03 -5.01110695E-02 -7.45863238E-03
  1.19634901E-01  3.21905833E-06  1.99642622E-02 -4.18522389E-03  2.72090110E-02
 -3.26056122E-06 -3.61532022E-01  2.73260250E-01 -4.17467060E-03  6.10406586E-02
 -1.96514508E-07  2.85538628E-07 -3.03170423E-03  9.56516260E-02 -6.23302319E-02
 -1.65441930E-01  2.66809463E-06 -2.46456821E-02 -2.35836979E-02 -1.80676682E-01
 -2.07590596E-06 -3.12090936E-01  5.31168400E-01 -4.74912849E-02  3.25757817E-02
 -1.67572361E-07 -3.08114801E-07 -2.17811589E-03 -9.50796379E-02  9.75985916E-02
  1.57945495E-01 -9.48670585E-07  3.35336163E-02  6.54610909E-02  4.83497914E-02
  8.41566176E-07 -4.61671282E-01  2.79114780E-01  8.66356600E-03 -9.57474762E-02
 -3.07952115E-07 -2.90207915E-07 -7.05630838E-03  7.84755215E-02  1.42050963E-01
 -2.47002321E-01 -5.43705974E-02  1.74687668E-01 -7.06576534E-03  7.84785633E-02
  1.42047744E-01 -2.47000995E-01 -5.43642807E-02  1.74685439E-01 -1.92125104E-02
  1.36964417E-01 -1.62783244E-01  2.20491814E-01 -1.37792346E-07 -2.72160389E-02
 -6.10097264E-02  3.63789219E-02  7.18575455E-08  2.93609052E-01  9.28488661E-02
 -1.90048793E-01 -2.77279813E-01 -7.90720069E-09 -3.40419999E-07  3.52439569E-03
 -1.23366832E-01 -8.63130370E-02 -2.07628660E-01 -3.33049855E-06  4.86193548E-02
 -1.46630453E-02 -1.66481376E-01  2.61616009E-06  2.09595078E-01 -4.92064137E-01
  7.89310226E-02 -7.12118323E-02 -2.33882416E-07 -6.25985656E-07 -1.27523815E-02
  1.29882401E-01  1.60976989E-01  2.29927840E-01 -2.69112838E-06 -3.55382248E-02
  1.04527104E-01  3.48773512E-02  2.34069814E-06  4.01456772E-01 -6.03830364E-02
 -1.44205940E-01  2.26957723E-01 -4.24564529E-08 -4.01903774E-07  1.92124194E-02
 -1.36965431E-01 -1.62781745E-01  2.20497251E-01  1.63844739E-07  2.72167602E-02
 -6.10093493E-02  3.63786881E-02 -1.56387697E-07 -2.93609633E-01 -9.28492811E-02
  1.90047951E-01  2.77280530E-01 -1.88147803E-08 -1.79297692E-07 -3.52443022E-03
  1.23366537E-01 -8.63095046E-02 -2.07628841E-01  3.34580633E-06 -4.86188695E-02
 -1.46637737E-02 -1.66482756E-01 -2.73510442E-06 -2.09597339E-01  4.92066479E-01
 -7.89315813E-02  7.12112623E-02 -2.36568445E-08 -1.24878870E-07  1.27520969E-02
 -1.29882920E-01  1.60978351E-01  2.29924881E-01  3.01751284E-06  3.55388523E-02
  1.04526853E-01  3.48773752E-02 -2.66073566E-06 -4.01460143E-01  6.03862964E-02
  1.44204729E-01 -2.26958157E-01 -3.65324801E-08 -3.66258962E-07  9.35960703E-04
 -1.39810197E-01 -1.85759055E-01  2.51334278E-01  7.40408379E-02 -1.85453082E-01
 -9.36946754E-04  1.39811156E-01  1.85759480E-01 -2.51334974E-01 -7.40406995E-02
  1.85454282E-01  4.34641758E-02  2.06357187E-01 -1.65641334E-01  1.14733201E-01
  2.82752654E-07 -1.89129582E-01  2.78479005E-01 -1.67304939E-01 -2.94681542E-07
  1.04808271E-01  4.38095007E-02  2.54486942E-01 -2.04420965E-01 -2.85405650E-07
  1.05151865E-07  4.79426396E-02  2.74901056E-01  3.27693445E-02  3.07267204E-01
 -8.11867123E-07 -2.07027393E-01 -9.28819325E-03 -2.86119854E-01  1.13233798E-06
 -3.64810461E-02  2.94215292E-01  2.68429428E-01  5.25054032E-02  7.01294257E-08
 -2.21285674E-07  4.52480923E-02  2.31768712E-01  2.22845874E-01  9.09221191E-02
  1.21588990E-07 -1.95549072E-01 -3.06264829E-01 -7.93314618E-02 -6.79124719E-09
  1.80237959E-01  8.23905817E-03  2.60277348E-01  1.65651075E-01  5.43772016E-08
 -1.66488664E-07  4.34642058E-02  2.06356883E-01  1.65634760E-01 -1.14740353E-01
 -1.43274651E-07 -1.89129496E-01 -2.78473776E-01  1.67311786E-01  2.70332227E-07
  1.04810709E-01  4.38064097E-02  2.54487203E-01 -2.04419439E-01 -1.41459778E-07
  2.02422976E-07  4.79425755E-02  2.74901419E-01 -3.27607951E-02 -3.07268688E-01
 -3.20875910E-07 -2.07027394E-01  9.27991782E-03  2.86120803E-01  5.28506112E-07
 -3.64810801E-02  2.94216433E-01  2.68428781E-01  5.25065955E-02 -4.71226361E-08
 -7.98686540E-08  4.52480880E-02  2.31768310E-01 -2.22848550E-01 -9.09140867E-02
  9.96420147E-07 -1.95548852E-01  3.06268873E-01  7.93243430E-02 -1.05537487E-06
  1.80235311E-01  8.24101609E-03  2.60277322E-01  1.65651968E-01  1.73542967E-07
  2.45933123E-07 -1.74629582E-01 -1.05881505E-01 -5.29268756E-02 -1.52578356E-01
 -1.28711448E-01 -1.17781335E-01 -1.74629738E-01 -1.05881304E-01 -5.29273139E-02
 -1.52578697E-01 -1.28712664E-01 -1.17780486E-01  4.72325926E-02  5.40818783E-02
 -3.51672158E-02  2.15429486E-01  4.47477185E-07 -1.34448072E-01 -2.29680792E-01
 -4.67516952E-02 -6.52237485E-07 -1.12137564E-01 -1.67078286E-02  2.96698046E-01
  1.92528454E-01  4.03922257E-07 -1.50659598E-07  4.95534848E-03 -8.88376481E-03
  1.16818014E-01 -1.98134147E-02 -4.06616713E-07 -7.78449367E-03 -1.40420107E-01
  1.85408257E-02  6.41014288E-07  1.22965606E-02 -5.38067271E-02  3.63130763E-02
  2.90354260E-02  4.16229824E-07  1.53251427E-07 -4.70063466E-02 -1.73704363E-02
 -2.73795588E-02 -1.72610127E-01  7.26783708E-08  1.19351291E-01 -1.99304765E-01
  1.32164622E-01  6.09793504E-07  2.06367168E-01 -1.08545808E-02 -3.05562622E-01
  1.58213998E-01 -1.23656645E-06 -4.93485842E-07 -4.72298572E-02 -5.40781748E-02
 -3.51714707E-02  2.15412366E-01  7.70183184E-08  1.34439592E-01 -2.29669460E-01
 -4.67436276E-02  3.92850499E-07  1.12140257E-01  1.66993120E-02 -2.96681460E-01
 -1.92521769E-01 -4.75779713E-07  4.19805105E-07 -4.95665765E-03  8.88417908E-03
  1.16817060E-01 -1.98150162E-02  2.42266484E-07  7.78165562E-03 -1.40418818E-01
  1.85468705E-02 -3.17280898E-07 -1.22886849E-02  5.38050775E-02 -3.63212589E-02
 -2.90360173E-02  2.33146581E-07 -1.17440080E-07  4.70090041E-02  1.73736277E-02
 -2.73805609E-02 -1.72625474E-01  1.48007868E-07 -1.19359514E-01 -1.99314083E-01
  1.32175445E-01 -6.72786871E-07 -2.06367357E-01  1.08484546E-02  3.05578799E-01
 -1.58220467E-01 -9.68464273E-07 -4.62754379E-07  6.72964110E-01 -1.99245130E-01
  4.19754609E-02  1.17857991E-03 -5.99584632E-01  1.55757271E-01 -6.72936436E-01
  1.99234391E-01 -4.19805643E-02 -1.17809276E-03  5.99611666E-01 -1.55768228E-01
 -2.12508809E-02 -4.69325113E-02  2.45625259E-01  1.53937189E-01  3.84814420E-07
  7.09806714E-02 -7.85102093E-02 -2.52626172E-01 -4.45426751E-07 -5.11242302E-03
  1.96243971E-02 -1.25068856E-01 -9.64971559E-02 -2.20722974E-07 -1.26811793E-07
 -5.91037627E-02  6.25347762E-03 -1.83431064E-02 -7.34118748E-02  4.04224114E-07
  1.42503262E-01  3.00599164E-02 -1.39123766E-01 -4.71210095E-07 -5.93859899E-02
  3.52190343E-01 -3.87494369E-01  7.87689843E-02  1.52202383E-07  4.35099592E-07
 -2.78527944E-02 -4.21760649E-02 -1.58168502E-01  9.07708346E-02  7.07003845E-07
  8.61121633E-02 -4.17124763E-02 -1.55136986E-01 -3.74359110E-07  4.75115560E-02
  5.53253817E-03 -1.67921839E-01  1.16694284E-01 -6.84633826E-07 -7.36073748E-07
  2.12837064E-02  4.69767859E-02  2.45715655E-01  1.53857432E-01 -7.12349481E-07
 -7.11081002E-02 -7.84274523E-02 -2.52642700E-01  8.62420475E-07  5.04458655E-03
 -1.96297407E-02  1.25271111E-01  9.66432686E-02  4.97120572E-07 -4.67828505E-07
  5.91185338E-02 -6.25609181E-03 -1.83875243E-02 -7.34622250E-02  2.04326770E-07
 -1.42601207E-01  3.01079335E-02 -1.39161313E-01  1.23227729E-07  5.94136249E-02
 -3.52291373E-01  3.87589311E-01 -7.88043048E-02  2.51637066E-07  1.46798781E-06
  2.78731856E-02  4.21992972E-02 -1.58230569E-01  9.06883457E-02 -5.84603817E-07
 -8.62210900E-02 -4.17904993E-02 -1.55076255E-01  3.71651316E-07 -4.75911952E-02
 -5.50721373E-03  1.68048855E-01 -1.16804742E-01 -6.01331937E-07 -4.85171352E-07
 -3.43032978E-01  1.18021132E-01 -6.91577566E-01  1.66530451E-01 -4.13369968E-01
  1.39235640E-01  3.43508032E-01 -1.18186309E-01  6.91859000E-01 -1.66647799E-01
  4.13727386E-01 -1.39368519E-01  4.32019103E-02  6.32289182E-02 -1.21413365E-01
  1.28575759E-01  4.66057397E-08 -1.78272415E-01 -1.23300679E-01  8.99020349E-03
 -1.37990038E-07 -8.45705369E-02 -4.17529989E-03  2.66325424E-01  2.15388540E-01
  2.61979500E-07 -2.64068652E-07  2.08751140E-02 -6.55147652E-03  3.44373160E-02
  7.33175572E-02  2.46527343E-07 -1.39890740E-01 -4.45710771E-02  5.26018420E-02
 -2.93002578E-07  4.09255012E-02 -1.49587825E-01  1.34608797E-01 -4.41524032E-02
 -1.49450554E-08 -1.28710944E-07  3.33659812E-02  3.23426134E-02  9.54737349E-02
  1.06515661E-01 -6.71109054E-07 -1.61189680E-01  1.18192318E-01 -7.41728119E-02
  1.30382076E-07 -1.27756447E-01  3.00308250E-02  2.08203422E-01 -1.59470226E-01
  9.48059370E-07  4.93274869E-07  4.31890296E-02  6.31981734E-02  1.21247981E-01
 -1.28685954E-01 -2.69246783E-07 -1.78228278E-01  1.23361086E-01 -8.81602172E-03
 -5.67205866E-08 -8.45829545E-02 -4.15845306E-03  2.66250422E-01  2.15328097E-01
  6.52071803E-07 -3.60279626E-07  2.08342467E-02 -6.54754626E-03 -3.44324773E-02
 -7.32650900E-02  4.22756493E-07 -1.39791899E-01  4.45604056E-02 -5.25070334E-02
 -3.85462271E-07  4.08832707E-02 -1.49343690E-01  1.34340850E-01 -4.40984998E-02
  9.34480016E-08  8.67178877E-07  3.33447952E-02  3.23120165E-02 -9.53605571E-02
 -1.06574577E-01 -5.94158254E-07 -1.61124860E-01 -1.18157830E-01  7.42793255E-02
  4.06259919E-07 -1.27712956E-01  3.00308858E-02  2.08074869E-01 -1.59384124E-01
 -9.64483848E-07 -4.81646553E-07  6.62590563E-01 -2.31085050E-01  4.05233930E-01
 -1.67948739E-01  5.48487914E-01 -2.00680976E-01  6.62378426E-01 -2.31010511E-01
  4.04754884E-01 -1.67833280E-01  5.48176596E-01 -2.00577789E-01 -5.05608767E-02
 -1.70384829E-02  2.00130305E-01  2.50367944E-01  5.81775007E-07  6.15416330E-02
 -1.08444240E-01 -2.92487025E-01 -7.95189693E-07  1.44030124E-01  5.54283273E-02
 -3.23168520E-01 -8.36767304E-02  3.06515444E-08 -3.02026235E-08 -1.50637317E-02
 -6.89499292E-03 -3.50758977E-01  3.79862743E-02  3.01944904E-07  1.51628939E-02
  4.18493242E-01 -6.20067152E-02 -5.01701337E-07  1.46340696E-02  4.15947641E-02
 -9.56139569E-02  1.01438657E-01  1.63183019E-08 -7.93277518E-08  6.86031205E-02
  1.72196802E-02  8.88221788E-02 -1.40759498E-01 -9.07281715E-07 -9.20291760E-02
  6.69412668E-02  1.60978773E-01  7.97922463E-07 -2.44831441E-01 -3.52812780E-02
  4.38787814E-01 -1.21910383E-01  1.52728694E-06  6.74551610E-07 -5.05598431E-02
 -1.70348884E-02 -2.00118455E-01 -2.50366723E-01  9.24934038E-07  6.15375528E-02
  1.08440407E-01  2.92476163E-01 -1.08076249E-06  1.44028291E-01  5.54303774E-02
 -3.23161443E-01 -8.36676069E-02 -5.83772930E-07  3.76358265E-07 -1.50613520E-02
 -6.89432790E-03  3.50756520E-01 -3.79924502E-02  1.76168548E-07  1.51566332E-02
 -4.18488213E-01  6.20020963E-02 -2.29054987E-07  1.46384263E-02  4.15787138E-02
 -9.55970811E-02  1.01433904E-01 -1.34697545E-07 -2.22458650E-07  6.86036352E-02
  1.72218157E-02 -8.88267271E-02  1.40758583E-01 -9.85384206E-07 -9.20316871E-02
 -6.69411630E-02 -1.60984351E-01  9.07673523E-07 -2.44832909E-01 -3.52791008E-02
  4.38791222E-01 -1.21914920E-01 -1.11844587E-06 -4.38233054E-07 -3.88808360E-01
  9.84050964E-02 -9.85986205E-02  1.62942203E-02  5.75272433E-01 -1.39525355E-01
 -3.88786213E-01  9.83977614E-02 -9.85670939E-02  1.62855423E-02  5.75284149E-01
 -1.39529449E-01 -4.39862814E-02 -7.75547471E-03 -2.02389826E-01 -2.38608601E-01
 -6.39209817E-07  3.90321372E-02  2.18640234E-01  2.26442846E-01  5.85046174E-07
  8.58768803E-02  9.96849503E-02 -2.82143689E-01 -4.79899051E-02  1.85713248E-07
  1.19401082E-07  7.28086410E-02 -1.50111622E-02 -1.01375866E-01  1.03946077E-02
  2.37323953E-07 -1.04313230E-01  1.01342493E-01  1.33559206E-01 -5.55497377E-07
  8.98633948E-03 -3.61412828E-01  4.70176273E-01 -3.49893079E-02 -1.43556826E-07
 -6.12225012E-07 -1.73131134E-02 -9.56719212E-03  1.73402805E-01 -3.45516840E-01
 -5.21761823E-07  5.70119601E-03 -1.56021919E-01  3.66948469E-01  5.64620021E-07
  3.11122616E-03  5.90582507E-02 -1.09752066E-01  3.54763181E-02 -2.55226012E-07
  5.64993197E-08 -4.39870306E-02 -7.75782599E-03  2.02395152E-01  2.38626963E-01
 -4.17379547E-07  3.90348999E-02 -2.18657521E-01 -2.26462830E-01  6.93187241E-07
  8.58708483E-02  9.96919096E-02 -2.82149526E-01 -4.80001030E-02 -1.64952773E-07
  5.88507681E-08  7.28085707E-02 -1.50108963E-02  1.01354485E-01 -1.03928343E-02
  7.00380376E-07 -1.04313296E-01 -1.01323749E-01 -1.33561098E-01 -6.17037725E-07
  8.98614731E-03 -3.61412439E-01  4.70176305E-01 -3.49947853E-02  9.56034653E-08
  1.40458708E-06 -1.73122444E-02 -9.56494988E-03 -1.73401087E-01  3.45498399E-01
 -5.00896315E-07  5.69800560E-03  1.56008761E-01 -3.66925639E-01  6.24955169E-07
  3.11264263E-03  5.90547389E-02 -1.09745088E-01  3.54645073E-02  7.44749528E-08
 -1.71143270E-08 -2.43891412E-01  5.29949511E-02  6.46680265E-01 -1.49235466E-01
 -3.76220725E-02 -4.01145140E-03 -2.43908290E-01  5.30003513E-02  6.46681367E-01
 -1.49235993E-01 -3.76045745E-02 -4.01741192E-03 -3.86325642E-03 -1.24238159E-02
  2.74768892E-01  3.27912103E-01 -4.34460570E-07  1.39619179E-02 -2.80765521E-01
 -3.99903913E-01  6.54449599E-07  1.69737408E-01 -1.72167766E-01 -2.31664317E-02
  1.91516113E-02  7.03364164E-08  1.38968417E-07  5.58596268E-03  3.51649490E-03
 -3.78700504E-01  5.64682215E-02 -1.51023348E-07 -1.61208166E-02  5.68194584E-01
 -5.29491784E-02  1.58752603E-07  5.79922256E-02 -7.73967372E-02  3.47127158E-02
  1.89377151E-01  4.67826604E-07 -1.24293602E-07  8.84230960E-03  2.14565499E-02
  2.24937116E-01 -3.83763929E-01  2.07379403E-07 -3.07074104E-02 -1.95360652E-01
  4.93893266E-01 -4.57205937E-07 -1.61288805E-01  1.56914925E-01  5.24683082E-02
  6.38040648E-02  3.72625213E-07 -9.74536258E-08  3.86615241E-03  1.24274556E-02
  2.74760688E-01  3.27904331E-01  5.17054933E-07 -1.39673444E-02 -2.80763672E-01
 -3.99893885E-01 -7.98018884E-07 -1.69739345E-01  1.72164588E-01  2.31827853E-02
 -1.91575020E-02  4.30297555E-10 -2.57151590E-08 -5.58774586E-03 -3.50861544E-03
 -3.78705559E-01  5.64635931E-02  2.54784263E-08  1.61204607E-02  5.68199885E-01
 -5.29389856E-02 -4.83772999E-08 -5.79917188E-02  7.74187826E-02 -3.47267824E-02
 -1.89374877E-01  2.30914024E-07 -2.06652340E-07 -8.84083229E-03 -2.14524419E-02
  2.24943808E-01 -3.83779176E-01 -2.41136730E-07  3.07039470E-02 -1.95359326E-01
  4.93908718E-01  4.61748605E-07  1.61293522E-01 -1.56917671E-01 -5.24611220E-02
 -6.37978083E-02  2.69556117E-07 -8.15325337E-09 -6.33430749E-02  1.19231428E-02
  6.62646039E-02 -1.34386785E-02  1.33054474E-01 -2.96328395E-02  6.33429592E-02
 -1.19243041E-02 -6.62945892E-02  1.34440135E-02 -1.33063744E-01  2.96338814E-02
 -1.97804166E-02  2.48687439E-01 -2.09488511E-01  2.10518239E-01 -3.43593923E-07
 -1.15142260E-02  5.37265428E-02  1.12337479E-01  6.75390171E-07  1.02741286E-01
  3.23138181E-01 -1.50142078E-01  2.57809408E-01  1.61951509E-07  1.08060914E-07
 -1.02032274E-02  1.34909248E-01 -5.65947959E-01  2.16985876E-01  3.06648111E-07
 -6.20643451E-03 -1.30507268E-01  1.86355846E-02  3.03123989E-07  1.69900360E-01
  5.99589978E-02 -7.92903804E-02 -4.95822403E-01 -1.82647058E-06  4.99239202E-07
  3.00897707E-02 -3.79386420E-01 -4.79608985E-01 -2.27647512E-02  1.29932279E-06
  1.70120566E-02 -2.37542507E-02 -2.91988791E-02 -8.47055132E-07 -1.34755106E-01
 -5.15374336E-01  2.29444465E-01  4.26354067E-01  1.61613793E-07 -4.58935002E-07
 -1.97749094E-02  2.48698533E-01  2.09542242E-01 -2.10527472E-01 -2.95665988E-07
 -1.15206132E-02 -5.36713164E-02 -1.12376339E-01  8.23943673E-07  1.02754879E-01
  3.23113361E-01 -1.50099482E-01  2.57825910E-01  3.87779814E-08 -4.06949670E-07
 -1.02191430E-02  1.34990828E-01  5.66185638E-01 -2.17116865E-01  4.45654987E-07
 -6.19258449E-03  1.30486353E-01 -1.86129866E-02  1.54141895E-07  1.70030545E-01
  6.00011198E-02 -7.93949291E-02 -4.96028953E-01  1.30720362E-06 -3.58751520E-07
  3.01088241E-02 -3.79477367E-01  4.79797614E-01  2.26231911E-02  1.12175978E-06
  1.69885460E-02  2.37415761E-02  2.91924660E-02 -7.54293347E-07 -1.34919272E-01
 -5.15408865E-01  2.29569592E-01  4.26542024E-01 -2.28962510E-07  4.47875408E-07
  1.33785526E-01 -3.61655593E-02  6.31487601E-02 -3.64350828E-03 -2.09793321E-01
  4.17975021E-02  1.33925384E-01 -3.62580519E-02  6.31166047E-02 -3.60111256E-03
 -2.09751267E-01  4.17576050E-02 -1.53766782E-02 -1.83159291E-02  1.59942493E-01
  4.45192189E-02 -2.05751047E-08  1.75088470E-02  1.38065103E-01 -9.94200650E-02
  2.22325443E-07 -8.66095117E-02  1.30321198E-01 -1.14336632E-01 -6.37916098E-02
 -3.89754758E-08  3.78901015E-07  3.79406325E-02 -1.82234963E-01  6.02071128E-01
 -2.88108536E-01 -4.49883373E-07 -3.95951027E-02 -5.18077223E-02  8.01386619E-02
 -2.41743419E-07 -2.73243397E-01 -1.23862993E-01  2.55735814E-01  5.08795584E-01
  1.15022229E-06 -6.01469023E-07 -4.91135599E-02  2.38405637E-01  4.64306838E-01
 -2.86244170E-01 -6.44653865E-07  6.25046352E-02 -3.37280216E-02 -1.50126737E-02
 -1.22206172E-07  3.69172915E-01  1.42970705E-01 -3.21745055E-01 -4.25515964E-01
 -1.15574306E-06  6.02192291E-07  1.53899277E-02  1.81330290E-02  1.59763777E-01
  4.46267338E-02 -3.88254116E-07 -1.74983997E-02  1.38066473E-01 -9.94019495E-02
  3.90239528E-07  8.64959635E-02 -1.30512043E-01  1.14438225E-01  6.35934098E-02
  4.55070925E-07  8.91671929E-08 -3.79428870E-02  1.82262432E-01  6.01804336E-01
 -2.88117773E-01  4.65376331E-07  3.95927250E-02 -5.18744343E-02  8.01343151E-02
 -7.79853197E-08  2.73357820E-01  1.23792246E-01 -2.55749957E-01 -5.08600891E-01
  9.94771706E-07 -6.18554484E-07  4.91019706E-02 -2.38266933E-01  4.64161099E-01
 -2.86333029E-01  5.26405016E-07 -6.25092593E-02 -3.37263649E-02 -1.50702405E-02
  1.14180413E-08 -3.69181075E-01 -1.42723667E-01  3.21656779E-01  4.25405669E-01
 -9.15782173E-07  6.59539963E-07 -3.55180041E-01  2.42132977E-01  1.42296398E-01
 -1.36876838E-01 -1.06526871E-01  1.05125288E-01  3.55092105E-01 -2.42110927E-01
 -1.42252512E-01  1.36870841E-01  1.06620056E-01 -1.05148669E-01  6.09304870E-02
 -2.35251903E-01  3.43344810E-01 -4.55521523E-02  4.40431845E-07 -9.24480144E-02
 -8.07517032E-02  6.86700888E-02  1.33906902E-07 -3.44021920E-01 -1.94480413E-01
  3.89851103E-01 -2.37431987E-01 -8.18408701E-07 -4.75122330E-07 -4.16651023E-02
  1.25048834E-01  4.81611804E-01  7.66674822E-02  2.25265003E-07  5.60002539E-02
 -7.36477187E-02 -1.68263982E-01  7.03156907E-08  3.29048337E-01 -4.09866848E-03
 -2.75804389E-01  3.33822990E-01  7.93321958E-07  1.39508926E-07  3.33180687E-02
 -4.73867409E-02  1.06156324E-01 -2.44949688E-01 -4.23897404E-07 -4.85392145E-02
  1.87461554E-01  1.00798786E-01  2.66453328E-07  7.85986704E-02 -2.69928098E-01
  2.23632296E-01 -1.45678856E-01  6.58972920E-07  3.07189320E-07 -6.09127432E-02
  2.34985093E-01  3.43004593E-01 -4.55257052E-02 -7.13194156E-08  9.24653447E-02
 -8.08127168E-02  6.85895805E-02  6.18044061E-08  3.43749399E-01  1.94321027E-01
 -3.89713347E-01  2.37117729E-01 -6.14762458E-07 -2.31098298E-07  4.16432827E-02
 -1.24763111E-01  4.81466052E-01  7.63372336E-02  2.91961400E-07 -5.60145147E-02
 -7.36916551E-02 -1.68303516E-01 -2.91817077E-07 -3.28427124E-01  3.94893605E-03
  2.75641243E-01 -3.33818668E-01  4.48352348E-07  3.89553244E-07 -3.33154746E-02
  4.73213502E-02  1.06323086E-01 -2.45192082E-01  5.53984312E-07  4.85458994E-02
  1.87497889E-01  1.00661118E-01 -4.68104944E-07 -7.87827278E-02  2.70012938E-01
 -2.23608889E-01  1.45875196E-01  4.61286642E-07  1.71063595E-07  2.74144075E-01
 -2.30013054E-01 -3.64849947E-01  2.95874544E-01  4.52236468E-01 -3.38844804E-01
 -2.74249921E-01  2.30037519E-01  3.65072515E-01 -2.95905972E-01 -4.52218714E-01
  3.38831563E-01  2.23683934E-02 -3.36925173E-01  4.20210656E-01 -4.55049568E-02
  3.71500217E-07  2.14065117E-02  7.39178791E-02  9.51495396E-02  5.00121775E-07
 -3.24731845E-01 -2.18906004E-01  1.74205745E-01 -3.90173210E-01 -9.15943684E-07
 -5.71053614E-07 -2.77365485E-02  3.63070882E-01  1.60714222E-01  4.20969319E-01
  1.51050459E-06 -1.68647607E-02  5.67164691E-02  4.96625890E-02 -1.20402295E-06
  7.77329357E-01 -1.78144828E-01 -2.09449193E-01 -1.48763180E-02  5.14795448E-07
  3.00893745E-07  3.60531644E-03 -8.34189091E-02 -2.22879110E-01  3.30231807E-01
  5.85565181E-08  7.42076443E-03 -4.38634260E-02  1.66887346E-01  8.25754493E-07
 -2.49693748E-01  1.21037772E-01  3.29436276E-02  2.60604920E-01  8.43126141E-07
 -1.05651122E-06  2.24134736E-02 -3.37117844E-01 -4.20506743E-01  4.55565997E-02
  8.77213319E-08  2.13351586E-02 -7.38843261E-02 -9.51794955E-02  5.92249152E-07
 -3.24997296E-01 -2.19060250E-01  1.74490950E-01 -3.90366851E-01  3.55761807E-07
  3.24628001E-07 -2.77596502E-02  3.63115214E-01 -1.61234093E-01 -4.20943300E-01
  1.30519221E-06 -1.68294335E-02 -5.66460504E-02 -4.95398395E-02 -1.17869349E-06
  7.77501031E-01 -1.78170777E-01 -2.09602007E-01 -1.44935335E-02 -6.35275328E-08
  1.88567057E-07  3.62094013E-03 -8.34030388E-02  2.22679529E-01 -3.29935836E-01
  2.51934803E-08  7.39685469E-03  4.37262539E-02 -1.66968176E-01  8.97559055E-07
 -2.49530217E-01  1.20838169E-01  3.30475555E-02  2.60372945E-01 -7.01348837E-07
  6.80828159E-07 -1.34718194E-01  3.30109702E-02  2.75298254E-01 -4.23768374E-02
  2.44451382E-02 -1.52574842E-02 -1.34583009E-01  3.28849715E-02  2.75021447E-01
 -4.21628022E-02  2.47754249E-02 -1.55026804E-02 -7.68474410E-03  9.26201414E-03
  3.72165733E-01  5.91216250E-01  7.87811550E-07  2.13195849E-02 -1.15519658E-02
 -6.30034819E-02 -7.34098117E-07 -4.96445818E-01  5.24922680E-01 -3.93948937E-02
 -2.10231096E-01 -4.80337516E-07 -2.02174224E-07 -1.89075447E-02  2.15274574E-01
  2.31122126E-01  3.07153945E-01  2.26499076E-07  1.25834114E-02 -1.94692012E-02
  1.50277716E-01  1.14684456E-06  4.58443957E-01 -1.28712126E-01 -1.16150428E-01
  8.45930082E-02  4.07630838E-07  6.26504989E-07 -1.93511609E-02  8.51839372E-02
 -5.10312435E-02  5.56286074E-01  2.48089107E-07  4.26027699E-02  4.27269779E-02
 -4.45428710E-02 -6.36610348E-07 -2.41523684E-01  3.98400220E-01 -1.05689429E-01
  2.47831466E-01  1.01936378E-07 -5.68634962E-07  7.68236991E-03 -9.22887922E-03
  3.72205346E-01  5.91209019E-01 -1.75541009E-07 -2.13197988E-02 -1.15474119E-02
 -6.30036818E-02 -4.80652854E-07  4.96477149E-01 -5.24901083E-01  3.93748161E-02
  2.10267413E-01 -4.20830089E-07 -4.56382012E-08  1.89086416E-02 -2.15289777E-01
  2.31176493E-01  3.07165804E-01 -1.13268578E-06 -1.25829799E-02 -1.94702872E-02
  1.50281027E-01  1.30355002E-06 -4.58481038E-01  1.28725290E-01  1.16159336E-01
 -8.46225100E-02  6.44969055E-08 -2.77859417E-07  1.93523578E-02 -8.51992464E-02
 -5.10187236E-02  5.56303984E-01  1.63457220E-07 -4.26030438E-02  4.27298059E-02
 -4.45388971E-02 -5.03204951E-07  2.41523815E-01 -3.98426146E-01  1.05700054E-01
 -2.47820853E-01  3.87093699E-07 -5.80147592E-07 -6.36615434E-02  5.87154742E-02
  3.63980000E-01 -2.29309466E-01  3.29133882E-02 -3.60559093E-03  6.36757387E-02
 -5.87253187E-02 -3.63991795E-01  2.29313711E-01 -3.29243189E-02  3.61268112E-03
  1.08680322E-07  6.00858803E-07 -3.01780646E-07  9.39166613E-07 -4.12751908E-01
 -2.19171553E-07  7.62058003E-07  3.60678447E-07  1.01793408E+00 -1.09686940E-06
  1.95139254E-06  1.40150523E-07 -1.37029472E-07 -1.40052025E-01  1.48192216E-02
  1.01635075E-07  7.84666812E-07  1.17197197E-06  2.48488070E-07  4.12055156E-01
  7.34698088E-08 -1.12764954E-06 -8.17420544E-07 -1.01621609E+00 -1.32331655E-08
  1.45653000E-06 -2.47844368E-07  7.04866642E-07 -8.38079437E-02 -1.13186698E-01
  9.50763468E-08  5.27524410E-08  7.59700304E-07 -1.33606595E-06  6.95225016E-04
 -4.57254082E-07 -5.08593465E-07  1.55124352E-06 -1.71504613E-03 -3.98509566E-08
 -2.29153707E-08  3.87990010E-07 -2.79049628E-07  5.70688854E-02 -1.29866980E-01
  3.17900894E-08  6.56266909E-07  1.70891103E-07  4.92832481E-07 -4.12752155E-01
 -7.33562841E-07 -5.81967182E-08 -1.14460483E-06  1.01793527E+00 -3.02869012E-07
  1.10457349E-06 -2.33090526E-08 -7.46350501E-08  1.40052835E-01 -1.48182003E-02
  4.61216072E-08  4.60851706E-07 -1.01150510E-06  1.10348449E-06  4.12055485E-01
 -3.95959189E-07  1.14728906E-06  8.57712236E-08 -1.01621745E+00 -1.05506552E-06
  1.91285832E-06 -2.61186633E-07  8.34108229E-07  8.38092335E-02  1.13186596E-01
  1.16412463E-07  4.77543536E-09 -9.57938512E-07  2.22656413E-06  6.96240025E-04
 -5.17209830E-07  4.56596402E-07 -1.42906801E-06 -1.71852325E-03  5.15315883E-07
 -6.74702465E-07  4.88848857E-07 -9.26948985E-07 -5.70687247E-02  1.29867045E-01
  7.37644610E-07 -8.43159884E-07 -2.07149518E-06  1.47565612E-06  1.19080494E-06
 -1.32710988E-06 -2.36819721E-07  1.61381567E-07 -3.68394343E-06  2.88534616E-06
  1.20395827E-06 -1.35554627E-06  9.91446056E-08  3.43874656E-07 -8.78925533E-07
 -5.16844176E-07  2.37497997E-01 -8.98072208E-07 -5.58215002E-07  4.39094078E-07
 -5.85724658E-01  8.29996282E-07 -6.48936335E-07  4.77730744E-07  1.25710115E-06
 -1.60599744E-02 -1.40603223E-01  1.14231814E-07  2.35639409E-07 -2.65866661E-06
  2.68450517E-07  2.38704325E-01 -2.86627236E-07  2.79814782E-06 -1.11099240E-06
 -5.88698819E-01 -6.48769747E-07  1.05844003E-06  1.87264436E-07 -2.90296149E-07
  1.14429616E-01 -8.32590471E-02  7.24166110E-08  1.79876627E-06 -5.22187323E-07
  7.99407655E-07 -4.76201694E-01 -8.57094913E-07  4.48206940E-08  6.41997138E-07
  1.17442068E+00  7.02501444E-07  1.93326965E-06 -4.67066235E-07  1.78587105E-06
  1.28626140E-01  5.65184450E-02  1.40419436E-07 -1.38495424E-07  1.30634064E-06
  1.12362671E-06  2.37497323E-01 -5.67665848E-07  6.32070661E-08  4.86948023E-07
 -5.85722136E-01  1.48659466E-06 -1.94552862E-06  7.11016650E-07  1.03103749E-06
  1.60596008E-02  1.40602551E-01  1.24872111E-07  4.66484073E-07  2.81862288E-06
  1.22627103E-07  2.38703576E-01 -7.26070181E-07 -2.34096271E-06  3.38223901E-07
 -5.88696119E-01 -3.74924239E-07  9.95220513E-07  2.30848061E-07 -6.96488493E-07
 -1.14428874E-01  8.32588375E-02  4.95207625E-08  9.03878082E-07  6.78965525E-07
  7.28981191E-09 -4.76201611E-01 -6.68426910E-07  5.21315142E-07 -5.40216708E-07
  1.17442052E+00  8.30144658E-07  5.80981588E-07 -3.28500034E-07  1.84102865E-06
 -1.28625544E-01 -5.65198030E-02  2.56063195E-06 -2.58907274E-06 -1.17394924E-06
  5.72559503E-07 -3.48516466E-06  3.05365806E-06  2.18582127E-06 -2.41759159E-06
 -1.11090677E-06  6.26103156E-07 -3.67787981E-06  2.98861343E-06 -5.06852770E-03
  7.83227072E-02  3.35705086E-01  6.00176116E-01  1.51789399E-06 -6.21419936E-03
 -5.61149834E-03  2.15221326E-02 -2.49385289E-06 -5.24467819E-01  6.26184701E-01
 -3.39478842E-02 -8.84907991E-02 -4.75782018E-07 -3.26644780E-07 -3.54271477E-03
  6.35668183E-02  4.71453164E-01  1.30389553E-02  2.32985101E-08 -5.24689938E-03
 -5.73714587E-02  1.24425002E-02  2.78093556E-07  2.07108651E-01 -1.24938230E-01
 -2.55865064E-02  4.25802585E-01  9.38297764E-07 -3.09563582E-08  8.59824434E-03
 -1.42275253E-01  1.05245815E-01 -6.03619395E-01 -8.71365135E-07  1.15919587E-02
 -3.51246673E-02  2.25911656E-02  2.23116873E-06  3.98254962E-01 -5.82553335E-01
  5.95027336E-02 -2.30227686E-01 -4.27780460E-07  6.47276062E-07 -5.06941528E-03
  7.83484939E-02 -3.35696990E-01 -6.00196359E-01  1.34767802E-06 -6.21971190E-03
  5.64163977E-03 -2.15364249E-02 -2.37577738E-06 -5.24484285E-01  6.26231921E-01
 -3.39519839E-02 -8.84214923E-02  2.32933176E-07 -3.13558583E-08 -3.54456618E-03
  6.35404471E-02 -4.71452573E-01 -1.30243175E-02 -8.62576727E-08 -5.23172337E-03
  5.73716999E-02 -1.24209683E-02  1.78437027E-07  2.07026061E-01 -1.24882318E-01
 -2.55946062E-02  4.25817470E-01 -6.85806796E-07  2.30061039E-07  8.59803367E-03
 -1.42247639E-01 -1.05259709E-01  6.03601188E-01 -9.59912699E-07  1.15838504E-02
  3.50940651E-02 -2.25952108E-02  2.32569135E-06  3.98213246E-01 -5.82479516E-01
  5.95011439E-02 -2.30276758E-01  3.24722728E-07 -5.37174628E-07  7.40418043E-02
 -3.36318863E-02  4.57437141E-02 -8.95038463E-03 -1.18972135E-01  4.24759987E-02
  7.41234930E-02 -3.36868769E-02  4.56667246E-02 -8.90381763E-03 -1.18890497E-01
  4.24225299E-02  1.89299885E-02 -2.52689478E-01  9.78872820E-02 -2.29152200E-01
  3.22524399E-07  3.49903152E-03  1.83311814E-01 -7.05394552E-02 -5.07493207E-07
  7.42180386E-02 -4.25647759E-01  1.29709148E-01 -4.87692715E-01 -5.80201116E-07
 -7.47590194E-07  5.78454576E-03  2.31261593E-01  4.89231418E-02  1.38584782E-01
  6.17891574E-07 -9.24282639E-02 -1.68094880E-02  9.29715605E-02 -1.96845301E-07
  6.00125639E-01 -3.23987464E-01 -9.05654630E-03 -7.73190453E-02 -2.37967048E-08
 -6.81684821E-08  1.07130367E-02 -2.57090906E-01 -1.25761872E-01 -2.32903838E-01
  4.26707481E-07  3.64905731E-02 -1.75940834E-01  9.81157557E-03  6.46667227E-07
  2.66934449E-01 -6.06430411E-01  9.04774281E-02  3.08352083E-01 -3.74418932E-07
 -6.08680259E-07 -1.89291065E-02  2.52677840E-01  9.79415149E-02 -2.29056383E-01
  4.15832596E-08 -3.49850203E-03  1.83307587E-01 -7.05388737E-02 -2.89233130E-07
 -7.41426070E-02  4.25557017E-01 -1.29703206E-01  4.87705290E-01 -3.15027201E-08
 -7.78399303E-07 -5.78396978E-03 -2.31270984E-01  4.89946701E-02  1.38586112E-01
 -3.15139065E-07  9.24288588E-02 -1.68127162E-02  9.29731331E-02 -5.24596246E-07
 -6.00155942E-01  3.24005710E-01  9.06071341E-03  7.72570233E-02 -3.66798314E-07
 -3.33610140E-07 -1.07144214E-02  2.57111972E-01 -1.25744330E-01 -2.32999262E-01
 -8.48560419E-07 -3.64919784E-02 -1.75948050E-01  9.81570288E-03  9.75725716E-07
 -2.66992298E-01  6.06515626E-01 -9.04871770E-02 -3.08318955E-01 -3.52518830E-07
 -6.51612610E-07 -4.57002492E-01  3.14635815E-01  3.90394568E-01 -2.22532150E-01
 -4.52010141E-01  2.91439838E-01  4.56990409E-01 -3.14627952E-01 -3.90401248E-01
  2.22534227E-01  4.52029767E-01 -2.91450115E-01 -1.30636642E-02 -2.20835796E-01
  9.99596934E-02  4.23549187E-02 -8.12352965E-07  4.04301205E-02 -3.88709329E-01
 -2.62929896E-02  2.72799939E-06 -8.19903881E-02 -1.56408764E-01 -3.14184618E-03
  1.19526469E-01  1.70471366E-07  6.08062303E-07  3.05727266E-03  4.86234623E-02
 -3.81989874E-01  5.30775463E-02 -6.69132922E-07 -8.83556061E-03  8.13948255E-01
 -1.56771943E-01  2.23082956E-06  3.73783185E-02  1.52743574E-02  1.15808593E-03
  1.69134963E-01 -9.33021521E-08  3.95961334E-07  9.93995511E-03  1.70315052E-01
  1.36771477E-01 -2.00622906E-01  2.00835728E-06 -3.07789750E-02 -4.39566892E-01
  4.30682176E-01 -5.52023524E-06  3.99626645E-02  1.44070856E-01  1.79720714E-03
  1.53667044E-01 -9.78931372E-07 -7.45408394E-07 -1.30637744E-02 -2.20833410E-01
 -9.99611665E-02 -4.23617998E-02 -1.12258853E-06  4.04298359E-02  3.88708061E-01
  2.62929598E-02  2.88082024E-06 -8.19973660E-02 -1.56399131E-01 -3.14264462E-03
  1.19526345E-01  2.77338045E-07 -9.06262064E-07  3.05714647E-03  4.86266212E-02
  3.81987368E-01 -5.30830523E-02 -8.73025679E-07 -8.83624092E-03 -8.13947581E-01
  1.56775413E-01  2.44190059E-06  3.73808195E-02  1.52748773E-02  1.15754928E-03
  1.69136899E-01  2.06399878E-07 -3.94311487E-07  9.93975691E-03  1.70319147E-01
 -1.36774012E-01  2.00615925E-01  1.91652696E-06 -3.07796583E-02  4.39568242E-01
 -4.30681757E-01 -5.28297303E-06  3.99587852E-02  1.44079303E-01  1.79584548E-03
  1.53668648E-01  7.90573790E-07  5.99265032E-07  5.83327712E-01 -7.22290683E-01
 -1.33771065E-01  1.66173628E-01 -4.45743221E-01  5.55383906E-01  5.83329579E-01
 -7.22292385E-01 -1.33769024E-01  1.66170593E-01 -4.45740472E-01  5.55381030E-01
 -4.16282955E-03 -6.68118414E-02 -2.01306817E-01 -3.01661515E-01  1.16102044E-06
  1.28028916E-02  3.96025909E-01  6.97684581E-01 -3.44605842E-06 -2.15322930E-01
  1.43921316E-01 -1.78320239E-03 -1.74951079E-02  3.73902064E-07 -2.19250004E-07
  1.34164716E-02  2.19435236E-01  9.82716328E-02  4.35497619E-02 -1.06064773E-06
 -4.12247807E-02 -2.15773109E-01 -2.78844643E-01  3.41531471E-06 -9.15318873E-03
  2.44006016E-01  4.64578922E-03 -5.01614310E-03  2.77844353E-07  3.52953688E-07
 -9.31137629E-03 -1.54237551E-01  8.39102653E-02 -2.84759482E-01 -5.59186067E-07
  2.91259708E-02 -5.61908592E-02  6.46701255E-01  1.13232931E-06 -2.29706339E-01
  6.48172317E-02 -3.02706219E-03  2.10112923E-02  4.64551580E-07  5.13533925E-07
 -4.16282162E-03 -6.68166303E-02  2.01301157E-01  3.01664206E-01  9.39060382E-07
  1.28044632E-02 -3.96022206E-01 -6.97687581E-01 -3.25087743E-06 -2.15326278E-01
  1.43920092E-01 -1.78290043E-03 -1.74981674E-02 -4.05612871E-07  1.15392840E-07
  1.34163493E-02  2.19434520E-01 -9.82748528E-02 -4.35485490E-02 -1.37929265E-06
 -4.12240065E-02  2.15771077E-01  2.78843010E-01  3.57264844E-06 -9.15103088E-03
  2.44003576E-01  4.64512709E-03 -5.01054699E-03 -3.27910386E-07 -8.55151035E-07
 -9.31138007E-03 -1.54235357E-01 -8.39140809E-02  2.84760146E-01 -4.64517458E-07
  2.91248850E-02  5.61925675E-02 -6.46698666E-01  8.93573606E-07 -2.29702486E-01
  6.48152148E-02 -3.02702037E-03  2.10089137E-02 -2.52430680E-07 -4.64206652E-07
  1.85284248E-01 -2.23059235E-01 -6.00773718E-01  7.29911581E-01  4.18711361E-01
 -5.07482154E-01  1.85282323E-01 -2.23056456E-01 -6.00772780E-01  7.29911624E-01
  4.18711400E-01 -5.07483201E-01 -9.01160310E-02 -5.18817988E-01  1.51297615E-01
 -1.99498257E-01 -6.63141740E-08  5.60479383E-01 -1.48298779E-01  6.57470566E-01
  4.63378439E-07 -3.04449220E-01 -6.53247835E-02 -3.44439483E-01  3.12898802E-02
 -2.24461883E-08 -3.31678446E-08  5.15175890E-03  3.91929663E-02 -1.24166483E-01
  3.33515432E-02  1.39313427E-08 -3.54952733E-02  7.94195768E-01 -1.16562099E-01
  2.53424678E-07  6.20258451E-02 -3.32216009E-02  1.86708041E-02  1.98041809E-01
  4.91152411E-07 -9.62182916E-09  9.65362854E-02  5.39469052E-01  2.02467549E-01
  1.60782659E-01  5.19005906E-07 -5.94464042E-01 -3.47455267E-01 -5.58838113E-01
 -1.56790242E-06  3.14258985E-01  6.84616487E-02  3.70984522E-01  1.02227012E-02
 -4.64018658E-07 -7.57548456E-08  9.01157731E-02  5.18818999E-01  1.51300575E-01
 -1.99497052E-01  1.90542548E-07 -5.60478347E-01 -1.48300968E-01  6.57467085E-01
 -1.58166942E-07  3.04449907E-01  6.53251433E-02  3.44438210E-01 -3.12886837E-02
 -2.13721743E-07  1.06261705E-07 -5.15127436E-03 -3.91945133E-02 -1.24165316E-01
  3.33543892E-02 -5.07749077E-08  3.54934815E-02  7.94196167E-01 -1.16561082E-01
  9.01470580E-08 -6.20287706E-02  3.32228611E-02 -1.86684996E-02 -1.98042185E-01
  3.50481613E-07 -1.08670479E-07 -9.65365392E-02 -5.39468462E-01  2.02465919E-01
  1.60783302E-01 -2.34449789E-07  5.94464845E-01 -3.47454310E-01 -5.58842151E-01
  7.00148151E-07 -3.14260097E-01 -6.84599640E-02 -3.70985638E-01 -1.02227807E-02
 -3.10770892E-07 -5.62459753E-08  2.85393394E-01 -3.35255834E-01 -9.43324789E-03
  1.63317300E-02 -3.15413244E-01  3.61439356E-01 -2.85392063E-01  3.35254278E-01
  9.43018937E-03 -1.63283003E-02  3.15414861E-01 -3.61441193E-01 -5.72175145E-02
 -3.50387340E-01  1.89770746E-01 -1.93465149E-02  4.21324097E-08  3.63673708E-01
 -6.60970217E-01 -3.52479397E-01  2.16455584E-07  3.03803559E-02 -2.81784885E-01
 -2.16366833E-01  7.46682357E-02  2.75123209E-07 -1.90764954E-09 -1.08141065E-01
 -6.00182718E-01 -4.09303388E-02 -2.79269332E-01  2.29963012E-07  6.64742587E-01
  1.08891748E-01  6.02809497E-01 -1.54961052E-06 -9.89256132E-02 -3.25647064E-01
 -4.16329444E-01 -1.79294370E-02  4.64220408E-08 -1.05019412E-08 -4.76367491E-02
 -2.97757996E-01 -1.71509286E-01  3.67649036E-02 -2.14652034E-07  3.04956119E-01
  5.36665854E-01 -5.42597417E-01  9.24100947E-07  1.76212516E-02 -2.31672673E-01
 -1.79584591E-01 -1.37191482E-01 -5.86109226E-08  3.35629083E-07  5.72179673E-02
  3.50385661E-01  1.89769815E-01 -1.93431922E-02  1.01943619E-07 -3.63675432E-01
 -6.60972807E-01 -3.52481768E-01 -4.17477055E-07 -3.03807128E-02  2.81783524E-01
  2.16369037E-01 -7.46699284E-02 -3.62665183E-08  3.85895583E-08  1.08141167E-01
  6.00183038E-01 -4.09318219E-02 -2.79269103E-01 -3.83577465E-07 -6.64742913E-01
  1.08896183E-01  6.02809331E-01  1.36609623E-06  9.89255933E-02  3.25647429E-01
  4.16329757E-01  1.79290000E-02 -9.87910357E-08 -3.53289590E-07  4.76363236E-02
  2.97759493E-01 -1.71511120E-01  3.67624150E-02  7.26309898E-08 -3.04954724E-01
  5.36664529E-01 -5.42596708E-01 -4.38351962E-07 -1.76218938E-02  2.31674922E-01
  1.79582518E-01  1.37190502E-01 -9.38131026E-08  2.26974535E-07  1.69138052E-01
 -2.08158259E-01  3.58008182E-01 -4.04148978E-01  1.35733700E-01 -1.70607543E-01
 -1.69140085E-01  2.08160536E-01 -3.58008922E-01  4.04150398E-01 -1.35731067E-01
  1.70604190E-01  6.39399633E-08 -2.82195167E-08 -3.72324923E-07  8.94234849E-08
 -2.94607383E-01  9.36081171E-07  1.60213313E-06  1.60054709E-06  1.34264329E+00
 -3.91791993E-07  7.97945319E-07 -3.51120630E-08 -2.81524320E-07 -1.13620023E-01
  8.31423349E-02  3.79872517E-08  5.29726761E-07  5.51742936E-08 -4.03987874E-07
  2.94607549E-01  8.80531833E-07  6.85876737E-07  1.83590299E-06 -1.34264224E+00
  7.10465777E-07  2.53572565E-07 -5.93310684E-07  1.77564026E-07 -1.51911949E-02
 -1.39968302E-01 -4.05726604E-08  1.11857378E-06 -1.17180506E-06 -5.80734686E-07
 -2.94607677E-01 -3.78783090E-07  4.12242931E-06  3.16955594E-06  1.34264603E+00
  3.00676529E-07  3.64615118E-07 -7.50850139E-07  5.79808755E-07  1.28812779E-01
  5.68279488E-02 -4.21651630E-08 -8.69853881E-07  4.65750147E-07 -3.27154652E-07
  2.94607494E-01  1.54020759E-06 -4.37524540E-07  2.49578316E-06 -1.34264384E+00
  3.54814275E-07 -6.02511048E-07 -9.03137943E-08  4.45679186E-07 -1.13620577E-01
  8.31417446E-02 -1.89387634E-08 -1.40868934E-06 -2.41062167E-07 -1.26407494E-06
 -2.94607642E-01  1.55225122E-06  1.41599550E-06  3.82013367E-06  1.34264294E+00
 -4.81390852E-07 -3.32588873E-07  4.60350764E-07 -2.59884700E-07 -1.51919504E-02
 -1.39968238E-01 -1.26734782E-08 -1.39838671E-06 -1.13990615E-06 -5.60885732E-07
  2.94607749E-01  1.60632731E-06  3.01545246E-06  2.70116627E-06 -1.34264634E+00
 -8.77620355E-08 -6.20250037E-07  4.08611702E-07 -3.25106866E-07  1.28812578E-01
  5.68285942E-02  1.74192497E-07 -5.68611320E-07 -4.95620055E-07  2.12548441E-06
 -1.39801038E-06  4.41575779E-06  7.81413472E-07 -2.13703354E-06  1.42777934E-06
 -4.75234485E-06  1.45497344E-06 -4.75571617E-06  4.31333074E-02 -9.34011145E-01
 -1.36622676E-01  9.98706489E-02  3.60897184E-07  1.00487082E+00  4.30548678E-01
 -3.15255393E-01 -1.94708784E-06  2.59214720E-01  2.26290876E-01  1.49855171E-01
 -5.82947227E-02  9.96582823E-08 -2.28129416E-07  4.43527178E-02 -9.45234820E-01
  1.81183334E-02  1.67411348E-01 -1.00488256E-07  1.00567298E+00 -5.77583793E-02
 -5.30977453E-01  2.96300055E-07  1.92600165E-01  3.01360569E-01  1.54326018E-01
  1.34252512E-02  1.41413104E-07  7.44347560E-08  4.36469039E-02 -9.38747759E-01
  1.54563488E-01  6.80407770E-02 -2.91139442E-07  1.00521468E+00 -4.88294285E-01
 -2.15738460E-01  1.06217571E-06  2.81571261E-01  2.07498132E-01  1.51738559E-01
  4.56055324E-02 -2.56452159E-07 -1.88591700E-07  4.31334725E-02 -9.34011474E-01
  1.36624158E-01 -9.98695427E-02 -4.39769660E-07  1.00487032E+00 -4.30552453E-01
  3.15253564E-01  2.24742546E-06  2.59215329E-01  2.26290919E-01  1.49855792E-01
 -5.82947730E-02  1.27331796E-07  1.54852523E-07  4.43529447E-02 -9.45235250E-01
 -1.81201876E-02 -1.67412133E-01  6.83672774E-07  1.00567217E+00  5.77633073E-02
  5.30980878E-01 -3.84222845E-06  1.92600475E-01  3.01361121E-01  1.54326885E-01
  1.34253417E-02 -4.03972772E-08  1.46770648E-07  4.36470114E-02 -9.38747993E-01
 -1.54562952E-01 -6.80425025E-02 -6.16654951E-07  1.00521428E+00  4.88292439E-01
  2.15744367E-01  3.64185319E-06  2.81571769E-01  2.07498064E-01  1.51738961E-01
  4.56053658E-02 -1.08619573E-07  2.50681987E-08  5.15829483E-02 -9.25477935E-01
  4.99093266E-02 -9.25815167E-01  5.08863531E-02 -9.25627552E-01  5.15831046E-02
 -9.25479885E-01  4.99095749E-02 -9.25818752E-01  5.08864519E-02 -9.25628360E-01
  2.30400209E-01 -1.50998259E+00 -1.99494667E-01  6.55255054E-02  1.75656649E-07
 -9.29354337E-02  7.01843066E-01 -3.85261579E-01 -1.52313127E-06  8.07985208E-01
  7.47268325E-01  8.11686280E-01 -3.98686078E-02  1.03386174E-07 -1.21868151E-07
  2.30269741E-03 -1.54779088E-02 -1.31503806E-01  1.63455118E-02 -2.40897464E-07
 -7.56769175E-04  2.09144781E-01 -3.07550486E-02  1.66077805E-06 -9.64880212E-04
  1.66916137E-02  8.15132549E-03 -4.07187324E-02 -2.26988868E-07  2.48760374E-07
 -2.28701881E-01  1.50002719E+00 -2.07983808E-01 -1.87061236E-02  5.23296337E-07
  9.18779305E-02  7.62820163E-01  2.19759854E-01 -2.74044176E-06 -8.15259954E-01
 -7.29050195E-01 -8.05772542E-01 -2.18660351E-02  1.81580194E-07  8.22525121E-08
 -2.30400763E-01  1.50998813E+00 -1.99496416E-01  6.55244511E-02 -1.24213065E-08
  9.29334911E-02  7.01842843E-01 -3.85259671E-01  4.96808909E-07 -8.07989755E-01
 -7.47269778E-01 -8.11688035E-01  3.98681294E-02  2.19001432E-07 -2.79806573E-07
 -2.30101341E-03  1.54618349E-02 -1.31503887E-01  1.63437901E-02  1.09442237E-07
  7.60971903E-04  2.09143733E-01 -3.07568173E-02 -9.94149958E-07  9.73016388E-04
 -1.66832556E-02 -8.14580830E-03  4.07188106E-02 -2.05930103E-07  1.55597194E-07
  2.28701186E-01 -1.50001956E+00 -2.07982122E-01 -1.87072338E-02 -5.05299135E-07
 -9.18809353E-02  7.62819561E-01  2.19762049E-01  2.60001845E-06  8.15255274E-01
  7.29047273E-01  8.05770292E-01  2.18669534E-02  8.07927756E-08 -2.32361062E-08
 -6.96416633E-02 -6.28912457E-01 -9.95541061E-04 -6.28501736E-03  6.98379819E-02
  6.22827260E-01  6.96422804E-02  6.28912237E-01  9.93993572E-04  6.28512472E-03
 -6.98372463E-02 -6.22826642E-01 -1.30296075E-01  8.53304469E-01  2.32787694E-02
 -1.59272382E-01  2.32694289E-07  5.28314950E-02 -2.54464411E-01  4.12359190E-01
 -1.92882492E-06 -4.16000329E-01 -4.63258806E-01 -4.58962389E-01  3.63381925E-02
  3.06491426E-07 -1.36519732E-07 -2.65593385E-01  1.74294464E+00 -2.58438880E-02
 -2.27576096E-01 -4.35634947E-07  1.06513977E-01  9.99173443E-02  9.05641492E-01
  2.64736393E-06 -8.47474096E-01 -9.46379581E-01 -9.35771242E-01 -1.26176428E-02
 -3.65513151E-08  2.31119832E-07 -1.34021355E-01  8.77982331E-01 -5.98965000E-02
 -1.51026405E-01  5.08643265E-07  5.43041887E-02  3.48354193E-01  3.51851681E-01
 -3.23005574E-06 -4.44931281E-01 -4.59576720E-01 -4.72082066E-01 -4.45218345E-02
 -1.84151620E-07  4.13589652E-08  1.30294121E-01 -8.53287289E-01  2.32783971E-02
 -1.59270661E-01 -4.67830877E-07 -5.28343503E-02 -2.54466859E-01  4.12358990E-01
  3.23169395E-06  4.15992292E-01  4.63249282E-01  4.58955885E-01 -3.63377278E-02
  2.99125872E-07 -1.40582164E-07  2.65592691E-01 -1.74293901E+00 -2.58459555E-02
 -2.27575958E-01  6.82325157E-07 -1.06513887E-01  9.99194084E-02  9.05640996E-01
 -4.11695662E-06  8.47472078E-01  9.46376516E-01  9.35768801E-01  1.26193878E-02
 -4.38150050E-09  7.22955475E-08  1.34022097E-01 -8.77991709E-01 -5.98977234E-02
 -1.51028015E-01 -4.92949875E-07 -5.42992031E-02  3.48352796E-01  3.51851910E-01
  3.12314700E-06  4.44935500E-01  4.59582135E-01  4.72084360E-01  4.45224314E-02
 -2.89517715E-07  9.43884928E-08  3.89386885E-02  3.55657946E-01  8.16046743E-02
  7.21009061E-01  4.01433634E-02  3.64933407E-01 -3.89371290E-02 -3.55658533E-01
 -8.16042870E-02 -7.21008937E-01 -4.01443592E-02 -3.64934234E-01 -1.99574887E-01
  1.13444327E+00 -1.13001447E-01  8.26809588E-02  1.36454396E-07  7.40012501E-01
  2.56979925E-01 -1.88049471E-01 -9.37542421E-07 -6.39219311E-01 -6.38723480E-01
 -6.98666664E-01  9.06750058E-04  1.08035990E-07 -9.86307797E-08 -1.99622185E-01
  1.13483572E+00  1.51031544E-02  1.39193203E-01  4.71322618E-08  7.39997464E-01
 -3.43593060E-02 -3.16555187E-01  8.11669496E-08 -6.38340320E-01 -6.39992547E-01
 -6.98833449E-01 -2.07863513E-04  7.19042971E-08  6.63486138E-08 -1.99593271E-01
  1.13459498E+00  1.28109122E-01  5.65055502E-02 -2.85776345E-07  7.40008878E-01
 -2.91334425E-01 -1.28533012E-01  7.20922579E-07 -6.39608689E-01 -6.38483889E-01
 -6.98731672E-01 -7.09524815E-04 -9.99432904E-08 -4.97254229E-08 -1.99575496E-01
  1.13444801E+00  1.13002664E-01 -8.26792158E-02 -2.36013358E-07  7.40012527E-01
 -2.56981332E-01  1.88046781E-01  1.10983631E-06 -6.39222259E-01 -6.38725157E-01
 -6.98668783E-01  9.06488960E-04  7.06808934E-08  3.20051993E-08 -1.99623080E-01
  1.13484262E+00 -1.51049791E-02 -1.39193068E-01  4.08944748E-07  7.39997488E-01
  3.43627134E-02  3.16555149E-01 -1.93255724E-06 -6.38343881E-01 -6.39995730E-01
 -6.98836575E-01 -2.08787633E-04  1.32715433E-09  1.10892581E-07 -1.99593540E-01
  1.13459723E+00 -1.28108658E-01 -5.65066168E-02 -3.58997443E-07  7.40008783E-01
  2.91332614E-01  1.28536509E-01  1.82559817E-06 -6.39608815E-01 -6.38485876E-01
 -6.98732603E-01 -7.10434349E-04 -8.04040380E-08 -3.19335782E-08  1.06956783E-01
 -5.94890842E-01  1.06994442E-01 -5.94882613E-01  1.06971074E-01 -5.94887939E-01
  1.06957118E-01 -5.94890817E-01  1.06994874E-01 -5.94883274E-01  1.06971259E-01
 -5.94887967E-01 -2.61287566E-01  2.03453142E+00  1.28630752E-01 -1.14279888E-01
  9.94606995E-08 -7.54982335E-03 -1.52418620E-01  9.79838439E-02  2.35348460E-07
 -1.11837270E+00 -1.19835680E+00 -9.03114163E-01 -9.68523772E-02 -2.29100097E-07
 -1.73491833E-07  1.11902323E-01 -8.70279894E-01  1.62945239E-01  5.57694605E-02
  1.63142535E-07  4.76746622E-04  1.27356822E-01 -8.98104665E-02 -9.25295215E-08
  5.59808985E-01  4.31868155E-01  3.86782206E-01  1.17115538E-01  4.18507719E-07
  7.67559379E-08  1.48999379E-01 -1.15906746E+00  3.03302061E-02  1.72316386E-01
 -8.19093778E-08  1.29676497E-03 -1.41463743E-01  7.05654355E-02  2.54341376E-07
  5.44484876E-01  7.76080357E-01  5.15007360E-01  3.71952457E-02 -1.01904185E-07
 -2.27447996E-07 -2.61288450E-01  2.03453977E+00 -1.28632335E-01  1.14273943E-01
  4.85272952E-08 -7.54896363E-03  1.52398572E-01 -9.79956524E-02 -3.68519185E-07
 -1.11838297E+00 -1.19835472E+00 -9.03117168E-01 -9.68552501E-02  2.03154535E-07
  1.04631795E-07  1.11902735E-01 -8.70285492E-01 -1.62947719E-01 -5.57616455E-02
  2.28462093E-08  4.75170088E-04 -1.27375249E-01  8.97747052E-02  1.30669501E-07
  5.59816489E-01  4.31869080E-01  3.86782451E-01  1.17119502E-01 -2.46551063E-07
 -1.07783155E-07  1.49000472E-01 -1.15907973E+00 -3.03199332E-02 -1.72314487E-01
  1.53339869E-09  1.29394685E-03  1.41423227E-01 -7.05912994E-02 -8.70296744E-08
  5.44488497E-01  7.76091235E-01  5.15009957E-01  3.71947532E-02  1.00856732E-07
  1.50232457E-07  1.30562849E-01  7.01362946E-02 -5.52532443E-02 -2.74663742E-02
 -7.35449904E-02 -3.72186197E-02  1.30563523E-01  7.01276064E-02 -5.52546325E-02
 -2.74313890E-02 -7.35470405E-02 -3.71743190E-02  2.15339452E-02 -1.68186891E-01
 -1.15464635E-01 -1.33555398E-01 -2.22020227E-07  2.04584180E-03 -7.42961733E-02
 -1.28668973E-01  2.19880921E-07  2.17798503E-01 -2.66066059E-02  7.44255352E-02
  5.27384830E-02  1.62532249E-07  1.07092201E-07 -2.36779908E-01  1.84228022E+00
  5.51885074E-02 -1.61803402E-01 -2.80056013E-07 -3.40760669E-03  8.25108722E-02
  1.53689170E-01 -4.68555995E-07 -1.12089575E+00 -9.77981725E-01 -8.18391746E-01
  7.92885702E-02  1.90119291E-07 -3.33498678E-07  2.15572637E-01 -1.67844743E+00
  1.68460092E-01 -3.15358620E-02 -3.23534774E-07  6.17029524E-03 -1.01643012E-01
 -1.39632820E-01  4.46192290E-07  9.56513701E-01  9.54943804E-01  7.45089429E-01
 -1.18864006E-01 -4.43080133E-07  1.54146340E-07  2.15338816E-02 -1.68188534E-01
  1.15459655E-01  1.33560753E-01 -9.85249356E-08  2.04472118E-03  7.43296663E-02
  1.28653053E-01 -1.92584987E-07  2.17801901E-01 -2.66054273E-02  7.44240694E-02
  5.27416840E-02 -7.18600900E-08  2.85186748E-08 -2.36780706E-01  1.84228678E+00
 -5.51839413E-02  1.61803686E-01 -2.72177539E-07 -3.40737645E-03 -8.24943066E-02
 -1.53696307E-01  2.00423698E-07 -1.12089954E+00 -9.77983571E-01 -8.18394841E-01
  7.92827669E-02 -2.03973303E-07  3.46740199E-07  2.15571983E-01 -1.67843969E+00
 -1.68465219E-01  3.15301861E-02 -2.11977570E-07  6.17222502E-03  1.01676632E-01
  1.39636161E-01 -6.47561013E-09  9.56508072E-01  9.54940389E-01  7.45087921E-01
 -1.18860011E-01  3.80842473E-07 -1.33721953E-07 -1.12805561E-02 -7.10692824E-03
  1.17764412E-01  6.03153219E-02 -1.07957907E-01 -5.77814491E-02 -1.12817742E-02
 -7.07308337E-03  1.17764489E-01  6.03200397E-02 -1.07956567E-01 -5.78113872E-02
  9.38632062E-02 -9.44510773E-01  2.96969840E-01 -2.59593975E-01 -2.64822991E-07
 -1.50378623E-01 -1.46219560E+00  7.89231677E-01  1.45723172E-06  4.94531429E-01
  4.39961611E-01  3.08544231E-01  1.20246861E-01  1.28151328E-07  2.47736839E-07
  2.21104041E-02 -2.21137504E-01 -1.19789832E-01 -7.50594744E-02  2.14755997E-07
 -3.33960381E-02 -6.85923949E-01  4.45801766E-01 -1.56497857E-06  8.97758574E-02
  1.29925879E-01  7.29109787E-02 -2.12616795E-01 -3.14459654E-07 -2.13441044E-07
 -7.41881416E-02  7.44597009E-01  2.46741959E-01  1.92192844E-01 -6.84895870E-07
  1.15900859E-01 -1.36926771E+00 -5.29986494E-02  4.01603107E-06 -4.16298063E-01
 -3.21705129E-01 -2.44203532E-01  1.58827252E-01  1.02783289E-07 -3.43144804E-07
 -9.38595186E-02  9.44478683E-01  2.96973391E-01 -2.59591472E-01 -2.22185047E-07
  1.50378992E-01 -1.46219770E+00  7.89227737E-01  7.09584819E-07 -4.94514321E-01
 -4.39944563E-01 -3.08531200E-01 -1.20245354E-01 -6.40579120E-08  3.95712105E-07
 -2.21151086E-02  2.21190499E-01 -1.19789535E-01 -7.50577286E-02  1.87273476E-08
  3.33863552E-02 -6.85920186E-01  4.45801452E-01 -2.04019490E-07 -8.98020817E-02
 -1.29948783E-01 -7.29280927E-02  2.12615916E-01 -1.09416562E-07 -5.88722869E-09
  7.41894724E-02 -7.44618295E-01  2.46740239E-01  1.92197167E-01  6.09328453E-07
 -1.15895115E-01 -1.36926749E+00 -5.30023746E-02 -3.59072301E-06  4.16307043E-01
  3.21712607E-01  2.44208706E-01 -1.58828494E-01  1.46308368E-07 -9.66039576E-08
 -8.53185599E-02  1.53943763E+00 -2.01385741E-02  3.45566993E-01  6.74910943E-02
 -1.19204781E+00  8.53164744E-02 -1.53943702E+00  2.01419141E-02 -3.45563227E-01
 -6.74925562E-02  1.19204655E+00  2.88259856E-02 -2.90331706E-01  1.67776983E-01
  1.83746198E-02  5.83740977E-07 -4.94388587E-02 -3.13653344E-03  8.83449533E-01
 -3.15404950E-06 -4.37523305E-02  3.31979334E-01  9.44554497E-02 -3.19395340E-02
  2.02109373E-07 -2.99857662E-07  9.79990204E-02 -9.80298030E-01 -1.72336057E-02
 -3.98098332E-01 -6.90131267E-07 -1.57327124E-01  3.40786241E-01  1.65916099E+00
  5.21999045E-06  5.91505927E-01  3.86268963E-01  3.22306744E-01  2.34330268E-02
  1.11824627E-08  6.25628042E-07  6.56484308E-02 -6.59251006E-01 -2.88397428E-01
 -3.04311546E-02  1.16474620E-06 -1.09468805E-01  8.44446773E-01  9.74543281E-01
 -6.45538915E-06  1.75684758E-01  4.80111154E-01  2.15461042E-01  5.54324061E-02
 -1.88702511E-07 -2.41447267E-07 -2.88304569E-02  2.90382613E-01  1.67775727E-01
  1.83759167E-02 -8.62257515E-07  4.94287940E-02 -3.13879487E-03  8.83446376E-01
  5.11729098E-06  4.37282739E-02 -3.32002377E-01 -9.44717615E-02  3.19378037E-02
  4.65255454E-07 -2.67767709E-07 -9.79956684E-02  9.80271497E-01 -1.72377949E-02
 -3.98098848E-01  1.17960606E-06  1.57324493E-01  3.40790865E-01  1.65915919E+00
 -7.43326889E-06 -5.91489888E-01 -3.86255315E-01 -3.22294952E-01 -2.34328363E-02
  8.74900812E-09  4.06631792E-07 -6.56465725E-02  6.59225886E-01 -2.88395281E-01
 -3.04346099E-02 -1.08968337E-06  1.09472701E-01  8.44442974E-01  9.74543693E-01
  6.00193460E-06 -1.75675659E-01 -4.80099455E-01 -2.15453942E-01 -5.54318069E-02
 -3.85048864E-07 -8.05798959E-08 -2.53622986E-02  4.89710142E-01 -8.64235839E-02
  1.57659579E+00 -5.78126721E-02  1.08957236E+00  2.53654940E-02 -4.89705800E-01
  8.64216767E-02 -1.57659310E+00  5.78110492E-02 -1.08957169E+00 -1.74327300E-01
  1.48313766E+00  1.50663490E-01 -1.11926805E-01  2.01850115E-07 -6.98621136E-02
 -1.47089450E-01  1.03436413E-01 -2.25889719E-07 -8.54425778E-01 -9.38948941E-01
 -5.98348911E-01 -1.43306669E-01 -3.07218210E-07 -3.26508054E-07  1.71600980E-01
 -1.46481516E+00  2.14468709E-02  1.89610678E-01  3.75555860E-07  7.59951946E-02
 -1.93401273E-02 -1.97634620E-01  4.07881319E-07  1.01407274E+00  7.54979406E-01
  5.89376289E-01 -3.07083403E-02 -4.14692188E-08  3.50417345E-07 -1.73229450E-01
  1.47588754E+00 -1.71866016E-01 -7.82421382E-02  4.31968318E-07 -7.23181040E-02
  1.73116043E-01  7.03758284E-02 -8.58312727E-07 -7.99714377E-01 -9.83941239E-01
 -5.94732209E-01  1.08733430E-01  4.03643926E-07 -1.30373074E-07  1.74327181E-01
 -1.48313684E+00  1.50665832E-01 -1.11923669E-01 -8.76002299E-08  6.98624666E-02
 -1.47089389E-01  1.03436463E-01  5.80691833E-07  8.54426166E-01  9.38947668E-01
  5.98348447E-01  1.43306963E-01 -2.76328401E-07 -2.60057039E-07 -1.71600876E-01
  1.46481436E+00  2.14506142E-02  1.89610362E-01 -2.68411847E-07 -7.59955734E-02
 -1.93399752E-02 -1.97634664E-01 -4.50602858E-08 -1.01407264E+00 -7.54978788E-01
 -5.89375843E-01  3.07075401E-02 -1.16113324E-07  3.70149054E-07  1.73229435E-01
 -1.47588735E+00 -1.71864665E-01 -7.82455027E-02 -2.79330499E-07  7.23182793E-02
  1.73116314E-01  7.03753693E-02  4.26682181E-07  7.99713831E-01  9.83941760E-01
  5.94732102E-01 -1.08732878E-01  3.70073575E-07 -1.50941440E-07  8.19967266E-02
  1.53347035E-01 -7.88034743E-02 -1.73519157E-01  8.06715860E-02  1.61006343E-01
 -8.19966803E-02 -1.53347177E-01  7.88034346E-02  1.73519273E-01 -8.06716015E-02
 -1.61006450E-01 -1.13267230E-01 -3.78148399E-02 -1.29609319E-01  9.48479790E-02
  2.20513343E-08  1.45126715E+00  1.51861114E+00 -1.11127535E+00  1.01498608E-06
 -3.27422485E-01 -3.26436432E-01 -3.60987359E-01  1.76575611E-03 -3.40594117E-07
  1.96048734E-07  1.13271906E-01  3.78084113E-02 -1.73359255E-02 -1.59667579E-01
  2.09039106E-07 -1.45132328E+00  2.03052542E-01  1.87081168E+00 -9.07652247E-07
  3.25366030E-01  3.28532363E-01  3.61001962E-01  3.91253298E-04  1.77838767E-07
  3.78813124E-08 -1.13268123E-01 -3.78102859E-02  1.46936466E-01  6.48286222E-02
 -7.52128368E-07  1.45124848E+00 -1.72167983E+00 -7.59550580E-01  5.74254276E-06
 -3.28035674E-01 -3.25837588E-01 -3.60989460E-01 -1.36162931E-03 -1.00181118E-07
 -2.01996699E-08  1.13267702E-01  3.78150931E-02 -1.29609092E-01  9.48498028E-02
  4.13687052E-07 -1.45127570E+00  1.51862031E+00 -1.11127567E+00 -3.28561053E-06
  3.27424187E-01  3.26437264E-01  3.60988926E-01 -1.76555483E-03  2.54168319E-07
  4.47643149E-08 -1.13272655E-01 -3.78089021E-02 -1.73347568E-02 -1.59669035E-01
  1.98636927E-07  1.45133582E+00  2.03060059E-01  1.87082215E+00 -1.18425732E-06
 -3.25368191E-01 -3.28534149E-01 -3.61004456E-01 -3.91694967E-04 -1.18651658E-07
 -4.91755998E-07  1.13268440E-01  3.78104635E-02  1.46937269E-01  6.48281734E-02
  4.00037397E-07 -1.45125432E+00 -1.72168062E+00 -7.59560406E-01 -2.99794468E-06
  3.28036252E-01  3.25838695E-01  3.60990515E-01  1.36185778E-03 -3.40817000E-07
 -1.35612801E-07 -1.15762577E-01 -1.60403907E+00  1.15755633E-01  1.60406181E+00
 -1.15757212E-01 -1.60403548E+00  1.15763273E-01  1.60404568E+00 -1.15756848E-01
 -1.60407094E+00  1.15757627E-01  1.60403986E+00 -9.64728910E-02 -3.40406639E-02
 -2.90718520E-01  1.96210665E-01  2.22452771E-07  2.17415685E+00  2.40570584E+00
 -1.70009206E+00 -9.45625452E-07 -2.74933114E-01 -2.66277064E-01 -3.19882846E-01
  1.85185408E-02 -1.62396330E-07  2.78798254E-07  4.33689716E-02  1.52925359E-02
  1.86351619E-01 -1.78690710E-01 -6.20456391E-08 -9.77333283E-01 -6.00263151E-01
  1.39690948E+00  1.47565623E-06  1.16856002E-01  1.26458416E-01  1.43800950E-01
  1.52230627E-02 -1.72831361E-07  3.03270951E-07  5.31038101E-02  1.87400625E-02
 -2.53692786E-01  9.70413990E-02  5.14695448E-07 -1.19678294E+00  1.76546882E+00
  1.51739027E-02 -3.83251273E-06  1.46889921E-01  1.51014666E-01  1.76081705E-01
  1.63888144E-02  3.11759678E-07  8.90614919E-08 -9.64725661E-02 -3.40401669E-02
  2.90717855E-01 -1.96211295E-01 -6.37321328E-07  2.17415253E+00 -2.40569652E+00
  1.70009843E+00  3.94559332E-06 -2.74931304E-01 -2.66277348E-01 -3.19881816E-01
  1.85187557E-02 -3.71529691E-07  3.71066386E-08  4.33694834E-02  1.52957610E-02
 -1.86352921E-01  1.78691084E-01 -2.76246684E-07 -9.77347103E-01  6.00270448E-01
 -1.39690937E+00  9.11943350E-07  1.16855019E-01  1.26459039E-01  1.43802691E-01
  1.52225915E-02  3.09710060E-07  2.80567502E-07  5.31049592E-02  1.87436030E-02
  2.53694664E-01 -9.70419242E-02  2.84093738E-07 -1.19680659E+00 -1.76548242E+00
 -1.51704561E-02 -1.54330173E-06  1.46892295E-01  1.51015493E-01  1.76085491E-01
  1.63887186E-02 -3.18553552E-07 -2.59875194E-07 -2.46725761E-01 -2.25693031E+00
  1.10875553E-01  1.01452953E+00  1.35837727E-01  1.24237569E+00 -2.46725509E-01
 -2.25692705E+00  1.10876578E-01  1.01452655E+00  1.35839798E-01  1.24238368E+00
 -5.62866599E-03 -1.98083047E-03  1.18384987E-01  1.96356781E-01  3.16363326E-09
  1.26802118E-01 -3.54531440E-01 -7.75141204E-01  7.94199461E-07 -2.88333301E-02
 -2.75423233E-03 -1.86620516E-02 -3.52919393E-03 -2.49983483E-07  1.18908951E-08
  8.63739666E-02  3.04638365E-02 -1.35952562E-01 -3.00787062E-01  2.18993145E-07
 -1.94639681E+00  6.57661603E-01  2.58060896E+00 -1.53534022E-06  2.26281895E-01
  2.58309251E-01  2.86392164E-01 -3.02621395E-03  2.44224441E-07 -2.06005783E-08
 -8.07438594E-02 -2.84795887E-02  2.17595050E-01  2.33394025E-01 -7.78652017E-07
  1.81959918E+00 -2.06966964E+00 -1.41542177E+00  5.82953428E-06 -2.41428604E-01
 -2.11568685E-01 -2.67725300E-01 -6.20339164E-03 -3.19084048E-07 -9.52799337E-08
 -5.62900929E-03 -1.98422677E-03 -1.18385992E-01 -1.96356786E-01  1.12931211E-07
  1.26811413E-01  3.54539115E-01  7.75140265E-01 -1.67735649E-06 -2.88326720E-02
 -2.75344846E-03 -1.86632104E-02 -3.52800331E-03 -8.36641526E-08  1.73395876E-07
  8.63731831E-02  3.04617746E-02  1.35951812E-01  3.00786957E-01 -5.76415296E-07
 -1.94638501E+00 -6.57651952E-01 -2.58060382E+00  3.70147567E-06  2.26280813E-01
  2.58307569E-01  2.86389667E-01 -3.02724493E-03 -1.65360225E-07  4.09052495E-07
 -8.07428792E-02 -2.84770426E-02 -2.17594501E-01 -2.33392490E-01 -4.38847847E-07
  1.81958092E+00  2.06966374E+00  1.41540983E+00  2.53463751E-06 -2.41427184E-01
 -2.11566806E-01 -2.67722101E-01 -6.20256043E-03  4.42235459E-07  4.23243954E-08
 -1.43483616E-02 -1.31558498E-01  2.20749967E-01  2.02034367E+00 -2.06409586E-01
 -1.88879925E+00 -1.43485705E-02 -1.31550861E-01  2.20749378E-01  2.02033811E+00
 -2.06408010E-01 -1.88879167E+00 -8.05769668E-02 -2.87814166E-01 -1.44571683E-01
  1.68721387E-01  1.31494818E-07  4.60498207E+00 -2.94552296E-01 -1.40157631E+00
 -3.49796137E-06  3.46635287E-04 -1.00535256E-01 -2.64254563E-01  6.24005330E-02
  4.43987333E-07  3.94452955E-07 -1.67759367E-02 -5.97257939E-02  1.59561815E-01
  2.78528673E-02 -7.17179400E-08  9.57655899E-01 -3.99359798E+00  3.10018873E-01
  1.74774650E-06 -4.59364212E-02  2.46985339E-02 -5.49997775E-02 -2.24135935E-01
 -7.50362945E-07  2.50575586E-07  6.38473893E-02  2.27783948E-01 -1.14258046E-01
 -1.65187858E-01  1.24524500E-07 -3.64730359E+00 -6.61893597E-01  2.65786663E+00
  1.89076643E-06 -3.93360807E-02  1.19254198E-01  2.09363972E-01  1.27606683E-01
  8.46664684E-07 -2.40284278E-07  8.05748917E-02  2.87806418E-01 -1.44572623E-01
  1.68722306E-01  1.33702422E-07 -4.60492368E+00 -2.94513765E-01 -1.40156755E+00
 -2.97356172E-07 -3.46661278E-04  1.00531439E-01  2.64248340E-01 -6.23998613E-02
  5.42515124E-07  1.08243571E-07  1.67802345E-02  5.97422053E-02  1.59562079E-01
  2.78503369E-02 -2.37569844E-08 -9.57776308E-01 -3.99359530E+00  3.10069925E-01
 -1.33239622E-06  4.59405299E-02 -2.46948720E-02  5.50124823E-02  2.24136020E-01
 -6.65622592E-07  2.47704707E-07 -6.38495842E-02 -2.27792466E-01 -1.14257266E-01
 -1.65186480E-01 -2.26938153E-07  3.64736482E+00 -6.61927607E-01  2.65787907E+00
 -5.78017641E-07  3.93358064E-02 -1.19257905E-01 -2.09370338E-01 -1.27608430E-01
  6.42775402E-07 -4.06701297E-07 -2.68669309E-01 -7.84506963E-01 -5.59928937E-02
 -1.63115662E-01  2.12949595E-01  6.21244039E-01  2.68668008E-01  7.84509508E-01
  5.59961342E-02  1.63113171E-01 -2.12951084E-01 -6.21243466E-01 -2.71326064E-02
 -9.72299529E-02 -1.47352709E-01 -7.76234218E-02  1.36348086E-08  1.55275348E+00
  2.44589758E+00  3.00614652E+00  1.94649958E-06 -2.03304066E-01  1.70164409E-01
 -8.90078937E-02 -5.30203344E-02 -1.22675765E-07  6.52626551E-08 -8.33405836E-02
 -2.97813956E-01 -6.71981369E-03  2.25900452E-01 -5.31655385E-08  4.76428665E+00
  7.34417366E-01 -6.92376710E-01  3.72253639E-06 -6.69114741E-03 -9.67477189E-02
 -2.73311731E-01  3.56616399E-02  1.35145668E-07  2.73349195E-07 -5.61409144E-02
 -2.00978336E-01  1.86017303E-01 -4.74225271E-02 -1.22657944E-07  3.21146238E+00
 -1.61304281E+00  2.63886187E+00  5.15574585E-07 -1.64074278E-01  9.50990043E-02
 -1.84146577E-01  9.60871995E-02 -3.76693368E-07 -2.89547169E-07  2.71372037E-02
  9.72473547E-02 -1.47350747E-01 -7.76247170E-02  1.15924660E-07 -1.55288283E+00
  2.44586007E+00  3.00618239E+00 -2.87518113E-06  2.03308674E-01 -1.70160624E-01
  8.90215845E-02  5.30209821E-02 -4.48640337E-08  9.81398283E-08  8.33391442E-02
  2.97808787E-01 -6.72041741E-03  2.25901114E-01 -2.20135816E-07 -4.76424559E+00
  7.34382370E-01 -6.92388352E-01  8.61801891E-08  6.69021055E-03  9.67456726E-02
  2.73307411E-01 -3.56587931E-02 -4.83075316E-09  5.21051747E-07  5.61378626E-02
  2.00966667E-01  1.86019445E-01 -4.74223397E-02  2.10715861E-07 -3.21137710E+00
 -1.61306932E+00  2.63882489E+00 -1.68819709E-06  1.64069941E-01 -9.51002791E-02
  1.84137638E-01 -9.60857734E-02 -1.45336417E-07 -2.65300594E-07 -9.04129555E-02
 -2.64325274E-01 -2.77883574E-01 -8.10559025E-01 -1.87109097E-01 -5.46529164E-01
  9.04170127E-02  2.64324427E-01  2.77882619E-01  8.10558763E-01  1.87107522E-01
  5.46532716E-01 -1.68211281E-01 -6.57310248E-01  2.14397747E-01 -4.86553081E-02
 -9.70435041E-08  6.15271641E+00 -3.10265633E+00  2.49272629E+00 -1.50520612E-06
 -1.63723043E-01 -6.69911620E-02 -4.98146023E-01  2.15312666E-02  4.72251751E-07
  8.92995463E-08  2.87929225E-02  1.12498225E-01 -2.23640161E-01  5.90138638E-02
  3.41435546E-09 -1.05300491E+00 -1.42957950E+00 -5.29442220E-01 -1.73222355E-06
 -1.73262067E-02  5.68402676E-02  8.52688701E-02 -1.64570995E-01  2.85026994E-07
 -2.37251327E-07  1.39424983E-01  5.44772581E-01  2.14612059E-01 -7.21514671E-02
 -3.94361272E-07 -5.09950912E+00 -2.81399196E+00 -1.78585911E+00  5.80319292E-06
  1.72314274E-01  1.89996076E-02  4.12899379E-01 -3.86772448E-02  2.65703737E-07
 -2.32388550E-07 -1.68210883E-01 -6.57309063E-01 -2.14398729E-01  4.86536162E-02
  3.39198657E-07  6.15268717E+00  3.10271866E+00 -2.49262884E+00 -2.63540617E-06
 -1.63717028E-01 -6.69960415E-02 -4.98144766E-01  2.15328467E-02  2.28447820E-08
 -2.23718568E-07  2.87943579E-02  1.12502628E-01  2.23639822E-01 -5.90114588E-02
  7.68314029E-08 -1.05313211E+00  1.42961709E+00  5.29445041E-01 -1.90011958E-07
 -1.73264334E-02  5.68433114E-02  8.52737329E-02 -1.64572429E-01 -3.19635097E-07
 -5.07615808E-08  1.39426405E-01  5.44777456E-01 -2.14609606E-01  7.21519912E-02
 -3.28089800E-07 -5.09961565E+00  2.81396506E+00  1.78593026E+00  3.91478690E-06
  1.72318878E-01  1.89973721E-02  4.12903976E-01 -3.86794843E-02 -1.76012008E-07
  2.37702639E-07  9.31194901E-02  1.18685300E+00 -1.60021448E-02 -2.03201584E-01
 -7.72421078E-02 -9.83729708E-01  9.31200884E-02  1.18685100E+00 -1.59976118E-02
 -2.03197258E-01 -7.72377087E-02 -9.83722843E-01  6.40681135E-02  2.50411222E-01
  6.94155443E-02  2.24971117E-01 -7.26896919E-08 -2.34367525E+00  1.76894873E+00
 -1.47185472E-01  1.52673749E-06 -7.14294573E-02  1.59208020E-01  1.89731936E-01
 -5.70702789E-02 -5.22745283E-07  2.46452563E-07 -1.77718615E-01 -6.94463270E-01
 -5.77724390E-02 -2.08117922E-01 -1.36710480E-07  6.50047118E+00  1.22830320E-01
  4.21221275E+00  5.47251688E-06 -9.45745450E-02 -1.49159933E-01 -5.26304600E-01
 -4.03152093E-02  1.68798502E-07  9.81541193E-07  1.13638556E-01  4.44106615E-01
  5.19627909E-02  2.19875310E-01 -4.58721241E-07 -4.15688524E+00 -2.87820159E+00
 -1.31063128E-01  5.33470549E-06  7.87774082E-03  1.47900112E-01  3.36532538E-01
  1.07669687E-01  4.43206406E-07  1.82421468E-07  6.40692172E-02  2.50414623E-01
 -6.94162679E-02 -2.24969535E-01 -2.42405564E-07 -2.34378137E+00 -1.76898623E+00
  1.47151496E-01  3.60742465E-07 -7.14302177E-02  1.59210934E-01  1.89735723E-01
 -5.70723465E-02  2.08855881E-07 -2.21561804E-08 -1.77718387E-01 -6.94462810E-01
  5.77738515E-02  2.08117564E-01 -5.80195357E-07  6.50045981E+00 -1.22938330E-01
 -4.21219727E+00  6.32581188E-06 -9.45730561E-02 -1.49160438E-01 -5.26303890E-01
 -4.03090841E-02  4.53614438E-08 -4.76290095E-07  1.13636995E-01  4.44101603E-01
 -5.19647562E-02 -2.19876611E-01 -4.04579844E-07 -4.15676930E+00  2.87817353E+00
  1.31115181E-01  3.86853043E-06  7.87773001E-03  1.47897029E-01  3.36527466E-01
  1.07666424E-01 -3.96973844E-07 -1.39674708E-07 -3.53996283E-02 -4.52100320E-01
  9.83800760E-02  1.25411987E+00 -6.28055570E-02 -8.01922391E-01 -3.53960602E-02
 -4.52100356E-01  9.83800690E-02  1.25411867E+00 -6.28099660E-02 -8.01929615E-01
 -5.01611306E-03 -1.99200819E-02 -4.25987060E-02 -6.81366190E-02 -4.34613902E-07
  1.85070530E-01  3.30575588E+00  4.71997149E+00  7.96460719E-06 -2.33341372E-01
  2.27034911E-01 -1.48597489E-02 -8.27420121E-02 -6.12420618E-07 -7.68807123E-08
 -3.46170046E-03 -1.37643203E-02 -9.98141891E-02  6.76558737E-03  1.04183052E-07
  1.27693098E-01  5.64189060E+00 -5.29317280E-01 -1.30604940E-06  4.78439449E-02
 -5.21714445E-02 -1.02531746E-02  2.57846677E-01  1.00669747E-06 -1.76362233E-07
  8.47883839E-03  3.36912017E-02 -2.65560518E-02  8.47322748E-02  2.73117355E-07
 -3.12780356E-01  2.12487698E+00 -5.31709015E+00 -4.86591976E-06  1.81202583E-01
 -1.70570325E-01  2.51159650E-02 -1.81823531E-01 -5.55414420E-07  5.67726037E-07
 -5.01747147E-03 -1.99276005E-02  4.25973279E-02  6.81372359E-02 -4.00869361E-07
  1.85086119E-01 -3.30573197E+00 -4.71998669E+00  6.57030751E-06 -2.33341506E-01
  2.27033782E-01 -1.48628009E-02 -8.27436623E-02  2.90828928E-07 -2.72283852E-07
 -3.46023998E-03 -1.37566825E-02  9.98138694E-02 -6.76725818E-03  1.16836153E-07
  1.27669130E-01 -5.64189087E+00  5.29349670E-01 -2.58893651E-06  4.78459953E-02
 -5.21717523E-02 -1.02497881E-02  2.57846582E-01 -5.23677205E-07  1.91528743E-07
  8.47740303E-03  3.36838765E-02  2.65579010E-02 -8.47312019E-02  2.77871260E-07
 -3.12759607E-01 -2.12491129E+00  5.31707922E+00 -5.02892979E-06  1.81202382E-01
 -1.70572118E-01  2.51126775E-02 -1.81822984E-01  4.14452392E-07 -2.30187747E-07
  2.89903053E-03  3.56605151E-02  2.01073182E-03  2.46602469E-02 -4.90051394E-03
 -6.03166302E-02  2.89609372E-03  3.56643021E-02  2.01294172E-03  2.46546873E-02
 -4.90128921E-03 -6.03088536E-02 -1.95181386E-01 -9.71793687E-01  5.86839738E-02
 -4.29389401E-02 -9.99632639E-08  1.49044522E+01 -7.67908328E+00  5.61920908E+00
 -5.67717489E-06 -2.20849958E-02  3.01110491E-03 -4.20445005E-01  4.56177245E-02
  1.13234362E-06 -6.86310708E-07  1.95182083E-01  9.71788911E-01  7.85121020E-03
  7.22971348E-02 -4.84279779E-07 -1.49044160E+01 -1.02674558E+00 -9.45985357E+00
 -1.08732193E-05 -3.09521209E-02  5.00443346E-02  4.20446512E-01  1.02669795E-02
 -5.22431282E-07 -1.91298648E-06 -1.95181572E-01 -9.71789942E-01 -6.65348441E-02
 -2.93443385E-02  6.99957385E-07  1.49044636E+01  8.70590779E+00  3.84071391E+00
 -1.59524240E-05 -3.74969000E-02  1.84139021E-02 -4.20445771E-01 -3.53457478E-02
 -8.46161062E-07 -4.13302423E-07  1.95181637E-01  9.71794970E-01  5.86837854E-02
 -4.29395357E-02 -2.39354335E-07 -1.49044670E+01 -7.67915825E+00  5.61912101E+00
  4.61746110E-06  2.20835251E-02 -3.00976055E-03  4.20445681E-01 -4.56183252E-02
 -5.72787248E-07  6.52143764E-09 -1.95182312E-01 -9.71790082E-01  7.85048830E-03
  7.22970944E-02  1.80512986E-07  1.49044445E+01 -1.02685573E+00 -9.45984916E+00
  9.65459997E-06  3.09528970E-02 -5.00449602E-02 -4.20447023E-01 -1.02656602E-02
  1.28360180E-07 -2.20458878E-07  1.95181769E-01  9.71790958E-01 -6.65353515E-02
 -2.93436708E-02 -4.24147897E-08 -1.49044726E+01  8.70587234E+00  3.84081051E+00
  1.04399795E-05  3.74975503E-02 -1.84146562E-02  4.20446310E-01  3.53450449E-02
 -4.97973733E-08 -4.38803413E-08  3.02231866E-01  2.42813145E+00 -3.02237815E-01
 -2.42810715E+00  3.02235256E-01  2.42812812E+00 -3.02232083E-01 -2.42813372E+00
  3.02237741E-01  2.42810624E+00 -3.02235462E-01 -2.42813038E+00
Total SCF Density                          R   N=        5253
  2.05262799E+00 -6.34970025E-02  3.29774088E-01 -3.46342646E-04 -4.84326178E-03
  4.21722211E-01  2.52862715E-04  3.54532289E-03 -8.20858888E-04  4.21203133E-01
 -1.92679307E-08  7.43208446E-08  3.28087901E-08  5.64232157E-08  3.29570782E-01
 -1.67205544E-01  2.56522057E-01  7.80750347E-03 -5.71625366E-03 -1.55657468E-07
  2.26590576E-01 -3.34362214E-03  2.19998279E-02  1.24758472E-01  4.04634023E-03
  1.29044401E-07  1.69366063E-02  4.25739577E-02  2.44672567E-03 -1.60984434E-02
  4.04492555E-03  1.27324200E-01 -2.33239756E-07 -1.23944629E-02  2.92024254E-03
  4.44262606E-02 -2.41873099E-08  9.87943399E-08 -5.51604977E-08 -5.42466778E-08
  2.23026885E-01 -7.70299128E-08  7.59832098E-08 -1.94231314E-07  1.52236356E-01
 -1.91846933E-02  4.67016199E-04 -6.77443107E-04 -1.67749088E-02 -1.06711285E-08
  1.82628963E-03 -1.00137442E-04 -4.01439746E-03 -3.97682726E-09  1.22627162E-03
 -1.78703884E-02 -1.75496380E-03  7.45425091E-03  1.18157143E-02  2.09134859E-08
 -1.48992650E-03  1.66499116E-03  2.86923602E-03  1.02560701E-08 -5.51382622E-04
  1.03423545E-03 -1.12816432E-02 -1.60154571E-02 -5.50241092E-04  4.02546643E-04
 -1.40484997E-08 -1.13456347E-02 -1.17756226E-03  8.61673789E-04 -1.13304104E-08
  3.48467422E-05  1.75109896E-04  9.16139713E-04  2.39059698E-03 -4.04174012E-03
 -1.81666351E-02  6.96322375E-03 -1.29789929E-08 -6.03150035E-03 -4.59007875E-03
  1.86050665E-03 -7.89832688E-09 -3.41988812E-04 -7.28056751E-06  2.55138655E-04
  1.66857027E-03 -4.30251813E-09  8.33686063E-09 -3.88437863E-08 -1.74976532E-09
 -6.12844093E-03  1.17772148E-08 -1.22587256E-08  6.50053630E-11 -3.92778548E-03
 -1.60316286E-10 -1.23626789E-09  5.93311699E-10  1.43451195E-09  3.97613039E-04
 -6.18557824E-09  1.63899845E-08 -1.43774804E-08 -7.45745039E-09  4.48473830E-03
  1.40787887E-08 -1.59613278E-09 -8.28307967E-09  2.87428559E-03 -3.75491989E-10
 -5.38190043E-10 -3.07660898E-11  1.63466803E-10  2.27079866E-04  5.41787488E-04
  1.70284206E-02 -3.42890843E-02  7.32765008E-02  3.16320687E-02  1.35996221E-07
  3.64322123E-03  8.88507027E-03  6.89492758E-03  5.96945809E-08 -5.05527360E-03
  1.41563098E-03  1.89240010E-03 -4.34608835E-03 -1.39676907E-08 -6.44813828E-09
  2.05262794E+00 -3.42891544E-02  5.98179527E-02 -1.49626685E-01 -6.93762593E-02
 -3.13774812E-07  2.52181913E-02 -3.70581474E-02 -9.99993239E-03 -1.58685070E-07
  8.95124003E-03 -4.40576064E-03 -4.34233772E-03  8.25264263E-03  2.79049452E-08
  1.06745326E-08 -6.34972656E-02  3.29775198E-01 -7.27628764E-02  1.52111279E-01
 -2.63767116E-01 -1.25782429E-01 -3.88630369E-07  1.07527185E-01 -6.52525020E-02
 -6.62391536E-02 -1.63588194E-07 -5.17309607E-04 -5.71029832E-03 -5.39990525E-03
  9.95908819E-03  3.44876971E-08  1.96940332E-08  4.64964918E-05  6.47413526E-04
  4.20620763E-01 -3.27952890E-02  6.37399899E-02 -1.20557215E-01 -3.89136329E-02
 -3.86027651E-07  8.38377431E-02 -3.48955957E-02  7.06525582E-03 -2.22850745E-07
  1.00056470E-02 -1.17457772E-02 -3.25170517E-03 -5.29469695E-03  2.12730733E-08
 -3.19594929E-09  4.26293663E-04  5.96831841E-03  1.83953487E-04  4.22304113E-01
 -6.22559408E-08  1.23690945E-07 -2.98296139E-07 -3.07842204E-07  2.14081269E-01
 -1.13749298E-07 -2.33925384E-08 -1.65815839E-07  1.40116737E-01  3.03875554E-08
 -2.93599481E-09 -3.26152813E-08  9.50499523E-09 -1.13176308E-02 -5.44073313E-03
  1.28271448E-08 -4.44672828E-08 -6.68645292E-08  7.02894916E-08  3.29570460E-01
  3.64375821E-03  2.52171048E-02 -1.34408926E-01 -2.28962897E-02 -1.11398197E-07
 -5.40028522E-03 -2.94877857E-02  5.22930581E-03 -1.68709423E-08  5.73425483E-03
 -3.08689584E-03 -2.27912162E-03  9.89048322E-03  2.46664722E-08  1.08125369E-08
 -1.67204910E-01  2.56521493E-01 -1.04483132E-03 -9.62144746E-03 -7.07318833E-08
  2.26588991E-01 -1.10821170E-02  3.23682272E-02 -7.61592090E-02 -5.62823166E-02
 -9.44539674E-08  1.60177662E-02 -1.71918413E-02 -2.46349819E-02 -3.08597322E-08
  5.59078390E-04 -2.33565145E-03 -1.06892791E-03  3.62525921E-03  8.50393470E-09
  5.63471969E-09  4.47089405E-04 -2.94138779E-03  1.30185838E-01 -9.11218411E-04
  3.34206301E-08 -2.26483105E-03  4.64919927E-02 -1.91371131E-03  2.06281531E-02
 -2.49358426E-02  1.79755547E-02  2.74156943E-08  2.53046357E-02 -5.61237521E-03
  1.04184854E-02  4.04061218E-08  1.24906313E-03 -2.60701255E-03 -9.17712449E-04
 -1.65609180E-03  6.40783421E-09  3.11431716E-10  4.11983321E-03 -2.71029665E-02
 -9.11372349E-04  1.21893361E-01 -2.41465337E-08 -2.08666081E-02 -6.57870992E-04
  4.05065066E-02 -6.02103783E-09  3.36699039E-08 -1.14719533E-07 -1.32635446E-07
  1.40116798E-01 -1.42312288E-07  1.50608008E-08 -9.92398131E-08  9.27150022E-02
  1.26896971E-08  5.56888476E-09 -1.94865054E-08  8.55278483E-09 -7.65313758E-03
 -4.25124508E-03  2.59373158E-08 -1.17511210E-07 -5.64130802E-08 -1.30902428E-07
  2.23027229E-01 -8.42490852E-08  2.13213958E-08 -4.49943195E-08  1.52236938E-01
 -5.27354268E-03  8.78221876E-03  1.21446243E-03 -8.20164081E-03 -2.23126255E-08
  9.45213734E-03  2.65842911E-04 -3.09470301E-03 -1.28141898E-08  4.23057575E-04
 -4.11739256E-04 -3.73554509E-04 -5.93570137E-04  1.48434489E-09  9.38890817E-10
 -1.64060333E-02 -4.23069080E-03  4.46351140E-03  1.20498801E-02 -2.47751475E-08
 -5.18438741E-03  1.09348018E-03  3.19344280E-03 -2.35018961E-08  1.25376661E-03
  1.63400964E-03 -4.23695208E-03  4.26963337E-03  1.16280098E-02  7.42348462E-09
 -6.80492320E-03  1.93494767E-03  3.49137657E-03  2.97276412E-09 -6.65994116E-04
  7.81415618E-04  1.69932135E-04  5.00878546E-04 -5.83076349E-10 -2.31069990E-11
 -2.06489447E-02  2.94259840E-03 -5.36981710E-03 -2.03985819E-02 -2.04677504E-08
  5.52070366E-03 -1.30275284E-03 -5.12123963E-03 -3.39435575E-09 -9.84858390E-04
  1.87368289E-03  1.89241384E-03 -4.34235542E-03  6.04201834E-03  1.79594706E-03
  3.50001631E-08 -2.27918550E-03  1.39846410E-03  1.70771371E-04  1.97441938E-08
 -3.34695255E-04  1.31063899E-04  2.88410904E-04 -3.39658576E-04 -2.49289348E-09
 -8.43771930E-10 -1.12816915E-02 -1.60153511E-02  7.36274857E-05  6.77948159E-04
  3.91856017E-08 -1.13454729E-02  1.57468917E-04  1.45073696E-03  2.92655297E-08
  3.31398974E-04 -1.21438642E-04  9.16129905E-04 -4.11595093E-03  8.43055927E-03
 -1.15045895E-02  5.23172398E-03 -1.78745920E-08  5.97183269E-03 -2.87073108E-03
 -7.97825840E-05 -1.07520287E-08 -5.14698994E-04  1.54042050E-04 -2.98710478E-04
  6.67702673E-04  1.42008100E-09  5.93774188E-10 -5.38117176E-04  9.09733004E-04
  1.59393753E-02 -5.98099196E-03 -1.01531417E-08  1.35769899E-03  3.76382469E-03
 -1.49605365E-03 -4.50623596E-09 -8.23187087E-05  1.60936201E-04 -5.74343879E-05
  1.09059701E-03 -1.45921430E-08  3.02722234E-08 -3.08111969E-08 -1.77760307E-08
  1.16483636E-02  1.51822665E-08 -9.57435255E-10 -2.12979101E-08  8.29933718E-03
 -6.45760517E-10 -8.27856470E-11 -9.72981240E-10 -1.41963400E-10  5.08048702E-05
  3.77442747E-04 -5.00984723E-10 -1.53131219E-09  4.01000127E-08 -8.74803196E-09
  8.19204758E-04  1.07668460E-08  1.15466121E-08  8.36908599E-09  5.25040975E-04
  4.35746764E-10 -2.02810969E-10 -1.80090472E-10  1.23184658E-09  7.02399742E-04
 -3.83518685E-09  8.54133907E-09 -1.56002870E-08  1.03233972E-08  4.69099047E-03
  1.75336368E-09 -2.81393324E-09  4.53428764E-09  2.78639041E-03  5.42212754E-10
 -6.10525257E-12 -1.09197444E-09  9.44213802E-10 -2.69024698E-04 -4.81483105E-05
 -8.61380485E-09  1.50790523E-08 -5.24723203E-09  2.36944361E-09  7.54963440E-03
  9.64631027E-09 -6.95326315E-10 -3.05788279E-09  4.83863560E-03 -1.36215712E-09
  6.57485809E-10  2.54863838E-10 -1.97543918E-11 -5.11206939E-05  2.36993727E-04
 -3.19217690E-03  8.62869955E-03 -1.48914121E-02 -3.58447159E-04 -1.25534882E-08
 -5.88738498E-03 -3.93616423E-05 -8.98955604E-03  4.41526329E-09 -1.78131548E-03
  1.00368682E-03  1.38024611E-04  1.24646220E-03  8.74586307E-10  2.00392318E-09
  1.70286761E-02 -3.42898577E-02  6.40328941E-02 -4.76436931E-02 -5.49626687E-08
  3.64373521E-03  1.04136779E-02 -4.24647733E-03  1.25042742E-08 -3.46165837E-03
 -1.77891524E-04  1.89240352E-03  5.40850547E-03  1.39296354E-08 -6.22198638E-09
  2.05262800E+00  8.62861338E-03 -2.02814738E-02  3.90824970E-02  2.71081603E-03
  1.56147642E-08 -7.74591949E-03  1.09358462E-02  1.34491668E-02 -2.92659512E-09
  3.89184640E-03 -1.78239763E-03  4.21339665E-05 -2.86573969E-03 -4.61262919E-09
 -3.40630169E-09 -3.42898448E-02  5.98196775E-02 -1.34895269E-01  9.48936433E-02
  1.08873956E-07  2.52175776E-02 -2.71892614E-02  2.70918908E-02 -1.07823445E-09
  5.12300160E-03 -5.77683668E-04 -4.34234582E-03 -1.08048287E-02 -2.63930369E-08
  1.37832313E-08 -6.34972234E-02  3.29774997E-01  1.44676439E-02 -3.75907435E-02
  5.00705346E-02  5.45111005E-03  7.19318120E-08 -4.99482488E-02  2.43161667E-02
  3.80667119E-02  4.35309868E-08  9.59128762E-03 -3.70691060E-03 -3.88028077E-04
 -4.57204896E-03 -2.55369024E-08 -2.63799922E-08 -6.47838376E-02  1.31258604E-01
 -2.01794827E-01  1.56338399E-01  6.54731189E-07  1.26366843E-01 -5.48064223E-02
  4.09230276E-02  3.91257080E-07 -7.37319520E-03  2.75219304E-03 -5.51598244E-03
 -1.09141039E-02 -2.60101613E-08  2.94736634E-08  3.92176085E-04  5.49277714E-03
  4.22043946E-01 -3.54501478E-03  1.10327627E-02 -1.49486196E-02  6.83510527E-03
 -1.52471342E-08 -2.99625423E-02  1.62316319E-02 -2.47638357E-03  4.28683602E-08
 -5.14910752E-03  2.29563936E-03  1.15505877E-04  3.14688379E-03  7.88468796E-10
  8.84518988E-09  4.66172727E-02 -9.98631121E-02  1.61562358E-01 -1.00885474E-01
 -2.13519352E-07 -5.12029444E-02  7.22694278E-02 -3.38014784E-03 -3.49461775E-08
 -7.78724389E-03  1.23104596E-02  3.05063049E-03  2.44678016E-03  2.61608027E-08
  2.63607410E-09  1.73151969E-04  2.42274162E-03  6.35590635E-04  4.20882430E-01
 -1.20176352E-08  6.35353526E-09 -1.43747955E-07 -1.62041517E-08 -1.68926168E-02
 -2.12740421E-09 -1.12675619E-07  8.71808881E-08 -2.57011011E-02  3.43833578E-09
  5.41778805E-09 -1.83467632E-08  3.20663525E-08 -8.61666094E-03 -7.41726867E-03
  1.40678500E-07 -2.70082133E-07  4.28153624E-07 -3.98125085E-07  2.14084035E-01
 -4.71929773E-07  1.61967515E-07 -3.31317349E-07  1.40118295E-01 -2.14441836E-08
 -1.26456674E-09  4.40133387E-08  2.84328910E-08 -1.03708242E-02  7.08094609E-03
 -1.73999792E-08  3.07708413E-08 -1.15934450E-07 -1.44013903E-09  3.29570595E-01
 -5.88695646E-03 -7.74690433E-03  4.23568167E-02 -3.99840685E-02 -1.67442876E-07
  7.98969250E-03  1.39047361E-02 -8.10266167E-04 -1.32389369E-07  4.90461606E-03
 -3.62809206E-03 -2.64084163E-05 -3.23644165E-03  4.68914429E-10  3.51497240E-09
  3.64383336E-03  2.52175184E-02 -8.70338856E-02  1.04953931E-01 -3.86464250E-08
 -5.40165469E-03 -1.02150516E-02  2.81504646E-02 -1.16950661E-07  6.53626726E-03
 -3.88898040E-03 -2.27905746E-03 -9.35585665E-03 -2.80293558E-08  8.56218011E-09
 -1.67204906E-01  2.56521068E-01 -8.85478188E-03 -3.90592117E-03  1.29132506E-07
  2.26588769E-01 -1.89011072E-03 -7.79599670E-03  1.17041481E-02 -1.93482343E-02
 -1.35752683E-07 -1.37549299E-02  6.17114941E-03  2.70237930E-03 -1.08020499E-07
  3.44467830E-03 -1.71843600E-03 -1.93616486E-04 -1.57600564E-03 -1.47151464E-08
 -1.72127419E-08 -7.19785440E-03  3.40478608E-02 -4.07268015E-02  4.53914982E-02
  3.71125645E-07  2.99214643E-02 -9.58132825E-03  1.00047879E-02  2.30195363E-07
 -1.94510757E-03 -1.19207182E-04 -1.32915564E-03 -2.58267112E-03 -2.22918387E-08
  1.36699033E-08  3.79148917E-03 -2.49428347E-02  1.23177098E-01 -3.13403637E-03
  3.77623941E-07 -1.92035232E-02  4.14331471E-02 -8.78829139E-03  1.54814514E-02
 -4.11812057E-02  1.01347159E-02 -7.26574942E-08  2.19249351E-03 -3.51560884E-03
  2.47265888E-03 -2.96159835E-08 -1.68296770E-03 -1.55238164E-04 -2.85127857E-04
  2.86114085E-03  3.71942115E-09  3.57640928E-09  8.64093048E-03 -1.77184099E-02
  7.67383705E-02 -1.74576479E-02 -5.24284364E-08 -1.21995177E-03  2.90283545E-02
  2.80814999E-03 -1.25040038E-08 -2.40122711E-03  3.26082238E-03  4.66912258E-04
  2.27312626E-03  7.25672467E-09  3.37520529E-09  1.67267042E-03 -1.10038918E-02
 -3.13522037E-03  1.28902199E-01  8.38217966E-08 -8.47169376E-03 -2.26269987E-03
  4.55651588E-02  3.59300134E-08 -7.17707565E-08  1.64360300E-08  7.23663623E-08
 -2.57012054E-02 -8.45952108E-08 -3.17366501E-08  1.30236054E-07 -2.63269271E-02
  6.90550065E-09  4.47022998E-09 -1.07348134E-08  1.93757990E-08 -5.71408105E-03
 -5.67021265E-03  3.59078135E-08 -8.92713307E-08  5.60744407E-08 -1.97679009E-07
  1.40118391E-01 -2.01654886E-07  4.69613979E-08 -1.93794293E-07  9.27158243E-02
 -2.52731928E-08  9.28883508E-09  2.42954985E-08  8.12095438E-09 -7.50835897E-03
  4.50215105E-03 -1.33942959E-08  6.68756353E-08  3.08872445E-07  8.92829798E-08
  2.23026634E-01  9.24854140E-08  3.58805448E-07  7.84519826E-08  1.52236062E-01
 -2.10549887E-03  4.67070700E-03 -1.16671588E-02 -3.52771290E-03 -1.52398793E-08
  5.68656243E-03 -4.25995523E-03 -1.77862725E-03 -1.06093834E-08  2.47856080E-04
 -4.15179799E-04 -1.91305885E-04  2.52751246E-04  1.15685906E-09  7.63732319E-11
 -3.17990185E-03  5.34091222E-03  6.61361282E-03  9.73383862E-03  1.95767282E-08
  1.73836644E-03  1.22819653E-03  1.44286327E-03  3.79325423E-09  8.00102669E-04
 -9.81210298E-04 -1.89974371E-04  3.25170681E-04 -8.49901500E-10  3.17921948E-10
 -1.99919135E-02  1.83179762E-03 -1.00033337E-02 -1.62176636E-02  3.58863887E-08
  3.86285463E-03 -2.54708097E-03 -3.91763174E-03  8.32462172E-09  1.52664252E-03
  1.32792162E-03 -2.56135086E-03  5.30765937E-03  2.00307949E-03  1.20456036E-08
 -4.41007280E-03  2.17950383E-03  3.53549384E-04  7.59040957E-09 -2.81985603E-04
  3.82754383E-04  1.04428283E-04  1.14440824E-04 -1.35072505E-09 -5.88770840E-10
 -4.59656420E-04 -7.95589947E-04 -9.04222040E-04 -1.27698599E-02  8.15120014E-09
  9.08952293E-04  2.15729570E-04 -3.15036987E-03  1.36395592E-08 -6.53092350E-04
  9.60933135E-04 -1.36509155E-05  2.74821689E-05  1.20549212E-10  4.44961107E-10
 -1.70631234E-02 -3.11985866E-03  2.32008520E-03  1.28281361E-02  1.29106518E-08
 -3.52654794E-03  7.72929197E-04  3.13493159E-03  1.53616009E-08 -7.33829392E-04
  1.09875293E-03  1.38018246E-04  4.21536246E-05  4.03747768E-04  2.95277792E-05
 -1.29594954E-08 -2.64488459E-05  1.27967094E-04 -3.20058401E-04 -7.51572508E-09
 -1.87864694E-04  1.00981246E-04  4.17639756E-05  4.61098348E-05  8.21319848E-10
  3.50072116E-10  1.89239228E-03 -4.34232670E-03  4.57650682E-03 -4.33446080E-03
 -3.02817757E-08 -2.27906734E-03  8.47146917E-04 -1.12561518E-03 -1.60347457E-08
 -2.40115992E-04  3.64906388E-05  2.88407014E-04  4.02717963E-04  1.26536833E-09
 -1.42518254E-09 -1.12817053E-02 -1.60153788E-02  6.23888305E-04  2.75154064E-04
 -2.54014357E-08 -1.13454722E-02  1.33511463E-03  5.88995878E-04 -1.71683859E-08
 -5.13046051E-05  2.61265722E-04  9.16132029E-04 -4.57806930E-04  1.22888808E-03
 -1.13809731E-03 -8.30925142E-04 -2.25668119E-08  8.73800578E-04 -6.55382286E-04
 -2.13723804E-03 -1.71533902E-08 -3.91499687E-04  5.85282707E-05  2.80318128E-05
  5.27029053E-05  7.48248598E-10  6.56262990E-10  5.51176146E-03 -1.07249258E-02
  9.96106257E-03 -2.65499433E-03 -2.51393115E-08 -1.11143956E-02  4.02135283E-03
 -2.99190256E-04 -1.66619780E-08  4.77904545E-04 -2.45526853E-04  4.21094822E-04
  2.96682541E-04 -5.45174052E-10 -9.58215349E-10 -1.85238127E-03  3.13169269E-03
 -1.79039586E-02  4.54304594E-03  3.58310036E-08  4.67367965E-03 -4.49248653E-03
  9.62719066E-04  6.18277524E-09  4.24306668E-04 -1.53663403E-04 -1.97702619E-04
  1.42531060E-03  1.17263675E-09 -7.15516622E-10  3.10744262E-09  7.39700395E-10
  6.82456949E-03 -1.34816753E-08  5.54587642E-09 -4.95704710E-10  4.36444263E-03
 -2.57842885E-11  8.54581050E-10 -7.48237519E-10  2.39928104E-10 -3.40519182E-04
 -1.09790266E-04  8.87328909E-09 -1.66967618E-08  7.17103534E-09 -2.63014786E-08
  9.88675765E-03 -4.12578597E-09  3.60126309E-09 -6.23489122E-09  6.56281252E-03
 -3.90424750E-09  2.08076853E-09  2.10449826E-09  6.14947138E-10  2.35201012E-05
  2.53279140E-04  2.67891586E-08 -5.55543687E-08  6.06526309E-08  4.41640529E-08
  6.94793647E-03 -5.08202246E-08  2.66953117E-08  1.47783609E-08  4.45300134E-03
 -3.56388412E-09  2.91146538E-09  2.02820338E-09 -2.96644343E-09  3.09077084E-04
  4.19177449E-09 -8.90098683E-09  2.04005953E-08  1.96442668E-08 -9.09326852E-03
  3.42821340E-09  1.18209730E-09  2.09592918E-08 -6.76415180E-03  4.35646311E-10
 -2.31993046E-10  6.48229281E-10 -5.63871088E-10  2.19788144E-04  1.60213728E-04
 -1.19022099E-08  2.36946901E-08 -2.62726986E-08  6.72535277E-09 -7.74237833E-03
  1.52407596E-08 -1.14361028E-08 -7.48369177E-09 -5.79433871E-03 -1.40995903E-09
  1.65714014E-09 -1.20106040E-09 -2.89386920E-10 -3.93173874E-04 -2.08804120E-05
  6.99032070E-09 -1.32673561E-08  5.17654191E-08  1.06773767E-09  3.06514332E-03
 -2.51588286E-09  2.15915703E-08  3.81336873E-09  1.96445892E-03 -1.61694325E-09
  5.08775754E-10  1.01103248E-09 -2.19741298E-09 -1.75969911E-04  6.30323228E-04
 -3.62390460E-03  6.17115787E-03 -6.83440849E-03  5.00086289E-03 -1.81539674E-08
  2.73845473E-02 -1.07465454E-02  7.86370194E-03 -1.98590297E-08  4.02834187E-05
 -1.10498248E-04 -4.37695510E-04 -2.74241260E-04  1.77156828E-09  2.84890023E-11
 -3.19217881E-03  8.62868035E-03 -7.75605918E-03  1.27171516E-02 -5.18000048E-09
 -5.88705381E-03 -7.80463774E-03 -4.46047057E-03 -3.29507819E-08  1.24232097E-03
 -2.01990144E-03  1.38033030E-04  7.69272245E-04 -2.71838342E-09 -1.65265726E-09
  1.70285525E-02 -3.42894439E-02 -9.24405518E-03 -7.92757160E-02  3.13058219E-08
  3.64422309E-03  1.52904391E-03 -1.11417371E-02 -8.11919094E-09  3.05752220E-03
 -6.69708630E-03  1.89243573E-03 -1.06235044E-03 -3.69456902E-09  4.78695449E-09
  2.05262798E+00  6.17115666E-03 -1.28373808E-02  1.47365564E-02 -1.07829837E-02
  1.96292844E-08 -3.95845201E-02  1.46917834E-02 -1.07505079E-02  2.36129176E-08
 -2.81978156E-04  2.45210257E-04  5.15382087E-04  9.58851094E-04 -3.32882877E-09
 -1.81096150E-09  8.62871486E-03 -2.02816699E-02  2.18888418E-02 -3.24913548E-02
  1.45154695E-08 -7.74668016E-03  1.71147846E-02 -2.74650696E-03  6.03425199E-08
 -2.51320682E-03  4.62258173E-03  4.21247982E-05 -1.40423311E-03  3.43072222E-09
  1.07007267E-09 -3.42893752E-02  5.98184373E-02  1.47318104E-02  1.64268661E-01
 -3.01879141E-08  2.52163183E-02  9.86805003E-03  3.70923833E-02  1.47471449E-08
 -7.25608219E-03  1.18014198E-02 -4.34239604E-03  2.55202326E-03  8.58988160E-09
 -9.41711306E-09 -6.34969564E-02  3.29773970E-01  6.83433242E-03 -1.47363891E-02
  4.40150445E-03 -2.90613269E-02 -2.39420771E-07 -4.49116645E-02  1.05007547E-05
 -1.96864488E-02 -2.05369983E-07  1.43520558E-03 -1.39159669E-03  1.31190167E-04
  9.00579770E-04  2.49468460E-09  2.70886724E-09  4.16378697E-03 -9.24092209E-03
  1.35314449E-02 -6.14739813E-03 -4.57862139E-08 -5.09241743E-02  2.77339858E-02
 -1.42587048E-02 -7.14816199E-08  5.14473661E-04 -4.35565846E-05 -9.40386311E-05
 -3.20476041E-04 -2.14381884E-08  9.51101957E-10  7.97976180E-03 -2.08550524E-02
  1.15416442E-02 -3.83919463E-02  3.58264768E-07  1.88407598E-02  3.27782295E-02
 -2.17033137E-02  1.62553807E-07  3.91677179E-03 -2.31015123E-03 -1.16192941E-04
  1.29029248E-02 -1.12743746E-08 -2.36767567E-09  3.46182793E-04  4.84351761E-03
  4.21722708E-01 -5.00096630E-03  1.07832270E-02 -2.90616957E-02 -1.40486115E-02
 -1.18079519E-07  3.28620778E-02 -1.96861973E-02 -1.24885554E-02 -1.20749160E-07
  2.11608228E-03 -2.14795622E-03 -9.59942277E-05  5.01546682E-04  5.46003553E-09
 -3.15510482E-09 -1.43018421E-02  3.80707538E-02 -2.65471067E-02  4.33740441E-02
  7.27994698E-08  2.82761224E-02 -3.60933057E-02 -5.89305013E-03  7.67448265E-10
  4.69817308E-03 -1.12208620E-02  3.93779983E-04  4.85305552E-03 -1.03892476E-08
 -9.96809395E-09  7.94128408E-02 -1.63604063E-01 -3.31672734E-02 -3.14222775E-01
  9.55631739E-08 -1.35038297E-01  9.64256027E-03 -9.09642596E-02 -6.45247278E-08
  1.14581949E-02 -5.19462866E-03  6.30235059E-03 -4.69758755E-03 -9.82624085E-09
  7.42910271E-09 -2.53084873E-04 -3.54496072E-03 -8.20673511E-04  4.21202445E-01
  2.76961890E-08 -9.35540738E-08  2.25639264E-07  2.11361070E-07 -1.32380184E-01
  1.40811330E-07 -5.41433350E-08  3.30345196E-07 -1.08610983E-01  7.23905253E-09
 -3.75995293E-09  7.93203758E-10 -2.76435305E-09 -7.26490799E-04  5.31567424E-04
 -1.25804835E-08  7.47381850E-08 -7.77474280E-08  1.03148151E-08 -1.68923831E-02
 -1.61512488E-07 -5.99249632E-08 -2.46032881E-07 -2.57015451E-02 -2.04024562E-08
  1.67678994E-08  1.08349450E-08  5.22007878E-09 -1.07318519E-02  3.75359806E-03
 -4.04950614E-08  9.16449838E-08  5.02569871E-07  2.49303350E-07  2.14082159E-01
  2.77738065E-07  4.21456405E-07  1.66829712E-07  1.40116570E-01 -6.19200524E-09
  1.44280164E-08 -1.09491016E-08 -4.17349606E-09  9.46897249E-04  1.25218497E-02
  2.17321578E-09 -5.24331628E-09 -1.13273878E-07 -6.28245317E-08  3.29570621E-01
  2.73845436E-02 -3.95845242E-02  4.49117025E-02 -3.28621626E-02  2.46325202E-07
 -6.42787986E-02  2.00913009E-02 -1.47011994E-02  1.76530076E-07  7.74854779E-04
  9.77250382E-04  1.36642826E-03  3.68013309E-04 -1.07556791E-08 -2.15147338E-09
 -5.88732342E-03 -7.74615294E-03 -1.34486521E-02 -5.66737629E-02  1.64228605E-07
  7.98922626E-03  6.25042804E-03 -1.24473564E-02  1.72113557E-07 -3.92232986E-03
  5.19886195E-03 -2.64721566E-05 -2.64808042E-03  9.56965596E-09  1.20800755E-09
  3.64391215E-03  2.52169121E-02  4.73761002E-02  1.27849838E-01 -1.24352284E-07
 -5.40231825E-03  1.92724746E-02  2.29217285E-02 -2.19347093E-08 -8.29950887E-03
  1.09468503E-02 -2.27916790E-03 -5.34668578E-04  2.05473076E-08 -1.02873071E-08
 -1.67205520E-01  2.56521927E-01 -7.80776938E-03  5.71604463E-03 -1.39855244E-07
  2.26590451E-01  1.07466068E-02 -1.46918644E-02  1.04578786E-05 -1.96861261E-02
 -1.43561788E-07 -2.00912736E-02 -1.72535442E-03 -5.61638984E-03 -1.20465219E-07
  1.83501797E-03 -1.25572844E-03  2.99097361E-04 -2.96683043E-05  2.66392998E-09
  3.61116033E-09 -8.55625562E-03  9.51005601E-03 -1.56831882E-02  2.53703511E-02
 -4.79223499E-08 -4.97919789E-03  3.04541378E-03  1.71065147E-03 -7.04980166E-08
  5.88327251E-04 -1.31716924E-03 -3.43774337E-04 -1.47421622E-03 -1.27175442E-08
  2.02599912E-09  3.88381590E-03  1.68027594E-03  2.96101637E-02 -3.61294339E-02
  1.19172958E-07  1.39051398E-02  1.66133532E-02 -1.39052582E-02  7.02896934E-08
  1.81820486E-03 -2.10594312E-03 -2.60308476E-04  2.56961086E-03 -5.55408289E-09
  9.85057843E-09  3.34371417E-03 -2.20001387E-02  1.24757709E-01  4.04624104E-03
  1.45210103E-07 -1.69368788E-02  4.25736082E-02 -7.86361150E-03  1.07503952E-02
 -1.96865678E-02 -1.24884269E-02 -1.25651639E-07  1.47011778E-02 -5.61659784E-03
 -5.29150264E-03 -9.50921902E-08  1.58760763E-03 -2.01147418E-03 -2.18850810E-04
  1.09577959E-03  2.46987204E-09 -2.64973792E-09 -2.75715391E-03  1.44920272E-02
  3.53587295E-03  3.75216922E-02  5.48256873E-08  1.30082608E-02 -4.50741317E-03
  5.59859694E-03  1.33523415E-08  2.19842810E-03 -4.61250269E-03  2.51543071E-05
  1.21993799E-03 -7.78540535E-09 -1.59176125E-09  1.05544555E-02 -3.83462263E-02
 -4.78376650E-03 -8.77954008E-02  1.08853683E-07 -2.65235982E-02  5.11776038E-03
 -2.33866879E-02  3.97877152E-08  3.95121297E-03 -1.73363287E-03  1.38460740E-03
 -1.06175513E-03 -4.46083366E-09  2.56015455E-09 -2.44658794E-03  1.60980306E-02
  4.04461549E-03  1.27324840E-01  3.19791168E-08  1.23941393E-02  2.92015062E-03
  4.44265314E-02  1.84400500E-08 -6.89217635E-08  1.96805441E-07  1.77844636E-07
 -1.08610973E-01  8.57493785E-08 -2.35310899E-08  2.42188838E-07 -8.58488087E-02
  3.05810078E-09 -2.01448112E-09  1.68927616E-09 -6.78626431E-10 -4.96526905E-05
  3.63237380E-05 -8.83578894E-09  4.77499714E-08 -4.93955697E-08 -3.09187043E-08
 -2.57017965E-02 -1.23683146E-07 -3.15933671E-08 -1.79191481E-07 -2.63278154E-02
 -1.45309030E-08  1.54137799E-08  5.09607322E-09  4.91551248E-09 -7.76754969E-03
  2.11341341E-03 -1.72522256E-08  3.64827403E-08  3.34796165E-07  1.86315885E-07
  1.40116403E-01  1.86546751E-07  2.95072856E-07  1.17110019E-07  9.27141649E-02
 -5.45773774E-09  1.00772932E-08 -5.13220750E-09  3.01274305E-09  1.44796243E-04
  8.75351563E-03  7.24326580E-09 -1.13594697E-08  1.01926257E-07 -6.99948172E-08
  2.23026761E-01 -1.18603092E-07  1.46064065E-07  1.64638070E-08  1.52236262E-01
  4.02887974E-05 -2.81987840E-04 -1.43520995E-03 -2.11609236E-03  3.11886939E-09
  7.74827872E-04 -1.83500650E-03 -1.58760678E-03  9.28060768E-10 -1.17536945E-06
  1.23917571E-04 -1.98652957E-05 -2.73528159E-04  9.73867664E-11 -2.74869492E-10
  1.26173075E-04  1.68387357E-04  1.02697312E-04 -1.83483701E-04  4.24089783E-09
 -1.23044066E-03 -1.50459464E-03 -9.58755114E-04  1.76649715E-09  2.00997834E-04
 -4.16986226E-04  5.15106375E-05  2.40884783E-04  2.66186473E-10 -6.60499762E-10
  2.99405927E-03 -7.30506636E-03 -3.68811428E-03 -1.18820743E-02  4.16704210E-10
 -7.21946826E-03 -1.85712571E-04 -4.13122823E-03 -7.99860628E-09  4.78907425E-04
 -1.19011351E-04  2.58085169E-04 -5.09025216E-05 -3.21105927E-10 -3.70221913E-10
 -1.91847439E-02  4.67140363E-04  6.77256013E-04  1.67748929E-02 -1.04848772E-08
  1.82637443E-03  1.00068122E-04  4.01444056E-03 -9.23493262E-09  1.22627375E-03
 -1.10503652E-04  2.45219934E-04  1.39160065E-03  2.14796343E-03 -1.92766115E-09
  9.77274906E-04  1.25573190E-03  2.01149253E-03 -6.49293377E-10  1.23916118E-04
 -1.49486061E-04 -5.61071013E-06  3.78883751E-06  1.88564083E-10  4.82595119E-10
 -9.03838055E-04  1.94115822E-03 -4.60283505E-03  4.92893921E-03 -8.52547523E-09
  2.50703775E-03 -7.69777422E-04  2.04798176E-03 -8.32209258E-09  4.15500860E-05
  1.07877169E-04 -1.38397035E-04 -4.23634334E-04 -5.26279177E-10  6.88375983E-10
 -6.63371399E-03  1.18505882E-02  3.91376982E-03  5.41959339E-03 -1.27301952E-08
  9.86689118E-03 -5.71060363E-04  2.02699835E-03 -7.73438387E-10 -1.92862565E-04
 -4.02929737E-05 -4.61717970E-04 -2.09067403E-04 -1.17750028E-09  8.30267823E-10
 -1.78703468E-02 -1.75508012E-03 -7.45417926E-03 -1.18158647E-02  2.00879991E-08
 -1.49000132E-03 -1.66493941E-03 -2.86930483E-03  1.16925932E-08 -5.51389236E-04
  1.03424606E-03 -4.37695719E-04  5.15382376E-04 -1.31192257E-04  9.59933901E-05
 -5.18426931E-09  1.36642831E-03 -2.99093494E-04  2.18856329E-04 -4.01384349E-09
 -1.98658289E-05 -5.61019670E-06 -1.25950763E-07  2.59294299E-05 -3.09178420E-10
 -5.21722974E-10  1.38024391E-04  4.21359366E-05  2.27492037E-04 -3.34901745E-04
  8.14306103E-09 -2.64282666E-05 -2.13193053E-04 -2.70828595E-04  4.87146445E-09
  6.33576149E-05 -1.50235592E-04  4.17657812E-05  1.21376461E-04 -5.80183877E-10
  4.40941572E-11  1.89243194E-03 -4.34239514E-03 -1.46558513E-03 -6.13071789E-03
  1.76102362E-08 -2.27911596E-03 -5.51277004E-04 -1.29648994E-03  1.05683957E-08
  2.69380741E-04 -4.73006115E-04  2.88413867E-04 -6.30545383E-05  2.06921143E-10
  2.30333723E-10 -1.12816478E-02 -1.60154515E-02  5.50214064E-04 -4.02579205E-04
  2.01276826E-09 -1.13456286E-02  1.17756901E-03 -8.61664654E-04  2.62658281E-09
  3.48397192E-05  1.75116880E-04  9.16139388E-04 -2.74240382E-04  9.58850099E-04
 -9.00559929E-04 -5.01516183E-04 -3.55227757E-09  3.68009995E-04  2.96750893E-05
 -1.09577486E-03 -2.94764990E-09 -2.73524274E-04  3.78531250E-06  2.59295799E-05
  3.20726298E-04  1.44913112E-09  2.15385622E-09  1.94565835E-03 -4.23059788E-03
  7.28286132E-03 -6.25285865E-03 -3.83433709E-08 -5.48522811E-03  3.62239884E-03
 -2.00473743E-03 -2.65245815E-08  1.88351049E-04  1.12187155E-04  1.33852121E-04
  2.67195155E-04  7.81639833E-10 -8.59165560E-10 -1.39572622E-03  2.29413568E-03
 -1.29645872E-02  2.60645619E-03  5.12390973E-10  5.14244517E-03 -3.11778872E-03
  1.10618183E-03 -1.39326514E-08  3.56084887E-04 -2.27810023E-04 -1.22386434E-04
  1.17827694E-03 -2.89490779E-09 -1.64574081E-09  2.39058094E-03 -4.04169750E-03
  1.81666406E-02 -6.96310577E-03 -2.59804379E-08 -6.03147224E-03  4.59003747E-03
 -1.86050791E-03 -7.95999460E-09 -3.41999738E-04 -7.27114579E-06  2.55135985E-04
  1.66856084E-03 -2.96207616E-11  7.16322517E-10  3.84040089E-09  2.27186090E-09
  7.26481142E-04  6.15578656E-09 -1.38713499E-09  2.49702019E-09  4.96353498E-05
 -1.26367241E-10 -2.28372474E-10  3.06874083E-10 -1.03687995E-09  1.59312356E-04
  4.01460696E-04 -1.51596232E-09  2.44760134E-09 -4.12461252E-09  4.72188265E-09
 -4.46269202E-03 -4.37248491E-09 -1.20673934E-09 -2.03681139E-09 -3.67568462E-03
  2.27123012E-10  3.35445048E-10 -1.86977371E-10 -3.52125074E-10  8.26609751E-05
  2.45377290E-05 -3.18286677E-11  1.84389985E-09  2.80537516E-09  4.38687490E-09
 -1.76162201E-03  1.17908227E-08 -1.28051062E-09  2.04736706E-09 -1.73656866E-03
 -1.60873590E-10 -1.09809265E-09  1.59794680E-10  6.73468154E-10 -7.03572163E-05
  3.38979742E-04  1.30551047E-08 -2.99468373E-08  2.14406084E-08 -2.21308509E-08
  6.12858036E-03 -2.58440870E-08  1.43176306E-08 -9.70855821E-09  3.92787521E-03
 -8.74267948E-10  7.82938708E-10  9.63168190E-10  1.94158975E-09  3.97616524E-04
  7.52289545E-11  6.11436789E-10  3.16451997E-09 -2.45552055E-09 -5.31571779E-04
  7.43863319E-09  3.62908652E-10 -3.73897173E-09 -3.63406584E-05 -8.43976401E-11
 -4.01825886E-10  8.75620046E-10 -1.67157626E-09  4.01460376E-04  4.14180830E-04
 -5.14440174E-09  1.19301823E-08 -1.39395050E-08  2.02909331E-08 -1.04569741E-02
  1.74001625E-08 -9.64317865E-09  1.08530702E-08 -7.16183647E-03  1.52309447E-09
 -1.01368789E-09 -1.59715041E-09 -5.49431481E-10  3.54124304E-04 -2.62965897E-04
  6.28152856E-09 -1.26712588E-08 -5.94790703E-09 -1.96093915E-08 -1.24334346E-02
 -1.34027440E-08 -1.61997320E-08 -8.58831653E-09 -8.58074106E-03 -5.25065638E-10
 -7.96542030E-10  1.43366249E-09 -1.79138490E-09 -3.07485843E-04  7.30007868E-05
 -3.42585152E-09  5.05790104E-09 -3.32876720E-08  3.16970445E-08 -4.48455515E-03
  7.88701658E-09 -7.59691766E-09  5.93926226E-09 -2.87416794E-03  1.62983845E-09
 -2.29591052E-10 -1.09299798E-09 -1.49291506E-09  2.27080563E-04  5.41783465E-04
 -3.19218062E-03  8.62870359E-03 -4.16378203E-03  1.43017798E-02  3.12977477E-09
 -5.88725135E-03  8.55608192E-03  2.75699942E-03  5.39183895E-09  1.26177359E-04
 -9.03833565E-04  1.38021524E-04  1.94567100E-03 -1.25127794E-10  1.07054591E-09
 -3.62393579E-03  6.17129301E-03  9.13905097E-04  8.41932527E-03  2.12018234E-08
  2.73846700E-02  1.43686175E-03  1.32385148E-02  2.58515065E-08 -2.78451278E-04
  2.08288593E-04 -4.37665624E-04  6.17221573E-05  5.86924911E-10  3.06152465E-09
 -3.19217192E-03  8.62876206E-03  7.13534393E-03  1.30755411E-02 -7.33077774E-09
 -5.88700852E-03 -7.76546082E-03  4.52888515E-03  2.87168471E-08 -6.27391394E-04
 -1.50197540E-04  1.38058281E-04 -2.01575433E-03  2.66640305E-09  2.21749135E-09
  1.70286043E-02 -3.42894800E-02 -7.32768220E-02 -3.16322861E-02  6.41284152E-08
  3.64307128E-03 -8.88490512E-03 -6.89498899E-03  9.82514907E-09 -5.05523730E-03
  1.41565410E-03  1.89241783E-03 -4.34608312E-03  2.81125257E-09  3.06212386E-09
  2.05262793E+00  8.62870228E-03 -2.02816863E-02  9.24090906E-03 -3.80706356E-02
  2.44833727E-08 -7.74635914E-03 -9.50973535E-03 -1.44917840E-02  1.16258734E-08
  1.68381028E-04  1.94115497E-03  4.21421508E-05 -4.23062358E-03 -6.33155573E-10
 -1.38949139E-09  6.17129423E-03 -1.28378308E-02 -1.97069951E-03 -1.81542010E-02
 -1.45237921E-08 -3.95850862E-02 -1.96441969E-03 -1.80985890E-02 -2.44628160E-08
  8.32487488E-04 -8.69342781E-04  5.15325117E-04 -2.15802870E-04  4.56015384E-11
 -4.52547761E-09  8.62878894E-03 -2.02820409E-02 -1.71941018E-02 -3.52023292E-02
  2.68758210E-08 -7.74702671E-03  6.17934340E-03 -1.61954403E-02 -4.42585367E-08
  1.78546575E-03  3.23937935E-04  4.20743789E-05  4.27004049E-03 -4.72905827E-09
 -5.44930522E-09 -3.42895500E-02  5.98186949E-02  1.49627176E-01  6.93766336E-02
 -1.39104955E-07  2.52185754E-02  3.70578770E-02  1.00001427E-02 -3.63403728E-08
  8.95117333E-03 -4.40580455E-03 -4.34237169E-03  8.25263446E-03 -3.69429798E-09
 -4.78537587E-09 -6.34972075E-02  3.29775042E-01  7.75611159E-03 -2.18889354E-02
  1.35313917E-02 -2.65470670E-02  9.54997956E-08  1.34487207E-02 -1.56828659E-02
  3.53633674E-03  9.81485172E-08 -1.02741651E-04  4.60286242E-03 -2.27488748E-04
 -7.28292319E-03 -8.47831449E-09 -1.25932593E-08 -9.13773036E-04  1.97039076E-03
 -3.46043849E-02  6.54184628E-03  1.05899014E-07  6.00447166E-03 -2.64129540E-02
  4.43058748E-03  8.31801750E-08 -6.16019434E-04  6.10230570E-04 -1.75217517E-05
 -2.99543862E-03  7.57781165E-09  7.66571431E-10 -1.03039773E-02  2.83502824E-02
  2.17566738E-02  3.12962535E-02 -1.43176883E-07 -9.73624518E-04 -1.92900607E-02
  8.94522377E-03 -1.02287409E-08 -3.19103191E-03 -2.22224736E-03  2.94074111E-04
 -9.05390175E-03  1.29083592E-08  8.56094416E-09  7.27632688E-02 -1.52111927E-01
 -2.63766859E-01 -1.25782925E-01  2.43450190E-07 -1.07527569E-01 -6.52516116E-02
 -6.62387915E-02  4.66610882E-08  5.17375967E-04  5.71032112E-03  5.39995128E-03
 -9.95908790E-03  7.65166455E-09  8.75879938E-09 -4.62541384E-05 -6.47787548E-04
  4.20620762E-01 -1.27171934E-02  3.24914469E-02 -6.14733841E-03  4.33740616E-02
  6.19156093E-09  5.66741774E-02  2.53700934E-02  3.75215572E-02  7.56133416E-09
  1.83484943E-04 -4.92894116E-03  3.34898729E-04  6.25290719E-03  8.87347811E-09
  2.32010892E-08 -8.41933971E-03  1.81542339E-02  6.54221516E-03  2.49574537E-02
 -2.20356632E-07  5.53264247E-02  4.43163554E-03  1.39343576E-02 -1.85509360E-07
 -3.44589946E-04  2.91054736E-04 -1.61522996E-04  4.22609944E-04  2.06653866E-09
  8.20824097E-09 -1.07568519E-02  2.70384770E-02  1.08960868E-02  3.51492473E-02
 -4.29820028E-08  5.82393436E-02 -1.28906566E-02  4.11299432E-02  1.79665264E-08
 -1.67559988E-03 -1.99357118E-03  2.78396609E-04 -5.09016970E-03 -1.13927495E-09
  2.64912383E-08  3.27953851E-02 -6.37401353E-02 -1.20557199E-01 -3.89129362E-02
  4.45796693E-07 -8.38372896E-02 -3.48952727E-02  7.06498916E-03  2.98399547E-07
 -1.00056598E-02  1.17458318E-02  3.25172402E-03  5.29472994E-03  1.12096217E-08
 -3.48563459E-09 -4.26301458E-04 -5.96831077E-03  1.84515382E-04  4.22303852E-01
  1.06395946E-08 -3.56671570E-08  6.86087317E-08 -7.17647743E-08 -1.68923191E-02
  1.56614302E-07 -9.97688030E-08  2.62620089E-08 -2.57019619E-02  1.55759677E-09
 -6.32101846E-09  1.02861010E-08 -3.00296210E-08  4.46265344E-03  1.04569163E-02
 -2.25280081E-08  9.41316213E-08 -4.33956927E-08  1.51011660E-07 -1.32380634E-01
 -1.27620813E-07 -6.44454880E-08 -1.06101566E-07 -1.08611246E-01  1.30083349E-08
 -5.19516494E-09 -3.84010939E-09 -2.64314060E-09  9.71854479E-05  8.94969296E-04
 -3.56222116E-10 -2.40102622E-08 -5.22567965E-08 -5.46960902E-08 -1.68923116E-02
  1.81429780E-07  1.80149260E-09 -2.09003421E-08 -2.57014044E-02  4.50234072E-09
 -1.07483689E-08  1.37402981E-09  1.43159050E-08 -2.11527129E-03  1.11709645E-02
  1.22680544E-08 -5.62268692E-08  2.51191665E-07  1.56336892E-07  2.14083654E-01
 -8.76426392E-08  2.71540245E-07 -3.83504811E-09  1.40118238E-01  1.68749356E-08
 -1.36969321E-09 -1.10071880E-08  9.08791342E-09  1.13176796E-02  5.44074540E-03
 -8.61462817E-09  3.45864290E-08  6.13899624E-09 -1.23519179E-07  3.29570213E-01
 -5.88714359E-03 -7.74645598E-03  5.09236757E-02 -2.82759130E-02 -1.64104604E-07
  7.98924165E-03  4.97938581E-03 -1.30080697E-02 -1.14109114E-07 -1.23047675E-03
  2.50704644E-03 -2.64358190E-05 -5.48525633E-03  3.60490554E-11 -5.55047794E-09
  2.73846444E-02 -3.95850299E-02 -6.00438137E-03 -5.53263860E-02 -2.24302541E-07
 -6.42784147E-02 -2.68595469E-03 -2.47496226E-02 -1.38719938E-07  1.20258739E-03
  5.49458018E-04  1.36636956E-03 -8.27811717E-05 -6.10411806E-09 -1.09637468E-08
 -5.88716628E-03 -7.74670921E-03 -5.58052551E-02 -1.66900393E-02  2.60482337E-08
  7.98927891E-03 -7.65374458E-03 -1.16366948E-02 -4.75176881E-08  9.32411836E-04
  3.44087320E-04 -2.65110105E-05  5.88459324E-03 -1.35364402E-08 -6.05792772E-09
  3.64358925E-03  2.52175305E-02  1.34408875E-01  2.28968454E-02 -1.47441384E-07
 -5.40021571E-03  2.94873443E-02 -5.22920164E-03 -1.99724518E-08  5.73420176E-03
 -3.08691147E-03 -2.27914457E-03  9.89044130E-03 -2.64527396E-09 -8.54188654E-09
 -1.67204909E-01  2.56521381E-01  1.04520485E-03  9.62138869E-03 -8.96758161E-08
  2.26588872E-01  7.80487417E-03 -1.71151937E-02  2.77338269E-02 -3.60938199E-02
  2.23478051E-08 -6.25072840E-03  3.04541468E-03 -4.50736406E-03  2.70918689E-08
  1.50459187E-03  7.69798430E-04  2.13206034E-04 -3.62242380E-03 -6.80968558E-09
 -6.41311824E-09 -1.43696279E-03  1.96454596E-03 -2.64130018E-02  4.43149095E-03
  8.52921142E-08  2.68597687E-03 -9.26412395E-03  1.26372030E-03  6.12503949E-08
 -5.03702371E-04  4.26270528E-04 -3.99736566E-05 -2.79822944E-03 -8.23418422E-10
  1.37529062E-09 -6.66576369E-03  1.73053487E-02  3.67375834E-02  2.67282559E-02
 -2.69813689E-08  8.77594068E-03  3.74939693E-03  4.91375012E-03  3.89589062E-08
 -2.70074070E-03  2.45713274E-04 -1.50097199E-04 -3.58525488E-03  9.24044955E-09
  5.85230789E-09  1.10820607E-02 -3.23682215E-02 -7.61586101E-02 -5.62816779E-02
  1.34864845E-07 -1.60175607E-02 -1.71913754E-02 -2.46347202E-02  5.63287615E-08
 -5.58997680E-04  2.33561246E-03  1.06893116E-03 -3.62526217E-03  2.30357173E-09
  3.50341579E-10 -4.47256175E-04  2.94191067E-03  1.30185572E-01 -9.11940534E-04
  1.66000851E-09  2.26525834E-03  4.64918528E-02  4.46051493E-03  2.74639138E-03
 -1.42585123E-02 -5.89313571E-03  8.41441260E-08  1.24472966E-02  1.71068107E-03
  5.59859239E-03  4.65348974E-08  9.58767717E-04 -2.04798865E-03  2.70837975E-04
  2.00476092E-03  8.90090234E-09  2.19657812E-08 -1.32384746E-02  1.80985227E-02
  4.43061710E-03  1.39343162E-02 -1.67305764E-07  2.47495962E-02  1.26392218E-03
  2.24683971E-03 -1.56376158E-07  2.92702196E-04 -1.00623949E-03 -3.68412180E-04
  1.51798345E-04  6.56826639E-09  2.92020868E-09  6.03147197E-03 -9.90159477E-04
  4.89423128E-03 -1.48995129E-02 -1.04773100E-07  1.08155959E-02 -1.30449700E-03
  4.89416400E-03 -8.88648983E-08  6.88314941E-04 -1.26411599E-03  3.10320323E-04
 -1.82090544E-03 -3.25827266E-09  1.67213543E-08  1.91357759E-03 -2.06278671E-02
 -2.49353957E-02  1.79754862E-02  2.64515611E-07 -2.53042570E-02 -5.61216979E-03
  1.04184593E-02  1.66785866E-07 -1.24909863E-03  2.60702752E-03  9.17705801E-04
  1.65613136E-03  1.56643924E-08  9.25144157E-09 -4.11978591E-03  2.71028707E-02
 -9.11849250E-04  1.21893531E-01  3.51787527E-07  2.08665563E-02 -6.58113845E-04
  4.05065772E-02 -1.79755269E-08  2.29113642E-08  8.60199140E-08  4.71403743E-08
 -2.57012665E-02  1.76556615E-07 -3.31653174E-08  7.12437063E-08 -2.63277672E-02
 -1.48652155E-09 -7.49607189E-09  7.70167938E-09 -1.84665592E-08  3.67565501E-03
  7.16179832E-03 -1.09563828E-08  6.47927365E-08 -4.48634267E-08  1.44356546E-07
 -1.08611217E-01 -5.51316263E-08 -4.76051740E-08 -4.15019857E-08 -8.58490208E-02
  1.01019320E-08 -5.31544157E-10 -5.47192252E-09 -2.06348415E-09  6.68171679E-06
  6.11991514E-05 -2.61660156E-08  3.58763811E-08 -3.19426615E-08  4.12630092E-08
 -2.57012539E-02  1.95342358E-07 -2.53427537E-08  2.98397651E-08 -2.63273771E-02
 -1.38021707E-09 -9.19543607E-09  1.61829739E-09  7.89180614E-09 -2.05354155E-03
  7.78371262E-03  4.53832826E-08 -9.17867755E-08  9.98297708E-08 -4.11581137E-09
  1.40118279E-01 -1.44930288E-07  1.60151790E-07 -2.25145689E-08  9.27159148E-02
 -5.29427397E-11  1.05952502E-08 -5.09079723E-09  1.31994329E-08  7.65317077E-03
  4.25125715E-03 -5.00466359E-09 -8.87062767E-09 -7.31263398E-09  2.41925323E-07
  2.23027026E-01 -4.64135696E-08 -4.44444007E-09  3.19017023E-07  1.52236772E-01
  1.24230587E-03 -2.51318040E-03 -5.14464308E-04 -4.69809978E-03 -1.30282254E-08
 -3.92229781E-03 -5.88334739E-04 -2.19840530E-03 -8.38515097E-09  2.00996175E-04
  4.15525622E-05  6.33568610E-05  1.88350607E-04 -2.18359593E-10 -1.19360823E-09
 -2.78450258E-04  8.32486295E-04  6.15990887E-04  3.44592598E-04  1.45369152E-08
  1.20258256E-03  5.03683972E-04 -2.92703176E-04  1.21759725E-08  4.44048187E-05
 -2.35193894E-04  1.02764769E-05 -7.03952443E-05 -6.92459492E-10 -5.45950537E-10
  8.12931384E-04 -1.67504109E-03  1.18111862E-04 -2.28239633E-03  7.14546675E-09
 -2.54129178E-03  7.02141074E-04 -1.63070525E-03  4.89380507E-09  5.84423088E-05
  2.25036399E-04  9.47019076E-06 -5.23757195E-05  1.23761569E-10 -1.12882699E-09
 -5.27351230E-03  8.78216666E-03 -1.21450270E-03  8.20164728E-03 -1.66835663E-08
  9.45207686E-03 -2.65861656E-04  3.09471245E-03 -1.39134262E-08  4.23064734E-04
 -4.11746596E-04 -3.73553156E-04 -5.93568551E-04 -2.25509528E-09  5.99277399E-10
 -1.64060504E-02 -4.23065369E-03 -4.46351683E-03 -1.20498479E-02 -1.39174735E-08
 -5.18435905E-03 -1.09345045E-03 -3.19343092E-03 -2.19887340E-08  1.25376058E-03
 -2.01989788E-03  4.62257179E-03  4.35568236E-05  1.12208082E-02  8.55549207E-09
  5.19886038E-03  1.31716073E-03  4.61247060E-03  6.49306225E-09 -4.16985464E-04
  1.07875174E-04 -1.50236389E-04  1.12187002E-04 -1.97608650E-10  1.01243879E-10
  2.08286629E-04 -8.69339780E-04 -6.10197792E-04 -2.91056475E-04 -4.82576473E-09
  5.49463893E-04 -4.26275411E-04  1.00624519E-03 -2.02782489E-09 -2.35194132E-04
  5.23148176E-04 -3.57448061E-05  1.31112866E-04  3.23398953E-10  9.69013672E-10
 -1.59048700E-03  3.78437735E-03  1.74122937E-03  8.55204783E-03 -1.05002009E-09
  3.81770650E-03 -8.96133770E-04  4.14489210E-03  6.01575980E-09 -3.66690151E-04
  1.66497998E-05 -9.63431248E-05 -1.32086096E-04  6.81110084E-10  8.32811678E-10
  1.63403832E-03 -4.23700858E-03 -4.26966427E-03 -1.16280495E-02  1.40340171E-08
 -6.80493263E-03 -1.93493585E-03 -3.49142768E-03  1.19481810E-08 -6.65998076E-04
  7.81423834E-04  1.69935780E-04  5.00875896E-04  5.41065536E-10 -1.51739445E-09
 -2.06489375E-02  2.94256871E-03  5.36999519E-03  2.03985280E-02 -3.03832506E-08
  5.52068546E-03  1.30274750E-03  5.12122652E-03 -1.10763664E-09 -9.84853987E-04
  1.87367973E-03  1.38036295E-04  4.21174998E-05  9.40414153E-05 -3.93786025E-04
  1.31804487E-08 -2.64672758E-05  3.43761524E-04 -2.51588547E-05  8.01502780E-09
  5.15108787E-05 -1.38395833E-04  4.17658591E-05  1.33852078E-04 -3.08351467E-12
  1.01181106E-09 -4.37665438E-04  5.15324803E-04  1.75221591E-05  1.61523380E-04
  1.95627467E-09  1.36637288E-03  3.99665087E-05  3.68415185E-04  6.03298119E-11
  1.02763821E-05 -3.57446797E-05 -1.19755781E-07 -5.83316777E-06  4.93595073E-10
  3.25949547E-10  1.38070638E-04  4.20498637E-05 -1.76387634E-04 -3.64580722E-04
 -1.11935919E-09 -2.65052633E-05 -3.41175616E-04  4.91758094E-05 -1.28775442E-09
 -5.80263373E-06 -8.10731600E-05  4.17716390E-05 -1.67480679E-04  2.43996848E-10
  5.21750940E-10  1.89243213E-03 -4.34239037E-03 -6.04206792E-03 -1.79596623E-03
  1.37606803E-08 -2.27920547E-03 -1.39846038E-03 -1.70779357E-04  5.56696392E-09
 -3.34692513E-04  1.31066330E-04  2.88412164E-04 -3.39659838E-04  1.12438845E-09
  6.04082675E-10 -1.12816973E-02 -1.60153440E-02 -7.35814881E-05 -6.77946229E-04
  2.34668321E-08 -1.13454688E-02 -1.57478950E-04 -1.45073264E-03  1.56321070E-08
  3.31397072E-04 -1.21436726E-04  9.16129573E-04  7.69273735E-04 -1.40423491E-03
  3.20502897E-04 -4.85302470E-03  3.34772305E-09 -2.64805638E-03  1.47421332E-03
 -1.21992019E-03  3.33349249E-09  2.40885316E-04 -4.23633390E-04  1.21377127E-04
  2.67197082E-04  8.68866393E-11  8.21551613E-10  6.17277380E-05 -2.15812723E-04
  2.99544555E-03 -4.22614213E-04  9.40637097E-10 -8.28130983E-05  2.79823157E-03
 -1.51810396E-04  2.54705634E-10 -7.03982418E-05  1.31117155E-04 -5.83250575E-06
 -1.58096289E-04  2.36922747E-10  2.29476386E-10 -1.48781862E-03  3.00163657E-03
  1.92412037E-03  8.03246767E-03  1.86393677E-09  4.61138478E-03  1.44815675E-03
  2.50326463E-03  1.87614612E-09 -2.38112780E-04  2.70541350E-04 -1.61882324E-04
  4.23037845E-04  1.81410451E-10 -5.69836668E-10 -4.11594123E-03  8.43054238E-03
  1.15046002E-02 -5.23177018E-03 -9.32642070E-09  5.97180955E-03  2.87069912E-03
  7.97130339E-05 -7.95407020E-10 -5.14705953E-04  1.54049766E-04 -2.98710199E-04
  6.67709391E-04  5.61377319E-11 -1.25878119E-09 -5.38160044E-04  9.09849137E-04
 -1.59393340E-02  5.98112070E-03 -9.20271655E-09  1.35777215E-03 -3.76381789E-03
  1.49613531E-03 -4.76855403E-10 -8.23302119E-05  1.60942836E-04 -5.74416240E-05
  1.09060185E-03 -1.50263032E-09  5.80016432E-09 -1.86426772E-08 -1.53507118E-08
  1.07319233E-02 -3.39535374E-09 -1.59234717E-09 -1.97187173E-08  7.76759953E-03
 -4.56859498E-10  3.91024961E-10 -4.10736821E-12 -3.18794909E-10  8.26610375E-05
  3.54123806E-04  7.00661418E-10 -2.77849915E-09  7.74016026E-09  1.32035605E-11
 -9.71671466E-05  6.99730507E-09  3.08770040E-09  9.96132759E-09 -6.65032299E-06
  1.14332122E-09 -1.03671751E-09 -2.22590507E-10 -3.65265135E-10  6.98140209E-04
 -9.03676689E-05  7.32054646E-10 -3.14841571E-09 -3.14043947E-08 -7.52418343E-09
 -1.12872606E-02 -9.16102334E-09 -2.61475195E-08 -6.49229095E-09 -8.04009493E-03
  3.55145203E-10 -1.09641092E-09  3.80503843E-10  5.39443183E-11 -1.25969267E-05
 -4.09114229E-04  4.57200160E-09 -9.60592322E-09 -8.29631392E-09 -3.33920292E-09
 -1.16484144E-02  1.45454508E-09 -5.51568218E-09 -6.39503433E-09 -8.29937510E-03
  7.15606259E-10 -5.33158802E-10 -1.41251998E-10  1.22388367E-09  5.07958879E-05
  3.77434065E-04 -8.68385386E-10  3.13744586E-09  1.15350903E-08 -1.81160852E-08
 -8.19441538E-04 -3.53087357E-09 -1.60280029E-10  9.54494154E-10 -5.25192717E-04
  3.07058800E-10 -1.19502864E-09  3.90271280E-10 -4.88835586E-10  7.02400099E-04
  3.17407775E-09 -6.76567333E-09 -1.10590929E-09 -1.35959754E-08 -3.75361240E-03
 -1.19800085E-08 -1.70492239E-09 -6.36074594E-09 -2.11342033E-03  6.28753278E-10
 -1.91237897E-10  2.26131761E-10  3.18519262E-10  2.45375227E-05 -2.62966188E-04
 -1.88833587E-09  3.47495517E-09  2.49198088E-09  5.85813379E-09 -8.94965855E-04
  4.29286667E-09  1.37194171E-09  3.90688453E-09 -6.11980851E-05  5.77162171E-10
 -8.68052022E-10 -5.60647727E-10 -4.93913579E-11 -9.03675196E-05 -1.24643706E-04
  2.61534568E-09 -5.53467831E-09 -2.49464203E-09 -1.56004870E-08 -1.36369125E-03
 -1.24853877E-08  9.51091650E-10 -8.64316178E-09 -3.97693874E-04  6.22448544E-10
 -5.09354345E-11  3.84831801E-10  4.17465693E-11 -7.95325647E-05 -1.67706958E-04
 -2.05432305E-09  5.15503467E-09 -2.17558409E-09  1.45113487E-08 -4.69101584E-03
  1.24846737E-08 -2.85993372E-09  5.88365592E-09 -2.78640530E-03  5.62269312E-10
 -1.66557662E-09  2.42522695E-10 -2.21572302E-09 -2.69025258E-04 -4.81486887E-05
  2.08677893E-08 -4.39827615E-08 -1.30896921E-08 -6.46604712E-08 -7.54961232E-03
 -3.35008352E-08 -4.19747236E-09 -3.06182738E-08 -4.83862125E-03  3.54871755E-09
 -4.20875549E-09  1.56392068E-09 -6.61592800E-10 -5.11168571E-05  2.36993099E-04
  1.70287152E-02 -3.42897250E-02 -7.97985904E-03 -7.94131453E-02 -3.75106854E-08
  3.64377326E-03 -3.88389063E-03 -1.05543150E-02 -1.00145925E-08  2.99407856E-03
 -6.63367966E-03  1.89244992E-03 -1.39572882E-03  4.22979859E-10 -2.16637044E-10
 -3.19216905E-03  8.62880197E-03  1.03040269E-02  1.07568762E-02  1.07071486E-08
 -5.88724761E-03  6.66597862E-03 -6.03157772E-03 -1.62823343E-08  8.12914678E-04
 -1.59048089E-03  1.38073582E-04 -1.48781252E-03 -2.11999237E-11 -2.11317729E-09
 -3.62388363E-03  6.17115613E-03  7.74810818E-03  3.41827428E-03 -2.93766691E-09
  2.73847260E-02  1.21834505E-02  5.37490414E-03 -1.60113421E-08  1.32916563E-04
 -2.03084794E-04 -4.37668562E-04  2.12514368E-04 -1.48363309E-09 -4.70056869E-10
 -3.19218097E-03  8.62868930E-03  1.48913568E-02  3.58428562E-04 -2.33862273E-09
 -5.88730211E-03  3.92700314E-05  8.98933107E-03  1.41602763E-08 -1.78131644E-03
  1.00369776E-03  1.38021658E-04  1.24647372E-03  2.58070726E-11 -1.81894055E-09
  1.70285254E-02 -3.42895344E-02 -6.40326026E-02  4.76435381E-02 -5.18678825E-08
  3.64387469E-03 -1.04137181E-02  4.24660708E-03  1.97023817E-08 -3.46168100E-03
 -1.77918977E-04  1.89238608E-03  5.40851027E-03 -9.31312928E-09  2.64259994E-09
  2.05262800E+00 -3.42897961E-02  5.98190952E-02  2.08552240E-02  1.63604532E-01
  7.04726374E-08  2.52172407E-02 -1.68004837E-03  3.83460224E-02  1.01849870E-08
 -7.30510324E-03  1.18505258E-02 -4.34242902E-03  2.29414175E-03 -1.11218034E-09
 -1.63604327E-09  8.62873334E-03 -2.02820192E-02 -2.83503606E-02 -2.70385082E-02
 -4.29003183E-08 -7.74647126E-03 -1.73057087E-02  9.90377354E-04  1.20298872E-08
 -1.67501023E-03  3.78435963E-03  4.20429921E-05  3.00162161E-03 -2.47732859E-10
  1.81448138E-09  6.17115531E-03 -1.28374824E-02 -1.67068324E-02 -7.37050678E-03
 -1.20615031E-08 -3.95850265E-02 -1.66561283E-02 -7.34810739E-03  8.19303229E-09
 -6.05801873E-04  5.68957335E-04  5.15328400E-04 -7.43009694E-04  2.14601776E-09
  6.29778121E-10  8.62864210E-03 -2.02814895E-02 -3.90823898E-02 -2.71078576E-03
 -7.39467826E-10 -7.74616354E-03 -1.09357235E-02 -1.34487495E-02 -2.58938163E-08
  3.89185419E-03 -1.78241775E-03  4.21412138E-05 -2.86576272E-03 -5.34787476E-10
  3.45054816E-09 -3.42895211E-02  5.98190749E-02  1.34894774E-01 -9.48934007E-02
  8.81282762E-08  2.52172935E-02  2.71892361E-02 -2.70921670E-02 -2.69396129E-08
  5.12304160E-03 -5.77631874E-04 -4.34231281E-03 -1.08048339E-02  1.65417587E-08
 -4.09745509E-09 -6.34971998E-02  3.29774939E-01  9.24404862E-03 -1.47317904E-02
  1.15423739E-02 -3.31671361E-02 -4.01721643E-07 -4.73757182E-02  2.96099050E-02
 -4.78388961E-03 -2.75880666E-07  3.68814353E-03 -3.91378144E-03  1.46559140E-03
  1.29646449E-02  3.07706528E-09 -1.94962901E-09 -7.13534683E-03  1.71941069E-02
  2.17566795E-02  1.08961104E-02  3.10077047E-08  5.58049323E-02  3.67375635E-02
  4.89415925E-03  4.03418726E-08 -1.18122931E-04 -1.74121192E-03  1.76390127E-04
 -1.92413237E-03 -2.52316842E-08 -1.05548205E-09 -7.74816458E-03  1.67069729E-02
  1.57322475E-02  2.25200184E-02  2.97147593E-07  5.09161608E-02  7.68521331E-03
  1.52548333E-02  2.55063133E-07 -5.82525316E-04  5.33192632E-04 -1.48659932E-04
  1.14763852E-03 -4.82915866E-09 -2.20569407E-09 -1.44676955E-02  3.75908195E-02
  5.00704961E-02  5.45115752E-03 -2.63565271E-08  4.99486463E-02  2.43160395E-02
  3.80661882E-02  2.85946930E-08 -9.59131770E-03  3.70695225E-03  3.88021388E-04
  4.57209169E-03 -1.71891389E-08 -2.14243647E-08  6.47835792E-02 -1.31258140E-01
 -2.01795053E-01  1.56338262E-01 -5.27268724E-07 -1.26366983E-01 -5.48066670E-02
  4.09235931E-02 -2.61870789E-07  7.37313367E-03 -2.75221561E-03  5.51594380E-03
  1.09140974E-02 -1.47874783E-08  1.94231294E-08 -3.92255964E-04 -5.49266207E-03
  4.22043563E-01  7.92761248E-02 -1.64269396E-01 -3.83922874E-02 -3.14222738E-01
 -1.64363466E-07 -1.27850198E-01 -3.61294631E-02 -8.77944738E-02 -6.12725649E-08
  1.18821099E-02 -5.41951539E-03  6.13076758E-03 -2.60647125E-03  4.11543348E-09
 -2.02162659E-09 -1.30754769E-02  3.52022267E-02  3.12962472E-02  3.51492986E-02
  1.38388887E-07  1.66899483E-02  2.67288823E-02 -1.48997732E-02  4.67025965E-08
  2.28233769E-03 -8.55201318E-03  3.64585469E-04 -8.03240542E-03 -4.55610093E-10
 -1.32508374E-08 -3.41814637E-03  7.37020664E-03  2.25196482E-02 -2.53790575E-02
 -6.26286213E-08  2.24637133E-02  1.52559384E-02 -2.01627381E-02 -6.07636190E-08
  1.90730414E-03 -1.92896667E-03 -6.55942395E-05 -1.77464795E-03 -2.47792993E-09
 -7.33199813E-09  3.54505768E-03 -1.10328309E-02 -1.49485978E-02  6.83506906E-03
 -5.66545376E-08  2.99627586E-02  1.62318874E-02 -2.47611112E-03 -9.82347592E-08
  5.14914411E-03 -2.29569468E-03 -1.15503660E-04 -3.14690248E-03  3.19411762E-10
  9.35727337E-09 -4.66170203E-02  9.98626639E-02  1.61561770E-01 -1.00885909E-01
  2.34657609E-07  5.12024761E-02  7.22699715E-02 -3.38039628E-03  6.54678594E-11
  7.78722298E-03 -1.23103908E-02 -3.05060016E-03 -2.44680565E-03  2.04304576E-08
  8.50758675E-09 -1.72991142E-04 -2.42295775E-03  6.35920570E-04  4.20882733E-01
 -4.62291871E-08  1.38279970E-07 -2.75635439E-07 -1.34340939E-07  2.14084583E-01
  5.03428044E-08  4.92836897E-09 -2.23234034E-07  1.40117941E-01 -4.12092089E-09
 -9.98247517E-09  3.37270273E-09  4.63667834E-09  1.76163608E-03  1.24334963E-02
  7.73915471E-10  6.00307872E-09  9.72713347E-08  1.94298611E-08 -1.68924575E-02
  1.07226614E-07  6.00049423E-08  6.44320673E-08 -2.57011552E-02  1.09574666E-08
 -1.09399524E-08  5.10549433E-09 -6.26756568E-09  1.12873322E-02  1.36369134E-03
 -1.66037338E-08  1.84201622E-09 -3.38644565E-07  4.16107923E-08 -1.32379407E-01
  1.09925096E-07 -3.14030630E-07  5.48691363E-09 -1.08610132E-01  1.08546359E-09
 -1.30923709E-08 -1.26152441E-09  6.15073919E-09  8.23604567E-04  3.63351376E-04
 -4.87085775E-09 -1.20576510E-08  9.78197042E-08 -4.62100741E-10 -1.68924449E-02
  8.12758035E-08  1.00526025E-07 -3.06345789E-08 -2.57011783E-02 -7.26871447E-09
  9.93408835E-09 -1.22250672E-08  3.89493883E-08  8.61661281E-03  7.41721322E-03
  6.56892105E-08 -1.07286479E-07 -4.05942533E-07  4.79495072E-07  2.14081600E-01
 -2.99753718E-07 -1.63340767E-07  4.89318820E-07  1.40116753E-01 -1.83774958E-08
 -6.33521314E-09  3.04167469E-08  2.49894058E-08  1.03707630E-02 -7.08091573E-03
  4.02174942E-09 -3.44141890E-08  1.27885403E-07  8.83936337E-09  3.29570545E-01
  3.64407203E-03  2.52166442E-02 -1.88402096E-02  1.35038187E-01  3.82008158E-07
 -5.40232445E-03 -1.39049463E-02  2.65231241E-02  2.28982184E-07 -7.21946172E-03
  9.86682712E-03 -2.27913554E-03  5.14242714E-03 -2.15199007E-09  5.37925673E-09
 -5.88690888E-03 -7.74727351E-03  9.73733429E-04 -5.82398022E-02  1.26558417E-07
  7.98925984E-03 -8.77617299E-03 -1.08154702E-02  1.30665431E-07 -2.54125989E-03
  3.81770099E-03 -2.64963843E-05  4.61134655E-03  1.51511389E-08  2.82635294E-09
  2.73847256E-02 -3.95850362E-02 -5.09162789E-02 -2.24636510E-02 -3.26176977E-08
 -6.42786698E-02 -2.27769920E-02 -1.00489617E-02 -5.96185176E-08  6.50573263E-04
  1.10147275E-03  1.36639722E-03 -2.85175264E-04  6.56208682E-09 -1.30415446E-08
 -5.88703920E-03 -7.74669862E-03 -4.23565945E-02  3.99837298E-02 -2.25120316E-07
  7.98968645E-03 -1.39046493E-02  8.10544232E-04 -2.00057040E-07  4.90463857E-03
 -3.62814174E-03 -2.64136678E-05 -3.23645342E-03 -4.08671180E-09  7.54224659E-09
  3.64398601E-03  2.52172090E-02  8.70335821E-02 -1.04954253E-01  5.81979518E-08
 -5.40162787E-03  1.02152419E-02 -2.81508680E-02 -7.87913765E-08  6.53631138E-03
 -3.88897334E-03 -2.27903606E-03 -9.35588347E-03  2.88849411E-08  3.30687063E-09
 -1.67204896E-01  2.56521000E-01  8.85462905E-03  3.90646823E-03  2.33404053E-07
  2.26588712E-01 -1.52914297E-03 -9.86778904E-03  3.27778219E-02  9.64272256E-03
 -4.27557110E-07 -1.92722194E-02  1.66132414E-02  5.11778288E-03 -2.98200816E-07
  1.85715070E-04  5.71028833E-04  5.51268934E-04  3.11784689E-03 -3.88879982E-09
 -1.74173217E-08  7.76526624E-03 -6.17897041E-03 -1.92896401E-02 -1.28903925E-02
 -2.53260866E-08  7.65401085E-03  3.74942994E-03 -1.30446777E-03  1.49767090E-08
 -7.02149441E-04  8.96127067E-04  3.41158836E-04 -1.44814417E-03 -2.77906354E-08
 -1.70781255E-09 -1.21834101E-02  1.66560809E-02  7.68525727E-03  1.52560225E-02
  2.92318330E-07  2.27769498E-02  4.64063919E-04  4.35243951E-03  2.53496003E-07
 -1.44407988E-03  7.87398891E-04 -3.39074495E-04  3.03874276E-04 -2.86553828E-09
  4.32575812E-09  1.89011291E-03  7.79596045E-03  1.17041083E-02 -1.93480926E-02
  1.27888464E-07  1.37549255E-02  6.17112658E-03  2.70233241E-03  1.22622933E-07
 -3.44470149E-03  1.71846311E-03  1.93620866E-04  1.57601782E-03 -1.28839136E-08
 -1.78046782E-08  7.19795946E-03 -3.40480568E-02 -4.07272247E-02  4.53919172E-02
 -3.66756412E-07 -2.99218595E-02 -9.58158471E-03  1.00050852E-02 -2.09537585E-07
  1.94508798E-03  1.19220085E-04  1.32915871E-03  2.58269150E-03 -2.11005427E-08
  1.13454827E-08 -3.79140887E-03  2.49426109E-02  1.23177447E-01 -3.13426958E-03
 -4.15230546E-07  1.92033469E-02  4.14332536E-02  1.11416643E-02 -3.70923264E-02
 -2.17030701E-02 -9.09635567E-02 -1.61245728E-07 -2.29214740E-02 -1.39052111E-02
 -2.33861692E-02 -8.99238760E-08  4.13120388E-03 -2.02693586E-03  1.29649117E-03
 -1.10621183E-03  3.28334360E-09 -3.84715933E-09 -4.52871964E-03  1.61951757E-02
  8.94480184E-03  4.11299260E-02  2.57172339E-08  1.16365129E-02  4.91379750E-03
  4.89415290E-03 -6.11322667E-09  1.63069045E-03 -4.14486690E-03 -4.91698934E-05
 -2.50323792E-03 -4.03914119E-09 -4.13164013E-09 -5.37499361E-03  7.34822291E-03
  1.52547461E-02 -2.01627017E-02 -1.70200426E-08  1.00489812E-02  4.35223425E-03
 -7.48048218E-03 -2.96465444E-09  1.36589412E-03 -1.65556694E-03 -1.49580646E-04
 -1.97696169E-03 -3.12188058E-09  1.43657000E-09  8.78853686E-03 -1.54818752E-02
 -4.11816936E-02  1.01343277E-02  5.33217413E-08 -2.19277929E-03 -3.51558582E-03
  2.47261502E-03  5.45042632E-09  1.68298650E-03  1.55235948E-04  2.85143226E-04
 -2.86114958E-03 -2.00462968E-09  5.13134708E-09 -8.64092887E-03  1.77182958E-02
  7.67389303E-02 -1.74575930E-02  4.64611990E-08  1.21998089E-03  2.90286507E-02
  2.80802082E-03 -5.67245131E-09  2.40119365E-03 -3.26074914E-03 -4.66905507E-04
 -2.27317447E-03  2.51761150E-09  4.02753482E-09 -1.67283357E-03  1.10044029E-02
 -3.13576998E-03  1.28901775E-01 -1.00396231E-07  8.47213445E-03 -2.26284364E-03
  4.55649976E-02 -5.84653989E-08  1.28432285E-07 -1.38557718E-07 -2.28757299E-08
  1.40118051E-01  9.62932856E-08  4.89504152E-09 -1.40391138E-07  9.27150839E-02
 -9.17127612E-09 -1.59517882E-09  1.74384551E-09 -7.82948923E-09  1.73658402E-03
  8.58078624E-03  1.83878580E-08 -3.27823478E-08  3.35745999E-08 -2.58488004E-08
 -2.57017635E-02  2.67122082E-08  6.53565731E-09  4.98906544E-08 -2.63274882E-02
  9.79189342E-09 -3.95239406E-09  1.61244714E-09 -2.86260818E-09  8.04014201E-03
  3.97690760E-04 -1.95801068E-08  7.71250463E-09 -3.16189536E-07  3.21399514E-08
 -1.08610131E-01  5.16001377E-08 -2.68018946E-07 -4.80115564E-09 -8.58480234E-02
 -1.08549781E-09 -9.88457454E-09  4.68404275E-10  4.70844441E-09  5.62874460E-05
  2.48667133E-05  2.47158437E-08 -5.81123853E-08 -5.12502530E-09 -4.95109362E-08
 -2.57008279E-02 -8.22181079E-09  3.01792496E-08 -6.70039907E-08 -2.63267999E-02
 -3.86882320E-10  6.62416210E-09 -7.95327931E-09  2.72894096E-08  5.71405159E-03
  5.67017387E-03 -1.28625156E-08  2.08639071E-08 -1.06352436E-07  2.68331377E-07
  1.40116892E-01 -8.48789351E-08 -7.03703363E-08  3.09063215E-07  9.27148967E-02
 -2.08622258E-08  2.68497473E-09  1.58953764E-08  8.68946339E-09  7.50831074E-03
 -4.50213224E-03  4.31709463E-09 -7.87908519E-10 -2.16289898E-07 -4.55064254E-08
  2.23026592E-01  1.55987842E-07 -3.64207624E-07 -8.03380238E-08  1.52236028E-01
  3.05754920E-03 -7.25613822E-03 -3.91677261E-03 -1.14582428E-02 -1.06386491E-08
 -8.29952445E-03 -1.81822351E-03 -3.95119799E-03 -7.14150425E-09  4.78913236E-04
 -1.92863496E-04  2.69384112E-04  3.56081752E-04  5.85166662E-10  4.58344343E-10
 -6.27391770E-04  1.78547012E-03  3.19102314E-03  1.67561745E-03  6.55504333E-09
  9.32393029E-04  2.70075706E-03 -6.88326666E-04  1.88204070E-09  5.84408580E-05
 -3.66689956E-04 -5.80219342E-06 -2.38112477E-04 -4.75152537E-10 -4.24847318E-10
  1.32913849E-04 -6.05797630E-04  5.82518697E-04 -1.90728277E-03  8.20094035E-09
  6.50592270E-04  1.44409295E-03 -1.36589999E-03  1.55937239E-09  2.41036292E-04
 -2.72255761E-05 -2.86181011E-05  3.43918875E-04 -4.98618584E-10 -7.54098757E-10
 -2.10549856E-03  4.67070129E-03  1.16671109E-02  3.52768614E-03 -1.09670717E-08
  5.68655138E-03  4.25992073E-03  1.77860944E-03 -5.90256944E-09  2.47855295E-04
 -4.15180641E-04 -1.91307081E-04  2.52749430E-04  5.42677591E-11 -2.04748274E-10
 -3.17993518E-03  5.34097274E-03 -6.61354421E-03 -9.73383599E-03  1.92021477E-08
  1.73839628E-03 -1.22811395E-03 -1.44284142E-03  1.18489425E-09  8.00095918E-04
 -9.81206701E-04 -1.89977517E-04  3.25165143E-04  1.10672989E-09  1.21648471E-09
 -1.99918979E-02  1.83174536E-03  1.00032225E-02  1.62177764E-02  2.13419721E-08
  3.86282978E-03  2.54704174E-03  3.91761784E-03  3.00127379E-09  1.52664028E-03
 -6.69705987E-03  1.18013797E-02  2.31015391E-03  5.19462457E-03  1.23858703E-08
  1.09468057E-02  2.10593175E-03  1.73360601E-03  9.23204592E-09 -1.19016767E-04
 -4.02889718E-05 -4.73004963E-04 -2.27808111E-04  2.67479525E-10  1.27356529E-09
 -1.50182670E-04  3.23910953E-04  2.22222310E-03  1.99354463E-03 -9.14778993E-09
  3.44074202E-04 -2.45716102E-04  1.26411681E-03 -8.10289158E-09  2.25037046E-04
  1.66510297E-05 -8.10718011E-05  2.70540328E-04  1.34499923E-09  5.14479131E-10
 -2.03082039E-04  5.68952993E-04 -5.33189336E-04  1.92894998E-03 -1.15105983E-08
  1.10145162E-03 -7.87403224E-04  1.65555108E-03 -8.00882136E-09 -2.72252468E-05
 -8.94192051E-05  3.14920930E-06 -1.34901976E-04  4.90113553E-11  7.73376487E-10
  1.32790805E-03 -2.56132556E-03 -5.30758974E-03 -2.00303507E-03  1.16719940E-08
 -4.41003144E-03 -2.17947496E-03 -3.53550841E-04  7.51755719E-09 -2.81984640E-04
  3.82754281E-04  1.04427857E-04  1.14443275E-04  7.48199501E-10  3.67625732E-10
 -4.59672916E-04 -7.95561987E-04  9.04199408E-04  1.27698132E-02  2.54361778E-09
  9.08976984E-04 -2.15781402E-04  3.15035824E-03  1.40770607E-08 -6.53085794E-04
  9.60926663E-04 -1.36520439E-05  2.74880966E-05 -3.58872579E-10 -2.51997338E-09
 -1.70631441E-02 -3.11980087E-03 -2.32002979E-03 -1.28281323E-02  1.82563938E-08
 -3.52651674E-03 -7.72895474E-04 -3.13490745E-03  1.74251474E-08 -7.33824191E-04
  1.09874432E-03  1.89245319E-03 -4.34242995E-03  1.16187400E-04 -6.30240376E-03
 -7.06967544E-09 -2.27918831E-03  2.60300481E-04 -1.38460774E-03 -2.45043896E-09
  2.58088359E-04 -4.61716344E-04  2.88415217E-04 -1.22388038E-04 -2.14620353E-10
 -8.05335079E-10  1.38054729E-04  4.20826594E-05 -2.94070401E-04 -2.78388686E-04
  2.13005172E-09 -2.65171527E-05  1.50107375E-04 -3.10330858E-04  2.12382536E-09
  9.46930607E-06 -9.63439145E-05  4.17715495E-05 -1.61882994E-04 -2.62182277E-10
 -4.03177314E-10 -4.37668744E-04  5.15328612E-04  1.48661538E-04  6.55929003E-05
 -2.14383716E-09  1.36639684E-03  3.39077796E-04  1.49572977E-04 -4.29484610E-10
 -2.86176294E-05  3.14871948E-06 -1.21441801E-07 -2.00890144E-05 -1.40703187E-10
 -5.46113815E-10  1.38021694E-04  4.21462385E-05 -4.03753595E-04 -2.95258570E-05
 -1.25092660E-08 -2.64407335E-05 -1.27965403E-04  3.20043227E-04 -7.21783347E-09
 -1.87863238E-04  1.00981457E-04  4.17639433E-05  4.61100127E-05 -7.64495092E-10
 -2.53334944E-10  1.89237439E-03 -4.34229265E-03 -4.57646503E-03  4.33442706E-03
 -2.66748679E-08 -2.27904867E-03 -8.47140789E-04  1.12562103E-03 -1.35590089E-08
 -2.40116828E-04  3.64869075E-05  2.88405614E-04  4.02717075E-04 -8.41174777E-10
  9.79886533E-10 -1.12817072E-02 -1.60153766E-02 -6.23908206E-04 -2.75107906E-04
 -1.89836108E-08 -1.13454692E-02 -1.33511141E-03 -5.89003939E-04 -1.23143212E-08
 -5.13007049E-05  2.61261775E-04  9.16131907E-04 -1.06234272E-03  2.55200801E-03
 -1.29029745E-02  4.69757775E-03 -1.60751915E-09 -5.34665748E-04 -2.56968008E-03
  1.06171416E-03  5.92351435E-10 -5.08954092E-05 -2.09072464E-04 -6.30534605E-05
  1.17828591E-03  1.21113172E-09  5.10523793E-10 -2.01576300E-03  4.27006010E-03
  9.05397545E-03  5.09018955E-03  1.64158971E-08  5.88462411E-03  3.58528302E-03
  1.82092508E-03  1.02554541E-08 -5.23741570E-05 -1.32086697E-04 -1.67480080E-04
  4.23038635E-04  6.55697380E-10  6.58438864E-10  2.12518565E-04 -7.43017130E-04
 -1.14765381E-03  1.77466705E-03  9.45837456E-09 -2.85202945E-04 -3.03886097E-04
  1.97696124E-03  5.05194115E-09  3.43922645E-04 -1.34905160E-04 -2.00884696E-05
  1.19206298E-04 -7.08442461E-11 -1.39225853E-09 -4.57798387E-04  1.22887056E-03
  1.13806930E-03  8.30936700E-04 -2.17775679E-08  8.73800932E-04  6.55374661E-04
  2.13722642E-03 -1.52859174E-08 -3.91499485E-04  5.85294859E-05  2.80322453E-05
  5.27030568E-05 -9.07723552E-10 -6.93403658E-10  5.51175969E-03 -1.07249139E-02
 -9.96104118E-03  2.65497856E-03 -2.62265161E-08 -1.11144099E-02 -4.02136059E-03
  2.99207888E-04 -1.72483100E-08  4.77905266E-04 -2.45530551E-04  4.21093163E-04
  2.96677011E-04  7.88362106E-10  1.87718379E-09 -1.85240209E-03  3.13175488E-03
  1.79039633E-02 -4.54293664E-03  2.30657559E-08  4.67371284E-03  4.49252671E-03
 -9.62709728E-04  1.30787457E-09  4.24304061E-04 -1.53664289E-04 -1.97706839E-04
  1.42531740E-03  2.82269883E-09 -6.67742802E-09 -1.14866007E-08 -7.73184260E-09
 -9.46895027E-04 -1.74603879E-08 -2.14192307E-09 -5.30218942E-09 -1.44790970E-04
  2.98728343E-10  8.73545277E-10 -1.34560697E-10  2.25543568E-09 -7.03558113E-05
 -3.07483022E-04 -1.19491119E-09  2.58531231E-09  1.01677376E-08  1.19782976E-09
  2.11525341E-03  1.00432931E-08  7.17919505E-09  3.58426998E-09  2.05352755E-03
 -5.39621119E-11 -5.77798641E-10 -2.42326574E-10 -4.45217125E-12 -1.25965476E-05
 -7.95326103E-05  1.27995758E-09 -2.46416502E-09 -3.47369161E-09 -4.37243924E-09
 -8.23617601E-04 -7.96425422E-09 -1.67806297E-09 -2.77263481E-09 -5.63052522E-05
  4.74137947E-10  2.19870182E-11  1.64291283E-10  2.16300896E-11  2.79323539E-06
 -3.11092788E-04 -2.56423282E-09  5.75889143E-09  2.56242405E-09  3.98049645E-09
 -6.82460883E-03  1.11136883E-08 -2.64504739E-09  3.59715889E-09 -4.36446725E-03
  3.24384577E-10 -8.14004296E-10  8.32633637E-11 -3.09665008E-10 -3.40519071E-04
 -1.09789897E-04 -5.67330136E-09  9.57951330E-09  6.52877939E-09 -2.33054599E-08
 -9.88670552E-03  3.14113135E-09  1.67927300E-09 -1.56986773E-08 -6.56277635E-03
  3.05025226E-09 -1.48875858E-09 -1.34625227E-09 -5.30056685E-10  2.35269841E-05
  2.53277447E-04 -2.04048111E-08  4.35665248E-08  4.67203377E-08  3.36882682E-08
 -6.94783739E-03  3.75621164E-08  2.29167108E-08  1.19257627E-08 -4.45293847E-03
  2.79457318E-09 -2.34482816E-09 -1.50317368E-09  2.57982141E-09  3.09074174E-04
  5.97482639E-10 -2.44685084E-09  6.45253395E-11  1.64861821E-09 -1.25219231E-02
  5.67382244E-09 -4.88912484E-09  1.01827412E-08 -8.75356911E-03  4.37340255E-10
 -9.42570546E-10  7.65919583E-10  1.08179956E-09  3.38973882E-04  7.29896864E-05
 -5.35133939E-09  1.40753186E-08  1.38493764E-08  2.12054733E-08 -1.11708914E-02
  5.71401031E-09  4.42596128E-09 -1.25334949E-09 -7.78366455E-03  1.19225071E-09
 -5.99665187E-10 -1.40476366E-09  5.83593802E-10 -4.09114999E-04 -1.67706730E-04
  3.35321220E-10 -6.68725458E-10 -3.96554249E-09 -2.65145980E-09 -3.63315300E-04
  1.23601070E-08  4.55405913E-09  1.90683629E-09 -2.48215724E-05  7.86863744E-10
 -7.74915531E-10  5.45029163E-10  1.36655144E-09 -3.11092590E-04  5.70711107E-04
 -8.78177235E-10  1.28872650E-09  2.09941520E-08  1.18890308E-08  9.09332975E-03
 -6.22654777E-09  1.40184315E-08  8.78560655E-09  6.76419490E-03 -3.71057393E-10
  1.09088293E-10 -3.87698975E-11  6.17284263E-10  2.19787344E-04  1.60212469E-04
  7.71442326E-09 -1.44476344E-08 -2.38043847E-08  1.71731846E-09  7.74231721E-03
 -1.02670379E-08 -7.44854152E-09  5.29284233E-09  5.79429043E-03  1.21002539E-09
 -1.65586984E-09  5.92472911E-10  3.48583377E-10 -3.93184605E-04 -2.08774048E-05
 -4.06932067E-09  7.79532528E-09  4.13442883E-08  6.62404814E-09 -3.06537573E-03
 -3.71378211E-09  1.88790807E-08  5.46582903E-09 -1.96460645E-03  1.84653684E-09
 -8.08200831E-10 -7.79906647E-10  1.47316301E-09 -1.75967021E-04  6.30325920E-04
 -6.04170547E-02  1.14400108E-01  2.16282850E-01 -1.58264661E-01 -9.20740495E-09
  1.04330538E-01  6.83708577E-02 -5.00298400E-02  5.37337617E-09  7.10247599E-03
 -1.18884630E-03 -6.10405616E-03 -1.50808285E-02 -1.62596615E-08 -6.85387490E-10
  1.27300445E-02 -2.70939003E-02 -4.82210472E-02  1.49399871E-03  6.64340091E-09
 -5.39196056E-02 -1.29751291E-02 -5.33381206E-03 -9.70192127E-09  7.47405867E-03
 -4.70443064E-03  7.72569172E-04 -5.67534520E-03 -5.46554710E-10 -8.44470210E-09
 -8.20174354E-03  1.90191471E-02  2.95570855E-02 -1.92974605E-02 -9.95738146E-08
  3.81488705E-02  1.57204046E-02 -2.43376165E-02 -5.46704458E-08 -2.64967311E-03
  3.15719765E-04 -1.14773330E-04 -6.27987555E-04  5.37872785E-11  3.23214921E-09
 -8.42257776E-04  1.69055382E-03  3.21001269E-03 -2.34897388E-03  4.59239048E-08
  1.59695689E-02  2.74208355E-03 -2.00643350E-03  3.40287030E-08  7.00254302E-04
  6.16760690E-05  3.01419899E-05 -1.16142141E-03  2.84337274E-09  5.36439255E-09
 -8.20180269E-03  1.90193263E-02  2.73357973E-02 -2.23338599E-02  1.05911919E-07
  3.81490006E-02  2.79537094E-02 -7.62025258E-03  6.54174007E-08  3.57962657E-04
 -2.69191903E-03 -1.14768955E-04  4.74381971E-04 -3.06909993E-09  2.24829634E-09
  1.27300608E-02 -2.70938425E-02 -1.60134426E-02  4.55091206E-02 -9.40781784E-08
 -5.39192039E-02  1.15778549E-03  1.39805164E-02 -3.48459098E-08 -7.55025024E-04
  3.52458382E-03  7.72598846E-04 -8.69167566E-03 -8.14732234E-09 -1.46560443E-09
  2.17445706E-01 -1.38877580E-02  2.61039057E-02  1.95159743E-01 -1.42808408E-01
 -7.83352224E-08  3.45793973E-02  5.36990766E-02 -3.92939327E-02 -5.83972484E-08
  6.76436357E-03 -9.28535809E-04 -2.24308755E-03 -1.39923755E-02 -1.78221235E-08
 -7.95386406E-09  1.61011018E-02 -2.88154579E-02 -9.74338003E-02  9.35301483E-03
  1.15660620E-08 -4.97919036E-02 -2.67587654E-02 -3.97121655E-03 -6.39091800E-09
  4.84339192E-03 -3.88773929E-03  1.25591854E-03 -7.98957360E-03 -1.30391702E-08
 -7.40275245E-09 -1.33930461E-02  2.84860498E-02  6.13928308E-02 -3.46374229E-02
 -6.10170563E-08  3.78261131E-02  2.27976235E-02 -3.13327772E-02  7.99446876E-09
 -3.25771534E-03  2.95226746E-04 -4.22220475E-04 -2.07057440E-03  1.07923375E-09
  1.08683527E-08  1.29233751E-03 -1.82133392E-03  1.92743417E-03 -1.41080397E-03
  1.70400013E-07  1.98781055E-02  7.38978296E-03 -5.40741257E-03  1.13732797E-07
  1.50408936E-03 -4.37253379E-05 -1.23472715E-04 -2.81515816E-03  4.10312984E-09
  5.09377202E-09 -1.33931490E-02  2.84863737E-02  5.15894747E-02 -4.80370483E-02
  1.77548993E-07  3.78262937E-02  3.67626665E-02 -1.22495818E-02  8.76527973E-08
  1.00423831E-03 -3.96673533E-03 -4.22214608E-04 -5.08508701E-04 -8.05736333E-09
  4.09122303E-09  1.61011401E-02 -2.88154273E-02 -3.83941281E-02  9.00387148E-02
 -2.01644035E-07 -4.97911645E-02 -4.31147297E-03  2.67060367E-02 -1.08612126E-07
  9.02031227E-04  5.35577626E-05  1.25596032E-03 -9.43431610E-03 -7.54995117E-09
  6.44775455E-10  1.72459615E-01  1.57536693E-01  1.27299885E-02 -2.70937015E-02
  3.14058820E-02  3.66228240E-02  1.06990289E-07 -5.39204222E-02  1.26874045E-02
  5.98734932E-03  6.13727415E-08 -4.06407148E-03  6.83352569E-03  7.72558049E-04
  6.48560695E-03 -3.33369040E-09  4.70635230E-09 -6.04168745E-02  1.14399331E-01
 -2.89191745E-02 -2.66439281E-01 -1.30481936E-07  1.04330814E-01 -9.14147333E-03
 -8.42247580E-02  1.69017040E-09 -1.04266555E-02  1.63403361E-02 -6.10410639E-03
  3.39488029E-03  1.82506978E-09  5.15301414E-09  1.27300856E-02 -2.70941963E-02
 -2.28169915E-02  4.25076574E-02  7.99989131E-08 -5.39198528E-02 -1.11061849E-02
  8.57006495E-03  8.31646074E-08 -5.91650863E-03  8.68603987E-03  7.72511279E-04
 -3.25164395E-03  1.22379813E-08  1.05070680E-08 -8.20182955E-03  1.90193845E-02
 -1.93342986E-03 -3.52461638E-02  6.84739158E-08  3.81491978E-02 -1.32171366E-02
 -2.57833564E-02  7.65902435E-08 -8.96674050E-04 -1.43738836E-03 -1.14784676E-04
  1.79676214E-03 -3.64964306E-10 -7.64184487E-09 -8.42338834E-04  1.69079573E-03
 -4.29123149E-04 -3.95471723E-03 -5.28374846E-08  1.59699285E-02 -3.66579349E-04
 -3.37787517E-03 -4.48213081E-08 -6.49701890E-04  1.41166423E-03  3.01663964E-05
  2.61437080E-04 -4.19002412E-09 -4.22497901E-09 -8.20176244E-03  1.90193416E-02
 -5.67368674E-03 -3.48401446E-02 -4.31700024E-08  3.81489517E-02  7.37760915E-03
 -2.80184442E-02 -9.20811569E-09 -1.57367950E-03 -7.60284316E-04 -1.14747102E-04
 -1.76218894E-03 -2.01172825E-09 -7.31840936E-09 -2.19959563E-02 -2.30453025E-02
  2.17445852E-01  1.61010372E-02 -2.88152497E-02  5.87799792E-02  7.82699005E-02
  2.41620011E-07 -4.97927295E-02  2.09737250E-02  1.70865177E-02  1.45552640E-07
 -6.81017100E-03  7.76561200E-03  1.25590373E-03  4.29291567E-03 -1.08179767E-08
  6.71685623E-10 -1.38871898E-02  2.61022187E-02 -2.60947424E-02 -2.40420117E-01
 -6.98409336E-08  3.45790236E-02 -7.17986542E-03 -6.61510187E-02  6.31501263E-08
 -9.49965964E-03  1.53355639E-02 -2.24313469E-03  3.14989419E-03  5.58940970E-09
  3.53031292E-09  1.61015757E-02 -2.88166868E-02 -4.06190278E-02  8.90574601E-02
  9.53528714E-08 -4.97927602E-02 -1.68181484E-02  2.11885584E-02  8.84396575E-08
 -7.69738429E-03  8.65294413E-03  1.25588602E-03 -3.70786190E-04  1.83982648E-08
  1.03521228E-09 -1.33931409E-02  2.84863916E-02  6.99923875E-04 -7.04868879E-02
 -2.08153191E-08  3.78264913E-02 -1.57366566E-02 -3.54103016E-02  1.69956634E-08
 -2.14599539E-03 -8.16643930E-04 -4.22230191E-04  2.81189678E-03 -1.87884323E-09
 -1.22106869E-08  1.29211974E-03 -1.82080986E-03 -2.57968039E-04 -2.37530334E-03
 -1.61559951E-07  1.98788872E-02 -9.88302224E-04 -9.10348412E-03 -1.03614995E-07
 -1.76809004E-03  3.22845345E-03 -1.23455745E-04  6.33681818E-04 -1.82858975E-09
 -5.63915838E-09 -1.33932181E-02  2.84866491E-02 -1.58066252E-02 -6.86962973E-02
 -5.36845857E-08  3.78266331E-02  7.77294322E-03 -3.79619376E-02  8.09002699E-10
 -3.10540756E-03  1.42870106E-04 -4.22200813E-04 -2.23135219E-03 -2.43754023E-09
 -1.48009057E-08 -2.30452986E-02 -2.46002106E-02  1.72460781E-01  1.57539048E-01
 -8.20175876E-03  1.90191725E-02 -3.30094435E-02 -1.25067110E-02 -1.30855745E-07
  3.81483697E-02 -2.05760942E-02 -2.03983977E-02 -1.18850809E-07 -2.28525622E-03
 -4.87286100E-05 -1.14783103E-04  1.28774701E-03  4.90255142E-09  1.96857075E-09
  1.27301458E-02 -2.70942798E-02  4.74187615E-02 -8.88697156E-03 -9.89138495E-09
 -5.39192855E-02  1.15288634E-02 -7.99255445E-03 -4.99122277E-08  8.97338705E-03
 -6.20390702E-03  7.72540741E-04  2.20604490E-03 -1.59937732E-08 -3.65596967E-09
 -6.04169066E-02  1.14399436E-01 -2.45202882E-01 -1.08174421E-01  5.43944447E-07
  1.04330855E-01 -7.75117197E-02 -3.41956806E-02  1.24253160E-07  1.21946944E-02
 -6.28103642E-03 -6.10407843E-03  1.16860488E-02 -6.04537146E-08 -3.26916311E-08
  1.27300702E-02 -2.70939516E-02  2.54044020E-02  4.10137111E-02 -5.78656930E-08
 -5.39198262E-02  1.86843169E-03  1.39038071E-02 -4.47013520E-08  2.59660876E-03
  1.72889515E-04  7.72560823E-04  8.92709577E-03 -3.83197229E-09 -1.47846283E-08
 -8.20180198E-03  1.90194625E-02 -3.14909543E-02 -1.59485949E-02  1.98322930E-08
  3.81488708E-02 -2.89375410E-02 -1.44487076E-03 -1.39066958E-08  4.54083073E-05
 -2.37934534E-03 -1.14729289E-04 -1.16872264E-03  3.43238169E-09  3.43171525E-09
 -8.42245728E-04  1.69055777E-03 -3.63934336E-03 -1.60534570E-03 -2.09661603E-09
  1.59698879E-02 -3.10877378E-03 -1.37135081E-03  1.65752151E-08  1.09243249E-03
 -3.30470457E-04  3.01646115E-05  9.00001447E-04  2.74894204E-09  6.03301289E-09
 -1.03926552E-02 -2.26311959E-02 -2.19962061E-02 -2.30451322E-02  2.17445841E-01
 -1.33929519E-02  2.84858291E-02 -6.73952735E-02 -2.06598301E-02 -2.19177841E-07
  3.78256853E-02 -2.89898024E-02 -2.57126815E-02 -1.62665647E-07 -2.34265438E-03
 -6.19854918E-04 -4.22217199E-04  2.73970697E-03  1.16538718E-08  3.48690876E-09
  1.61015305E-02 -2.88164952E-02  9.71728753E-02 -1.17707057E-02 -9.59107860E-08
 -4.97920517E-02  2.52841680E-02 -9.61915871E-03 -9.45889000E-08  7.34139362E-03
 -6.38591062E-03  1.25591600E-03  5.14142320E-03 -7.29443828E-09 -8.33728052E-09
 -1.38872529E-02  2.61024557E-02 -2.21257225E-01 -9.76105590E-02  4.33403748E-07
  3.45792835E-02 -6.08784201E-02 -2.68578468E-02  5.47063241E-08  1.14890707E-02
 -5.65319709E-03 -2.24309941E-03  1.08427027E-02 -4.58052116E-08 -2.83270850E-08
  1.61013529E-02 -2.88159990E-02  5.68174176E-02  7.97052522E-02 -1.45288578E-07
 -4.97920079E-02  9.94061556E-03  2.51596826E-02 -8.42269634E-08  4.28720436E-03
 -3.33170348E-03  1.25593595E-03  8.36056984E-03 -4.46610622E-09 -9.30256754E-09
 -1.33932604E-02  2.84868229E-02 -6.06941004E-02 -3.58498063E-02  1.88199879E-08
  3.78265063E-02 -3.85343620E-02 -4.07635093E-03 -3.00790073E-08  9.60000194E-04
 -3.92253459E-03 -4.22169162E-04 -7.41248220E-04  4.90395926E-09  8.18830127E-09
  1.29233465E-03 -1.82126634E-03 -2.18569710E-03 -9.63311229E-04 -1.36484672E-08
  1.98786136E-02 -8.37792664E-03 -3.69579863E-03 -6.47231347E-10  2.45466283E-03
 -9.94285139E-04 -1.23444279E-04  2.18146111E-03  5.60199799E-09  1.01146315E-08
 -2.26311097E-02 -3.63922739E-02 -2.30454107E-02 -2.45997650E-02  1.72460621E-01
  1.57538719E-01 -8.42256338E-04  1.69055379E-03 -3.21011194E-03  2.34883431E-03
 -5.87579353E-09  1.59695163E-02 -2.74214167E-03  2.00631730E-03 -5.69511245E-09
  7.00238754E-04  6.16913758E-05  3.01426161E-05 -1.16142632E-03 -3.56254267E-09
 -7.36128860E-09 -8.20177274E-03  1.90192610E-02 -2.73356846E-02  2.23336555E-02
  1.08300160E-07  3.81491386E-02 -2.79536637E-02  7.62025420E-03  8.17007543E-08
  3.57967121E-04 -2.69192191E-03 -1.14769432E-04  4.74386443E-04 -1.37289258E-09
  9.86505017E-12  1.27300345E-02 -2.70938226E-02  1.60135016E-02 -4.55090958E-02
 -2.56860089E-08 -5.39195673E-02 -1.15812241E-03 -1.39804533E-02  1.07212723E-08
 -7.55045995E-04  3.52461228E-03  7.72585063E-04 -8.69164098E-03  9.35468019E-09
  1.09904220E-08 -6.04170596E-02  1.14400105E-01 -2.16283419E-01  1.58263834E-01
  2.66123265E-07  1.04330573E-01 -6.83707482E-02  5.00299413E-02  7.07946314E-08
  7.10260616E-03 -1.18897628E-03 -6.10405383E-03 -1.50807753E-02 -2.69928185E-08
  2.82871133E-08  1.27300785E-02 -2.70939262E-02  4.82210063E-02 -1.49391624E-03
  5.01970119E-08 -5.39193063E-02  1.29752774E-02  5.33354322E-03 -1.44261839E-08
  7.47405846E-03 -4.70443558E-03  7.72583095E-04 -5.67539648E-03 -9.46583380E-09
  8.88596976E-09 -8.20178128E-03  1.90192294E-02 -2.95573107E-02  1.92975188E-02
 -1.52004326E-07  3.81488280E-02 -1.57204375E-02  2.43376304E-02 -1.06522042E-07
 -2.64966960E-03  3.15711054E-04 -1.14772227E-04 -6.27984503E-04 -1.16105964E-09
 -1.05074114E-09  3.31003220E-03  8.00641439E-03 -1.03927178E-02 -2.26314825E-02
 -2.19963689E-02 -2.30457052E-02  2.17445717E-01  1.29233900E-03 -1.82133603E-03
 -1.92771924E-03  1.41038959E-03  2.58091964E-09  1.98780621E-02 -7.38983308E-03
  5.40731714E-03  6.96428214E-10  1.50407238E-03 -4.37081456E-05 -1.23472082E-04
 -2.81516253E-03 -2.64246992E-09 -8.15650549E-09 -1.33931448E-02  2.84863652E-02
 -5.15892098E-02  4.80368434E-02  9.99471301E-08  3.78264401E-02 -3.67624521E-02
  1.22495202E-02  5.63292413E-08  1.00425383E-03 -3.96676198E-03 -4.22219129E-04
 -5.08491133E-04 -2.02608426E-09 -5.50283238E-10  1.61011203E-02 -2.88154454E-02
  3.83939934E-02 -9.00388268E-02 -1.18036190E-07 -4.97915449E-02  4.31106415E-03
 -2.67060419E-02 -4.07205817E-08  9.02011062E-04  5.35687889E-05  1.25594315E-03
 -9.43427909E-03  6.07626580E-09  1.30318016E-08 -1.38877798E-02  2.61039438E-02
 -1.95160097E-01  1.42807943E-01  2.00279814E-07  3.45794674E-02 -5.36988039E-02
  3.92942980E-02  3.51928971E-08  6.76447787E-03 -9.28652027E-04 -2.24308697E-03
 -1.39923291E-02 -1.68623687E-08  2.81487098E-08  1.61011591E-02 -2.88155033E-02
  9.74336648E-02 -9.35313994E-03  7.82304825E-08 -4.97916269E-02  2.67588563E-02
  3.97084132E-03  7.99992744E-09  4.84341729E-03 -3.88774685E-03  1.25593683E-03
 -7.98962040E-03 -3.99241987E-09  8.61952963E-09 -1.33930606E-02  2.84860796E-02
 -6.13930491E-02  3.46376322E-02 -1.69770837E-07  3.78260641E-02 -2.27977262E-02
  3.13329487E-02 -8.99820489E-08 -3.25768611E-03  2.95201945E-04 -4.22214222E-04
 -2.07056572E-03 -2.13509920E-09 -3.17891727E-09  8.00641806E-03  1.88465189E-02
 -2.26315010E-02 -3.63930353E-02 -2.30457551E-02 -2.46004518E-02  1.72459652E-01
  1.57536732E-01 -8.20180710E-03  1.90193398E-02  1.93351165E-03  3.52459475E-02
  6.35501503E-08  3.81493113E-02  1.32171186E-02  2.57832897E-02  5.71844641E-08
 -8.96670392E-04 -1.43739527E-03 -1.14784255E-04  1.79676920E-03 -8.95877952E-10
  2.82770220E-09 -8.42340292E-04  1.69079743E-03  4.29293486E-04  3.95470107E-03
 -3.89186555E-09  1.59699384E-02  3.66689120E-04  3.37788290E-03 -6.51275309E-09
 -6.49705480E-04  1.41166833E-03  3.01667239E-05  2.61419579E-04  2.15540557E-09
  5.04684293E-09 -8.20180244E-03  1.90194389E-02  5.67378923E-03  3.48403625E-02
  8.75033457E-09  3.81489042E-02 -7.37764280E-03  2.80185111E-02  4.20395279E-08
 -1.57368152E-03 -7.60289659E-04 -1.14744955E-04 -1.76218498E-03  2.83173064E-09
  5.13257981E-09  1.27300218E-02 -2.70937394E-02 -3.14059078E-02 -3.66227135E-02
  6.57038890E-08 -5.39201243E-02 -1.26873003E-02 -5.98763314E-03  6.75250878E-08
 -4.06411569E-03  6.83357258E-03  7.72568792E-04  6.48561331E-03 -2.59638803E-09
 -1.23438829E-08 -6.04168485E-02  1.14399260E-01  2.89200681E-02  2.66439152E-01
 -3.91077252E-07  1.04330774E-01  9.14135783E-03  8.42248035E-02 -6.00250611E-08
 -1.04266250E-02  1.63403088E-02 -6.10410029E-03  3.39500315E-03 -1.04659214E-08
 -5.33691163E-08  1.27300564E-02 -2.70941646E-02  2.28169399E-02 -4.25076924E-02
  1.29565464E-08 -5.39201563E-02  1.11063442E-02 -8.56980908E-03  3.71678048E-08
 -5.91647720E-03  8.68601006E-03  7.72497863E-04 -3.25166674E-03 -4.74080370E-09
 -1.57527654E-08 -1.03927240E-02 -2.26314461E-02  3.30989552E-03  8.00613025E-03
 -1.03928245E-02 -2.26318121E-02 -2.19959702E-02 -2.30454214E-02  2.17445856E-01
 -1.33931552E-02  2.84864299E-02 -6.99942115E-04  7.04865950E-02  5.14992722E-08
  3.78266546E-02  1.57365693E-02  3.54100899E-02  4.30792484E-08 -2.14598721E-03
 -8.16670065E-04 -4.22234755E-04  2.81192354E-03 -2.00332046E-09  2.25373598E-09
  1.29210701E-03 -1.82079027E-03  2.58433028E-04  2.37527104E-03 -1.22775458E-09
  1.98789212E-02  9.88382705E-04  9.10351175E-03  5.46668202E-09 -1.76809358E-03
  3.22845742E-03 -1.23455997E-04  6.33662485E-04  4.78956384E-10  8.66636349E-09
 -1.33932335E-02  2.84867047E-02  1.58066603E-02  6.86966026E-02  5.09303957E-08
  3.78265918E-02 -7.77303232E-03  3.79621690E-02  9.60081694E-08 -3.10540236E-03
  1.42864271E-04 -4.22193694E-04 -2.23132780E-03  7.19581944E-09  8.94955578E-09
  1.61011121E-02 -2.88153504E-02 -5.87798213E-02 -7.82698723E-02  1.75974418E-07
 -4.97925005E-02 -2.09735104E-02 -1.70868408E-02  1.32299551E-07 -6.81020267E-03
  7.76567272E-03  1.25592012E-03  4.29293772E-03  6.54840384E-10 -1.39991492E-08
 -1.38872025E-02  2.61022337E-02  2.60952964E-02  2.40420125E-01 -3.36530228E-07
  3.45790523E-02  7.17946669E-03  6.61511354E-02 -2.78383094E-08 -9.49963935E-03
  1.53355464E-02 -2.24313320E-03  3.15000521E-03 -1.40117311E-08 -4.09131867E-08
  1.61015504E-02 -2.88166876E-02  4.06191587E-02 -8.90574627E-02  1.21422022E-08
 -4.97931080E-02  1.68183975E-02 -2.11882859E-02  1.97122684E-08 -7.69736318E-03
  8.65290993E-03  1.25586840E-03 -3.70801287E-04 -9.62496156E-09 -1.09967158E-08
 -2.26315570E-02 -3.63930459E-02  8.00612518E-03  1.88460468E-02 -2.26316815E-02
 -3.63935088E-02 -2.30454063E-02 -2.46004889E-02  1.72460875E-01  1.57539185E-01
  1.27301084E-02 -2.70940125E-02 -2.54042833E-02 -4.10137010E-02 -5.30812359E-08
 -5.39196256E-02 -1.86868441E-03 -1.39038145E-02 -3.92103892E-08  2.59664450E-03
  1.72866105E-04  7.72571061E-04  8.92713146E-03  7.42039676E-09  1.06625838E-08
 -8.20183096E-03  1.90195329E-02  3.14911235E-02  1.59487646E-02  3.65511717E-08
  3.81488360E-02  2.89376487E-02  1.44489027E-03  1.93558074E-08  4.54048908E-05
 -2.37934262E-03 -1.14728348E-04 -1.16871725E-03 -1.73425976E-09 -1.85637100E-09
 -8.42244234E-04  1.69055741E-03  3.63927356E-03  1.60549762E-03  2.62080159E-08
  1.59698363E-02  3.10872327E-03  1.37141067E-03  1.65833513E-08  1.09244295E-03
 -3.30481102E-04  3.01651070E-05  8.99989244E-04 -3.29169592E-09 -6.19019428E-09
 -8.20173386E-03  1.90191082E-02  3.30091992E-02  1.25067068E-02 -1.12111438E-07
  3.81484673E-02  2.05760150E-02  2.03982895E-02 -8.30706366E-08 -2.28526108E-03
 -4.87245421E-05 -1.14783952E-04  1.28774643E-03 -2.49730452E-09 -1.74591630E-09
  1.27301129E-02 -2.70942225E-02 -4.74188194E-02  8.88689325E-03 -4.19018166E-09
 -5.39195322E-02 -1.15286807E-02  7.99276210E-03 -4.25618136E-08  8.97335727E-03
 -6.20388749E-03  7.72531144E-04  2.20601059E-03  1.52860993E-08  8.93395364E-09
 -6.04169173E-02  1.14399452E-01  2.45202566E-01  1.08175115E-01  4.05770633E-07
  1.04330897E-01  7.75117385E-02  3.41955582E-02  8.55692345E-08  1.21946412E-02
 -6.28098386E-03 -6.10407828E-03  1.16861010E-02  4.72491835E-08  2.69983942E-08
 -2.19963769E-02 -2.30458660E-02 -1.03928182E-02 -2.26317381E-02  3.31008685E-03
  8.00654241E-03 -1.03926559E-02 -2.26311086E-02 -2.19961980E-02 -2.30450565E-02
  2.17445849E-01  1.61014361E-02 -2.88161310E-02 -5.68173727E-02 -7.97051330E-02
 -9.04202458E-08 -4.97918377E-02 -9.94094352E-03 -2.51596126E-02 -4.83808871E-08
  4.28724520E-03 -3.33170848E-03  1.25595299E-03  8.36061033E-03  1.04772533E-08
  1.04750967E-08 -1.33932468E-02  2.84868126E-02  6.06943183E-02  3.58499204E-02
  5.73668685E-08  3.78264122E-02  3.85346149E-02  4.07635338E-03  1.65759802E-08
  9.59991659E-04 -3.92251691E-03 -4.22162120E-04 -7.41227420E-04  9.09351415E-10
 -2.25594181E-09  1.29233731E-03 -1.82127004E-03  2.18552020E-03  9.63676362E-04
  2.87656933E-08  1.98785674E-02  8.37790051E-03  3.69581285E-03 -2.57888788E-09
  2.45467361E-03 -9.94295749E-04 -1.23443753E-04  2.18144725E-03 -5.18683521E-09
 -9.86649959E-09 -1.33929681E-02  2.84858392E-02  6.73949855E-02  2.06597653E-02
 -1.79482020E-07  3.78258212E-02  2.89895968E-02  2.57124685E-02 -1.13549229E-07
 -2.34267938E-03 -6.19841728E-04 -4.22223181E-04  2.73971329E-03 -3.15296986E-09
 -3.20457938E-09  1.61014692E-02 -2.88163983E-02 -9.71729300E-02  1.17707613E-02
 -4.04208186E-08 -4.97922659E-02 -2.52839834E-02  9.61944975E-03 -5.67665019E-08
  7.34135023E-03 -6.38589755E-03  1.25589998E-03  5.14139288E-03  1.20534312E-08
  1.18719285E-08 -1.38872687E-02  2.61024849E-02  2.21257013E-01  9.76110086E-02
  3.77140359E-07  3.45793339E-02  6.08785564E-02  2.68574880E-02  7.50541906E-08
  1.14890213E-02 -5.65315045E-03 -2.24309936E-03  1.08427481E-02  3.49534378E-08
  2.37087207E-08 -2.30457566E-02 -2.46006697E-02 -2.26317353E-02 -3.63934965E-02
  8.00654583E-03  1.88467171E-02 -2.26311569E-02 -3.63922297E-02 -2.30453542E-02
 -2.45995781E-02  1.72460622E-01  1.57538704E-01
Grdnt Energy                               R     -2.322486506068437E+02
Grdnt NVar                                 I               54
Grdnt IGetFC                               I                4
Internal Forces                            R   N=          54
 -8.72893520E-06 -5.70249476E-06  9.15108857E-06 -5.02601191E-06  9.23805149E-06
 -7.27094284E-06  8.72725171E-06 -7.22426096E-06  9.10822443E-06 -6.60950891E-06
  9.08822723E-06  8.74391392E-06 -4.33050802E-07 -4.33679162E-07  8.66730003E-07
  3.61177023E-08  2.69553889E-07 -3.05671450E-07  3.55763444E-07 -1.09281751E-07
 -2.46481678E-07 -3.71246051E-07  1.32100677E-06 -9.49760674E-07  5.50803077E-09
 -9.00346861E-08  8.45266511E-08  4.06907954E-07 -5.13597741E-07  1.06689790E-07
  6.59811816E-08 -4.63047238E-09  3.45999706E-08 -3.60116834E-08  3.35391721E-09
  7.04334956E-09  3.47341558E-08  3.84235881E-08 -8.36351520E-08 -9.94843753E-08
 -1.30229954E-08 -2.88722187E-08  3.19576685E-08  4.19461727E-10  4.78068550E-08
  1.62686482E-08  3.73772433E-08  2.70194882E-08  6.89174714E-08  5.85597163E-08
 -5.50316570E-08 -5.87208123E-08 -4.46739476E-08 -4.83631029E-08
Internal Force Constants                   R   N=        1485
  4.00890371E-01  1.88551558E-02  4.00892759E-01  6.13889233E-03  6.13963599E-03
  3.59163722E-01  1.88663798E-02 -1.11473538E-03 -3.56251766E-04  4.00897009E-01
  6.13937661E-03 -3.56548205E-04  7.03394379E-04  6.13941817E-03  3.59183748E-01
 -1.10858572E-03  7.88663709E-02 -3.51089480E-04  1.88669254E-02 -3.55558358E-04
  4.00886042E-01 -3.55034880E-04 -3.51379093E-04  2.07010230E-04  6.14058015E-03
  7.03215845E-04  6.13967701E-03  3.59160418E-01  7.88708208E-02 -1.10815132E-03
 -3.50366198E-04 -1.11502439E-03 -3.50456319E-04  1.88551718E-02 -3.55739850E-04
  4.00897504E-01 -3.50373834E-04 -3.51094344E-04  8.67480955E-05 -3.54974574E-04
  2.06863712E-04  6.13963377E-03  7.03214047E-04  6.13893945E-03  3.59163799E-01
 -1.11545978E-03  1.88669392E-02 -3.54994010E-04  7.88645971E-02 -3.50405541E-04
 -1.11517616E-03 -3.50539205E-04  1.88663636E-02 -3.56272095E-04  4.00890518E-01
 -3.50465622E-04 -3.55539625E-04  2.06864190E-04 -3.50412387E-04  8.66440400E-05
 -3.56562490E-04  2.06851330E-04  6.13945273E-03  7.03393332E-04  6.13943151E-03
  3.59183495E-01 -3.55749532E-04  6.13971971E-03  7.03208158E-04 -3.50539456E-04
  2.06850075E-04 -3.51384802E-04  8.67680759E-05 -3.55026564E-04  2.07011454E-04
  6.14055311E-03  7.03223318E-04  3.59160575E-01 -3.13188020E-02 -3.13215776E-02
 -9.75072328E-03 -1.21708836E-02  5.25769154E-03  4.34892326E-02 -5.31589058E-04
  4.34921811E-02  2.97748655E-04 -1.21741082E-02 -5.32021963E-04  5.25793610E-03
  8.28276714E-02  2.98047503E-02  1.51546243E-03  4.87312828E-03  6.19396659E-03
 -3.30653265E-03 -2.39494045E-02  9.92808110E-04 -1.95407607E-02 -1.48762918E-04
  5.97826613E-03 -4.60952124E-04 -1.95109731E-03 -4.14146889E-02  8.32134832E-02
  1.51405173E-03  2.98061152E-02  4.87759501E-03  5.97691700E-03 -1.95115889E-03
 -1.95398281E-02 -4.61219052E-04 -2.39514204E-02 -1.48985737E-04  6.19584211E-03
  9.92974087E-04 -3.30683879E-03 -4.14129825E-02 -4.17987943E-02  8.32117768E-02
 -3.13206913E-02 -1.21688832E-02  5.25827276E-03 -3.13265463E-02 -9.75050419E-03
 -1.21724511E-02  5.25787665E-03  4.34954960E-02 -5.31466977E-04  4.34937799E-02
  2.98078951E-04 -5.31318211E-04 -3.60578751E-02  2.12864108E-02  1.47714644E-02
  8.28322926E-02  2.98076728E-02  6.19414218E-03 -3.30703322E-03  1.51620155E-03
  4.87584199E-03  5.97543818E-03 -1.95115232E-03 -1.95426549E-02 -4.61265411E-04
 -2.39518538E-02 -1.48984809E-04  9.92359567E-04  2.12865443E-02 -1.32434958E-02
 -8.04304855E-03 -4.14162330E-02  8.32186621E-02  1.51301844E-03  5.97474101E-03
 -1.95123954E-03  2.98103447E-02  4.87466219E-03  6.19701293E-03 -3.30672433E-03
 -2.39528411E-02  9.92732388E-04 -1.95419260E-02 -1.49094142E-04 -4.61041356E-04
  1.47713308E-02 -8.04291498E-03 -6.72841581E-03 -4.14160595E-02 -4.18024291E-02
  8.32184886E-02 -1.21752472E-02  4.34948696E-02 -5.31366838E-04 -3.13186212E-02
  5.25803534E-03 -3.13211634E-02 -9.75107359E-03 -1.21714466E-02  5.25754046E-03
  4.34950196E-02 -5.31277426E-04  2.98180937E-04 -8.38832970E-03 -1.72195263E-03
  1.01102823E-02 -3.60577881E-02  1.47713514E-02  2.12864367E-02  8.28295062E-02
  6.19677374E-03 -2.39539750E-02  9.92447881E-04  2.98058350E-02 -3.30691248E-03
  1.51255182E-03  4.87756926E-03  5.97702741E-03 -1.95113505E-03 -1.95418102E-02
 -4.61225170E-04 -1.49234067E-04 -1.72225572E-03  5.31948699E-03 -3.59723127E-03
  2.12861747E-02 -8.04245693E-03 -1.32437178E-02 -4.14152041E-02  8.32138224E-02
  5.97847351E-03 -1.95408946E-02 -4.61081042E-04  1.51278620E-03 -1.95112286E-03
  2.98086116E-02  4.87350433E-03  6.19441920E-03 -3.30640541E-03 -2.39532093E-02
  9.92502596E-04 -1.48946870E-04  1.01105854E-02 -3.59753436E-03 -6.51305106E-03
  1.47716134E-02 -6.72889442E-03 -8.04271897E-03 -4.14143021E-02 -4.17986183E-02
  8.32129204E-02  4.34914807E-02  4.34898734E-02  2.97752383E-04 -1.21740097E-02
 -5.32027477E-04 -3.13208471E-02  5.25792618E-03 -3.13195676E-02 -9.75076570E-03
 -1.21709705E-02  5.25774145E-03 -5.31592094E-04  6.06364233E-03 -3.03278545E-03
 -3.03085688E-03 -8.38910467E-03  1.01128127E-02 -1.72370798E-03 -3.60559648E-02
  1.47710933E-02  2.12848715E-02  8.28277006E-02 -2.39510959E-02 -1.95401664E-02
 -1.48991419E-04  6.19579475E-03  9.92980364E-04  2.98058838E-02 -3.30683142E-03
  1.51453245E-03  4.87761785E-03  5.97699428E-03 -1.95118279E-03 -4.61213456E-04
 -3.03085077E-03  1.79378749E-03  1.23706328E-03 -1.72242490E-03 -3.59862079E-03
  5.32104569E-03  2.12845713E-02 -8.04201618E-03 -1.32425552E-02 -4.14131407E-02
  8.32119793E-02 -1.95403848E-02 -2.39497070E-02 -1.48760964E-04  5.97821493E-03
 -4.60952887E-04  1.51496330E-03 -1.95109476E-03  2.98050352E-02  4.87314785E-03
  6.19397623E-03 -3.30655866E-03  9.92805550E-04 -3.03279156E-03  1.23899796E-03
  1.79379360E-03  1.01115296E-02 -6.51419186E-03 -3.59733771E-03  1.47713935E-02
 -6.72907709E-03 -8.04231637E-03 -4.14145599E-02 -4.17988386E-02  8.32133985E-02
  4.34947608E-02 -1.21723656E-02 -5.31471600E-04  4.34943811E-02  2.98083117E-04
 -1.21689601E-02 -5.31322803E-04 -3.13214763E-02  5.25831218E-03 -3.13258361E-02
 -9.75057892E-03  5.25788130E-03 -8.38910031E-03  1.01115127E-02 -1.72241236E-03
  6.06377547E-03 -3.03195163E-03 -3.03182384E-03 -8.39128349E-03  1.01131000E-02
 -1.72181649E-03 -3.60579696E-02  1.47715713E-02  2.12863983E-02  8.28323405E-02
 -1.95422582E-02  5.97540326E-03 -4.61268496E-04 -2.39521406E-02 -1.48983151E-04
  6.19414579E-03  9.92357960E-04  2.98079917E-02 -3.30705292E-03  1.51572205E-03
  4.87589186E-03 -1.95115721E-03  1.01128322E-02 -6.51419492E-03 -3.59863732E-03
 -3.03195666E-03  1.23746028E-03  1.79449638E-03 -1.72254254E-03 -3.59809613E-03
  5.32063868E-03  2.12865502E-02 -8.04306216E-03 -1.32434880E-02 -4.14161341E-02
  8.32186507E-02 -2.39525026E-02  6.19696232E-03  9.92740096E-04 -1.95422405E-02
 -1.49099966E-04  5.97481434E-03 -4.61035157E-04  1.51348455E-03 -1.95125925E-03
  2.98101141E-02  4.87468706E-03 -3.30672409E-03 -1.72373193E-03 -3.59731775E-03
  5.32104968E-03 -3.03181880E-03  1.79449134E-03  1.23732746E-03  1.01138260E-02
 -6.51500385E-03 -3.59882219E-03  1.47714195E-02 -6.72850919E-03 -8.04291027E-03
 -4.14162064E-02 -4.18025167E-02  8.32187231E-02 -1.21715011E-02 -3.13219166E-02
  5.25753658E-03  4.34956797E-02 -5.31278335E-04  4.34941891E-02  2.98182627E-04
 -1.21751866E-02 -5.31368618E-04 -3.13178846E-02  5.25805791E-03 -9.75108803E-03
 -3.60560086E-02  1.47715036E-02  2.12845051E-02 -8.39130019E-03 -1.72252366E-03
  1.01138239E-02  6.06385988E-03 -3.03290810E-03 -3.03095177E-03 -8.38830385E-03
  1.01102737E-02 -1.72196985E-03 -3.60577625E-02  1.47712509E-02  2.12865116E-02
  8.28295153E-02  6.19443335E-03  2.98089041E-02 -3.30640466E-03 -2.39535159E-02
  9.92494934E-04 -1.95405283E-02 -1.48944200E-04  5.97844379E-03 -4.61087391E-04
  1.51231934E-03 -1.95113672E-03  4.87353936E-03  2.12848402E-02 -8.04233573E-03
 -1.32425044E-02 -1.72180825E-03  5.32063045E-03 -3.59882220E-03 -3.03095336E-03
  1.79374799E-03  1.23720537E-03  1.01105791E-02 -6.51305288E-03 -3.59752627E-03
  1.47715364E-02 -6.72880864E-03 -8.04272780E-03 -4.14141941E-02  8.32128250E-02
  5.97706774E-03  1.51301251E-03 -1.95113192E-03 -1.95421637E-02 -4.61216599E-04
 -2.39536608E-02 -1.49238427E-04  6.19674285E-03  9.92456009E-04  2.98055652E-02
 -3.30692119E-03  4.87754867E-03  1.47711685E-02 -6.72916782E-03 -8.04200065E-03
  1.01131084E-02 -3.59810679E-03 -6.51500166E-03 -3.03290651E-03  1.23916011E-03
  1.79374640E-03 -1.72227529E-03 -3.59722083E-03  5.31949612E-03  2.12862261E-02
 -8.04244225E-03 -1.32437839E-02 -4.14153212E-02 -4.17986309E-02  8.32139521E-02
  1.45948028E-08  6.69385921E-08  2.84026630E-09  7.11662737E-08  9.96509594E-09
 -6.20335823E-08 -8.08270592E-09 -6.27254282E-08  2.97664500E-09  5.46583951E-08
 -3.62169554E-09  1.54983471E-09 -2.75423799E-08  7.62609217E-09  2.72755473E-08
 -1.97848781E-08  9.20292126E-09  2.24304404E-08  6.23567037E-08 -2.06166208E-08
 -4.38100680E-08 -2.52647967E-08  1.19296412E-08  1.14977861E-08  3.46094698E-08
 -2.35770375E-08 -1.16311670E-08 -5.98027719E-09 -2.01234016E-09  9.56880213E-09
  9.34121100E-03 -3.46714954E-08  6.19301890E-08  3.66250598E-09  1.33558886E-08
 -2.32186049E-09 -6.23226240E-08 -4.12701295E-09 -4.16686700E-08 -7.89814608E-11
  6.17595796E-08 -6.46930462E-10  6.64686597E-10 -2.74557335E-08 -3.43001205E-09
  3.76248511E-08 -7.99077883E-09  6.70233856E-08 -6.93660501E-08  5.32711128E-08
 -6.00404711E-09 -4.88756656E-08 -1.24178008E-08  1.00599335E-08 -3.70601964E-10
 -6.68283835E-09 -2.62946747E-09  9.52034809E-09  2.43155139E-09 -1.20761294E-09
 -1.42759620E-10  3.42744144E-03  8.58502993E-03  4.27215839E-08 -6.28593034E-09
 -5.13673291E-09  7.88169783E-08  8.99189712E-09 -3.79082920E-08 -7.03020891E-09
 -8.77464038E-08  3.36097311E-09  4.30268150E-08 -5.42249934E-09  1.58335043E-09
 -1.58337939E-08  4.78700162E-08 -3.84525851E-08 -3.11929433E-08 -4.82162850E-09
  4.68646293E-08  4.43270717E-08 -2.20251548E-08 -2.37219849E-08 -3.08242835E-08
  1.65038290E-08  1.49582885E-08  5.23177740E-08 -3.54719583E-08 -1.77349419E-08
 -6.48238380E-09 -6.75330869E-09  1.44606037E-08  3.42760884E-03 -1.98783013E-03
  8.58353746E-03 -6.54471449E-09 -1.12943333E-08 -4.31449322E-09  2.10065932E-08
 -3.29505923E-09 -3.81973337E-08 -3.07451598E-09 -6.66896457E-08  3.05346618E-10
  5.01279996E-08 -2.44773424E-09  6.98202252E-10 -1.57471476E-08  3.68139119E-08
 -2.81032812E-08 -1.93988441E-08  5.29988358E-08 -4.49318611E-08  3.52414808E-08
 -7.41258115E-09 -2.87875825E-08 -1.79772876E-08  1.46341213E-08  3.08990036E-09
  1.10254658E-08 -1.45243883E-08  3.41657322E-09  1.92944481E-09 -5.94858147E-09
  4.74904187E-09 -2.48616073E-03  3.16975837E-03  3.16809849E-03  8.82401758E-03
  2.34665170E-08  7.54904998E-09 -7.05318561E-09  6.19218280E-08  4.61081023E-09
 -3.28253500E-08 -6.22772550E-09 -7.86839118E-08  2.99867390E-09  1.45698116E-09
 -6.03039129E-09  2.66723684E-09  3.92401941E-09 -1.00040308E-08 -1.27844793E-09
 -5.96403618E-08  3.60696191E-08  1.90945933E-08  4.71736095E-08 -2.50407894E-08
 -2.34721324E-08 -2.36937064E-08  9.61848531E-09  1.59118212E-08  4.22317153E-08
 -2.93296296E-08 -1.38270953E-08 -7.82011268E-09  6.34450184E-09 -2.69776102E-09
 -6.44262778E-03 -4.20850929E-03 -5.29668670E-04  1.70444982E-03  9.33972610E-03
  2.53601708E-09 -4.36609289E-08 -3.54287958E-09  7.90249789E-08  2.43597866E-09
  1.20500552E-08 -1.83839909E-09 -7.48938709E-08  2.33662753E-09  1.43219483E-08
 -2.81702007E-09  4.69629639E-09  5.39134326E-09 -2.21506931E-08  1.00201890E-08
 -3.32795817E-08  6.65373993E-09  2.35547085E-08  8.30985650E-09 -5.45612981E-09
 -2.38801861E-09 -2.30924031E-08  2.17130862E-08  4.10721553E-09  3.47551836E-08
 -2.86237154E-08 -6.85026648E-09  1.21133334E-09 -2.74292085E-08  2.98576063E-08
 -4.20967441E-03 -2.67682218E-03  1.20564153E-03  2.73849376E-03  3.42738328E-03
  8.58372667E-03  1.88106587E-08  5.73024882E-08  9.20080056E-10  5.44511027E-08
  4.45956488E-09 -6.06088538E-08 -6.07390492E-09 -5.00033314E-08  2.61453110E-09
  1.29080218E-08 -5.43582477E-09  3.75853275E-09 -7.78555602E-09  5.34673000E-08
 -3.92645342E-08 -4.28273777E-08  4.57798189E-08 -6.43016110E-09  5.53867186E-08
 -1.62345629E-08 -4.11413873E-08 -1.81357667E-08  5.50614757E-09  1.19910075E-08
  3.43412429E-08 -1.98534849E-08 -1.51223751E-08 -1.27216767E-08  1.53998924E-08
 -6.50031278E-09 -5.29005565E-04  1.20678064E-03 -5.68561477E-03 -3.94982857E-03
  3.42674694E-03 -1.98795102E-03  8.58337363E-03 -2.11984121E-09  6.09250929E-09
  4.43038612E-09  7.15542535E-08  2.28473330E-09 -1.57334487E-08 -1.68457850E-09
 -4.62132905E-08  1.95248474E-09  2.57729889E-08 -2.22245355E-09  5.78759228E-09
 -6.31823218E-09  4.13206377E-08 -2.79658972E-08 -1.64665977E-08  1.63639397E-08
 -1.97004583E-09  1.65229656E-08  3.35009665E-09 -2.00572734E-08 -1.75344633E-08
  1.76007484E-08  1.86401817E-10  2.68647112E-08 -1.91475707E-08 -8.14554620E-09
 -3.69023062E-09 -1.83738180E-08  2.60550545E-08  1.70394781E-03  2.73846774E-03
 -3.95030457E-03 -2.91578463E-03 -2.48559588E-03  3.16839237E-03  3.16867567E-03
  8.82266391E-03 -8.35563823E-08  2.17923589E-08  4.59955465E-09 -3.55372793E-08
 -8.50624469E-09 -7.63827658E-08 -2.47777780E-09 -3.51526650E-08  2.02017011E-09
  1.14934593E-07  2.01596704E-09 -1.61510086E-10 -5.38358760E-08  3.07941818E-08
  2.02609944E-08  2.37394664E-08 -3.48860777E-08 -7.01507385E-10  5.11369982E-08
 -1.94832552E-08 -2.61749072E-08 -3.35473588E-08  2.48095714E-08  5.89998183E-09
 -2.16629909E-08  4.41361696E-09  1.78480441E-08  9.98476995E-09 -9.25994955E-09
  2.95817391E-10 -6.44381621E-03 -5.30228780E-04 -4.20935883E-03  1.70422860E-03
  6.48120126E-04  2.09403980E-03 -1.58634483E-03 -1.40425148E-04  9.34094810E-03
 -8.70039705E-08 -2.92897173E-08  5.21059709E-09 -1.92987198E-08 -1.27676788E-08
 -2.67848625E-08 -2.97085045E-09 -1.37009383E-08 -1.01082611E-09  9.58975871E-08
  2.51445883E-09 -2.86962738E-09 -4.71209538E-08  2.35009022E-08  2.17122275E-08
  4.31268949E-08 -5.88091382E-08  4.83176602E-09  2.09469090E-08  2.49248578E-08
 -5.06491825E-08 -3.00716872E-08  3.24770938E-08 -4.61079515E-09 -2.80338494E-08
  5.99446280E-09  2.29284546E-08  3.04031928E-08 -2.06323957E-08 -1.01252205E-08
 -4.20983454E-03  1.20581399E-03 -2.67678450E-03  2.73886402E-03  2.09354078E-03
  1.59143554E-03  5.60485555E-04  5.83803149E-05  3.42804635E-03  8.58395733E-03
  3.50300242E-09  2.70939180E-08  1.96634188E-09 -1.55190708E-08  3.78233934E-09
 -7.63895586E-08 -4.62288139E-09 -5.03191285E-08  3.13369660E-09  1.01942690E-07
 -9.58643778E-10  2.66493677E-09 -4.52198378E-08  3.49036539E-08  8.15563593E-09
  1.19443472E-08  7.42838220E-08 -7.58944444E-08  5.15207669E-08 -2.71487030E-08
 -1.93546117E-08 -3.05842706E-08  1.47653580E-08  1.38722035E-08  1.96289302E-08
 -1.72778726E-08 -2.55916132E-09 -1.42366629E-08  1.84898930E-09  1.39033155E-08
 -5.30068895E-04 -5.68779787E-03  1.20605976E-03 -3.95166922E-03 -1.58598996E-03
  5.61193346E-04 -3.32212450E-03 -1.17494119E-03  3.42738292E-03 -1.98758179E-03
  8.58509249E-03  5.54140181E-11 -2.39881584E-08  2.57738422E-09  7.19488747E-10
 -4.79094807E-10 -2.67916553E-08 -5.11595406E-09 -2.88674020E-08  1.02700309E-10
  8.29056847E-08 -4.60152031E-10 -4.31806084E-11 -3.85049157E-08  2.76103742E-08
  9.60686900E-09  3.13317756E-08  5.03607614E-08 -7.03611710E-08  2.13306777E-08
  1.72594101E-08 -4.38288869E-08 -2.71085990E-08  2.24328804E-08  3.36142655E-09
  1.32580717E-08 -1.56970268E-08  2.52124926E-09  6.18176004E-09 -9.52345682E-09
  3.48227760E-09  1.70391278E-03 -3.95175510E-03  2.73863409E-03 -2.91703379E-03
 -1.40569298E-04  5.85890865E-05 -1.17529411E-03 -9.76135730E-04 -2.48551882E-03
  3.16832918E-03  3.17012778E-03  8.82397578E-03 -5.98755730E-08 -3.67050697E-08
  4.83558259E-09  1.68919166E-08 -6.81780333E-09  1.04614189E-08  5.38945919E-09
  3.90163789E-08 -3.76249406E-10  6.99512645E-08  4.13011115E-09 -4.35733669E-09
 -3.68409520E-08  1.38926374E-08  2.11496742E-08  7.91384294E-08 -2.61724764E-08
 -4.84905367E-08 -3.29270691E-08  1.14531609E-08  1.59955391E-08 -1.78005524E-09
 -8.71290638E-09  1.80066818E-08 -2.56618137E-08  7.75705412E-09  1.88298959E-08
  2.74785702E-08 -1.72777086E-08 -1.12211249E-08  6.47849496E-04 -1.58590303E-03
  2.09316387E-03 -1.40588659E-04  2.24926544E-03  8.03876299E-04  8.03946175E-04
 -6.41442971E-04 -6.44236565E-03 -5.29967604E-04 -4.20862153E-03  1.70377651E-03
  9.33973150E-03 -6.36931608E-08 -7.47329039E-08  2.66036260E-09  3.58812282E-08
 -5.67434443E-09  6.57524641E-08  3.93965833E-09 -9.62718131E-09 -5.63604354E-09
  5.91271373E-08  2.17102086E-09 -5.04450267E-09 -1.88912051E-08  7.24874713E-09
  1.22678818E-08  5.17329922E-08 -2.94542603E-08 -1.92083145E-08 -3.43180906E-08
  5.07410099E-09  2.42267707E-08 -9.15991548E-09  5.32171308E-08 -5.06097482E-08
 -2.00977940E-08  3.55315470E-09  1.72634320E-08  4.16666310E-08 -3.10023433E-08
 -1.21796612E-08  2.09378091E-03  5.61285995E-04  1.59121576E-03  5.87208470E-05
  8.03939450E-04 -1.34286365E-03  1.30650630E-03 -8.40296800E-04 -4.20913360E-03
  1.20557921E-03 -2.67664445E-03  2.73806836E-03  3.42675398E-03  8.58331803E-03
 -5.62930460E-08  1.16501260E-08  5.12243324E-09  1.81311448E-08 -3.39395892E-09
 -5.66150339E-08  5.88513145E-09  1.74306434E-08  3.49186020E-09  9.17127502E-08
  2.73362204E-09 -1.64942039E-09 -5.08652030E-08  2.66941580E-08  2.14995357E-08
  6.37757084E-08 -3.06116165E-09 -5.72367643E-08 -2.73855325E-09  4.42692806E-08
 -3.67529236E-08 -9.27909216E-09 -1.31680608E-08  2.93284609E-08 -1.19801828E-08
  6.66897726E-10  1.19480257E-08  7.05903797E-09 -5.56152983E-09 -1.14272092E-09
 -1.58611505E-03 -3.32193248E-03  5.60601290E-04 -1.17521615E-03  8.03855870E-04
  1.30647670E-03 -1.34286774E-03 -8.40246910E-04 -5.29509245E-04 -5.68583904E-03
  1.20630166E-03 -3.95002813E-03  3.42737879E-03 -1.98791732E-03  8.58366905E-03
 -6.01106338E-08 -2.63777081E-08  2.94721332E-09  3.71204565E-08 -2.25050003E-09
 -1.32398873E-09  4.43533064E-09 -3.12129168E-08 -1.76793388E-09  8.08886231E-08
  7.74531749E-10 -2.33658637E-09 -3.29154561E-08  2.00502677E-08  1.26177433E-08
  3.63702713E-08 -6.34294556E-09 -2.79545420E-08 -4.12957476E-09  3.78902207E-08
 -2.85216920E-08 -1.66589524E-08  4.87619765E-08 -3.92879690E-08 -6.41616312E-09
 -3.53700170E-09  1.03815618E-08  2.12470987E-08 -1.92861645E-08 -2.10125717E-09
 -1.40183629E-04 -1.17474346E-03  5.86531883E-05 -9.75906642E-04 -6.41470125E-04
 -8.40263247E-04 -8.40307617E-04 -1.03910074E-03  1.70372280E-03 -3.95029222E-03
  2.73827874E-03 -2.91573628E-03 -2.48559873E-03  3.16864674E-03  3.16837294E-03
  8.82261840E-03 -9.24136684E-08 -5.24537715E-08  1.29021722E-09  6.46482200E-08
 -5.30888132E-09  3.34946301E-08  4.06961795E-09  3.47618809E-08 -3.98675016E-09
  3.77050003E-08  3.27906923E-09 -5.55351729E-09 -1.35209371E-08  1.50719955E-09
  1.38131711E-08  4.65865148E-08 -3.33890978E-08 -1.03005086E-08 -2.88661356E-08
  2.44608108E-08  6.47440117E-09 -2.04367328E-08  8.82061548E-09  4.10161938E-09
 -1.19765451E-08  5.07394021E-09  4.45372121E-09  3.93757283E-08 -2.90472208E-08
 -1.19054363E-08  2.25072544E-03  8.04831634E-04  8.04773696E-04 -6.41120111E-04
  6.47843010E-04 -1.58616439E-03  2.09379966E-03 -1.40207739E-04  6.46677493E-04
 -1.58632344E-03  2.09256586E-03 -1.40435079E-04 -6.44262598E-03 -5.29036395E-04
 -4.20964216E-03  1.70394742E-03  9.34120570E-03 -4.67544834E-08 -6.00138655E-08
  6.20076590E-11  8.80507371E-08 -5.44499595E-10  3.17795655E-08  1.57875087E-09
 -1.71996222E-08  8.09772055E-10  2.06398180E-08  3.79359114E-09 -1.40048632E-09
 -2.65431285E-10  7.82810565E-09 -4.89054630E-09 -7.32045140E-09 -8.63726367E-09
  1.49511784E-08 -6.82222744E-09  5.85051535E-09  2.39099196E-09 -1.95775777E-08
 -3.54968575E-09  1.62459587E-08 -5.12308851E-09 -1.03071881E-08  1.75660553E-08
  3.75893029E-08 -3.36819329E-08 -5.13278989E-09  8.04850832E-04  1.30722956E-03
 -1.34236277E-03 -8.39984051E-04 -1.58594781E-03 -3.32197866E-03  5.61273081E-04
 -1.17475777E-03  2.09239625E-03  5.60672597E-04  1.59001941E-03  5.82957632E-05
 -4.20852907E-03  1.20676441E-03 -2.67681717E-03  2.73847632E-03  3.42743579E-03
  8.58509331E-03 -9.23323573E-08 -1.06900661E-08  3.46525024E-09  4.58431075E-08
 -5.22065264E-09  2.16979285E-09  4.37094378E-09  5.94392376E-08  1.27679580E-09
  4.83452817E-08  6.38639452E-09 -6.09811852E-09 -3.14690637E-08  8.62108231E-09
  2.22233432E-08  6.39669042E-08 -2.76373360E-08 -3.20276567E-08 -2.19576856E-08
  2.97277167E-08 -6.16210627E-09 -1.30552127E-08  5.27925989E-08 -3.31855875E-08
 -2.30597816E-08  1.36834850E-08  7.13375728E-09  3.52112188E-08 -1.77923676E-08
 -1.85006682E-08  8.04789545E-04 -1.34236404E-03  1.30672335E-03 -8.40430234E-04
  2.09317348E-03  5.60582215E-04  1.59123797E-03  5.86467064E-05 -1.58656147E-03
 -3.32187564E-03  5.60584039E-04 -1.17473013E-03 -5.29630142E-04 -5.68561642E-03
  1.20567072E-03 -3.95031556E-03  3.42759780E-03 -1.98787447E-03  8.58360006E-03
 -4.66731722E-08 -1.82501601E-08  2.23704068E-09  6.92456246E-08 -4.56270964E-10
  4.54728242E-10  1.88007669E-09  7.47773453E-09  6.07331803E-09  3.12800993E-08
  6.90091646E-09 -1.94508754E-09 -1.82135578E-08  1.49419884E-08  3.51962579E-09
  1.00599380E-08 -2.88550182E-09 -6.77596970E-09  8.62225188E-11  1.11174212E-08
 -1.02455155E-08 -1.21960576E-08  4.04222976E-08 -2.10412482E-08 -1.62063250E-08
 -1.69764336E-09  2.02460913E-08  3.34247935E-08 -2.24270797E-08 -1.17280219E-08
 -6.41085063E-04 -8.39966119E-04 -8.40413118E-04 -1.03929417E-03 -1.40617333E-04
 -1.17523205E-03  5.87113971E-05 -9.75903325E-04 -1.40842713E-04 -1.17487960E-03
  5.80375949E-05 -9.75999290E-04  1.70446676E-03 -3.94981562E-03  2.73849572E-03
 -2.91578666E-03 -2.48617211E-03  3.16978305E-03  3.16812779E-03  8.82408295E-03
 -1.56552972E-08 -6.15914239E-08  1.30595837E-09  1.09806081E-07  3.85608325E-09
  3.08581653E-08  1.71345663E-09 -6.86995598E-08  4.18590949E-09 -3.17682792E-08
 -1.97390831E-09  2.39691299E-10  3.76231161E-09  9.59770527E-09 -1.05808797E-08
 -3.51038931E-08  2.96995397E-09  2.92374137E-08 -9.75606422E-09  6.54622051E-09
  4.54960934E-09 -1.93314595E-08  2.06551193E-08  1.51567479E-09  1.73967121E-08
 -7.02377760E-09 -7.92411166E-09  2.60793666E-08 -1.16647712E-08 -1.02408380E-08
  6.46683458E-04  2.09238607E-03 -1.58651830E-03 -1.40815692E-04 -6.44236441E-03
 -5.29475364E-04 -4.20915508E-03  1.70373397E-03  2.25043984E-03  8.04529995E-04
  8.04742673E-04 -6.41167175E-04  6.48124470E-04 -1.58631082E-03  2.09402323E-03
 -1.40412064E-04 -6.44381705E-03 -5.30194168E-04 -4.20937484E-03  1.70424805E-03
  9.34095419E-03  5.17304467E-09 -2.36966827E-08 -1.56661359E-09  9.47786029E-08
  5.34683387E-09 -1.60943306E-08 -2.67602710E-09 -7.23868420E-08  5.53197328E-09
 -3.13188613E-08 -5.82532151E-09 -1.78745265E-09 -7.70103954E-10  2.23623148E-08
 -1.94323748E-08 -5.58954380E-08  2.81889529E-08  2.34049378E-08  2.91069033E-08
 -1.32994861E-08 -1.62726793E-08 -2.55010726E-08  9.93257209E-09  1.75165330E-08
  2.79391124E-08 -8.34792428E-09 -1.73485775E-08  1.70470395E-08 -3.67190222E-08
  1.60326056E-08 -1.58627892E-03  5.60692785E-04 -3.32183550E-03 -1.17486380E-03
 -5.29997756E-04 -5.68583954E-03  1.20556471E-03 -3.95027707E-03  8.04514336E-04
  1.30663726E-03 -1.34244929E-03 -8.40326362E-04  2.09351944E-03  5.60500933E-04
  1.59140037E-03  5.83818595E-05 -4.20980065E-03  1.20584368E-03 -2.67677739E-03
  2.73886694E-03  3.42804131E-03  8.58390388E-03 -6.25313659E-08 -5.39702946E-08
  2.93555540E-09  8.76214137E-08 -9.08285982E-10  3.25126037E-08  3.80306713E-09
 -2.45498146E-08 -2.36255429E-10 -6.89231000E-09 -2.48880703E-09 -4.28750060E-09
 -1.27607801E-08  4.08215549E-09  1.05850752E-08  1.88026530E-08 -2.16278941E-08
  3.83212550E-09 -2.85322046E-08  2.43511411E-08  6.17061977E-09 -2.19893885E-08
  3.33882847E-08 -9.19274918E-09  1.05437122E-08 -2.61569952E-08  1.34774851E-08
  2.96642324E-08 -7.39275459E-09 -1.84492261E-08  2.09254496E-03  1.58999270E-03
  5.60598706E-04  5.80464456E-05 -4.20859384E-03  1.20632317E-03 -2.67664239E-03
  2.73827462E-03  8.04734192E-04 -1.34244659E-03  1.30728456E-03 -8.39896216E-04
 -1.58595218E-03 -3.32209590E-03  5.61212130E-04 -1.17493159E-03 -5.30100751E-04
 -5.68780494E-03  1.20604834E-03 -3.95165584E-03  3.42738491E-03 -1.98755394E-03
  8.58504235E-03 -4.17030240E-08 -1.60755534E-08  6.29834272E-11  7.25939357E-08
  5.82464622E-10 -1.44398922E-08 -5.86416581E-10 -2.82370968E-08  1.10980838E-09
 -6.44289212E-09 -6.34022020E-09 -6.31464456E-09 -1.72931956E-08  1.68467651E-08
  1.73358009E-09 -1.98889193E-09  3.59110487E-09 -2.00035039E-09  1.03307629E-08
  4.50543445E-09 -1.46516688E-08 -2.81590016E-08  2.26657375E-08  6.80810900E-09
  2.10861125E-08 -2.74811419E-08  4.05301919E-09  2.06319052E-08 -3.24470056E-08
  7.82421756E-09 -1.40417413E-04  5.82994168E-05 -1.17471849E-03 -9.76001661E-04
  1.70377281E-03 -3.95004100E-03  2.73807740E-03 -2.91573642E-03 -6.41191315E-04
 -8.40339321E-04 -8.39907397E-04 -1.03905540E-03 -1.40557210E-04 -1.17528414E-03
  5.85892694E-05 -9.76137663E-04  1.70391565E-03 -3.95176709E-03  2.73864579E-03
 -2.91703695E-03 -2.48552798E-03  3.16830863E-03  3.17010350E-03  8.82394011E-03
Mulliken Charges                           R   N=          12
 -1.28559082E-01 -1.28551325E-01 -1.28551054E-01 -1.28558124E-01 -1.28550291E-01
 -1.28550584E-01  1.28554348E-01  1.28552901E-01  1.28553183E-01  1.28554219E-01
  1.28552659E-01  1.28553150E-01
Optimization MaxStp                        I                2
Optimization MaxJob                        I                1
Optimization Job offset                    I                0
Optimization Num results per geometry      I                2
Optimization Num geometry variables        I               36
Optimization Reference Energy              R     -2.320000000000000E+02
Opt point       1 Results for each geome   R   N=           2
 -2.48650607E-01  0.00000000E+00
Opt point       1 Geometries               R   N=          36
  2.12992092E+00 -1.55854760E+00  7.08235924E-07 -2.84791492E-01 -2.62383089E+00
 -2.34033102E-06 -2.41470350E+00 -1.06528336E+00  1.04217582E-06 -2.12991869E+00
  1.55855087E+00 -1.16960993E-07  2.84787815E-01  2.62383102E+00 -1.55401750E-06
  2.41470496E+00  1.06528051E+00  1.30773322E-06  3.78763297E+00 -2.77157634E+00
  5.80546362E-08 -5.06450390E-01 -4.66596640E+00 -3.23010312E-06 -4.29407589E+00
 -1.89438540E+00  6.48030355E-06 -3.78763739E+00  2.77157045E+00  2.70955106E-06
  5.06456062E-01  4.66596577E+00 -5.75040753E-06  4.29407451E+00  1.89438868E+00
  5.45158875E-06
Opt point       1 Gradient at each geome   R   N=          36
  1.32814075E-05 -8.46149934E-06  1.60679690E-07 -5.71913899E-06 -1.54714676E-05
 -2.01637843E-07 -1.39494553E-05 -7.20065953E-06 -5.03278807E-09 -1.14320988E-05
  1.10672544E-05 -7.76472529E-08  2.66635273E-06  1.55251101E-05  2.86872690E-08
  1.51976036E-05  4.57915765E-06 -1.81991567E-08 -7.54510689E-06  5.18528529E-06
 -4.19092614E-08  3.76450439E-07  9.25144915E-06 -7.01051174E-10  7.64680908E-06
  4.28862092E-06  1.08143411E-07  7.23158478E-06 -5.54116369E-06  6.22611778E-08
  2.55836297E-09 -9.14188521E-06 -1.00387215E-07 -7.75696667E-06 -4.08020208E-06
  8.57430217E-08
Optimization Number of geometries          I   N=           1
           1
ONIOM Charges                              I   N=          16
           0           0           0           0           0           0
           0           0           0           0           0           0
           0           0           0           0
ONIOM Multiplicities                       I   N=          16
           1           0           0           0           0           0
           0           0           0           0           0           0
           0           0           0           0
Atom Layers                                I   N=          12
           1           1           1           1           1           1
           1           1           1           1           1           1
Atom Modifiers                             I   N=          12
           0           0           0           0           0           0
           0           0           0           0           0           0
Int Atom Modified Types                    I   N=          12
           0           0           0           0           0           0
           0           0           0           0           0           0
Force Field                                I                0
Atom Modified Types                        C   N=          12
                                                            
                                                            
                        
Link Atoms                                 I   N=          12
           0           0           0           0           0           0
           0           0           0           0           0           0
Atom Modified MM Charges                   R   N=          12
  0.00000000E+00  0.00000000E+00  0.00000000E+00  0.00000000E+00  0.00000000E+00
  0.00000000E+00  0.00000000E+00  0.00000000E+00  0.00000000E+00  0.00000000E+00
  0.00000000E+00  0.00000000E+00
Link Distances                             R   N=          48
  0.00000000E+00  0.00000000E+00  0.00000000E+00  0.00000000E+00  0.00000000E+00
  0.00000000E+00  0.00000000E+00  0.00000000E+00  0.00000000E+00  0.00000000E+00
  0.00000000E+00  0.00000000E+00  0.00000000E+00  0.00000000E+00  0.00000000E+00
  0.00000000E+00  0.00000000E+00  0.00000000E+00  0.00000000E+00  0.00000000E+00
  0.00000000E+00  0.00000000E+00  0.00000000E+00  0.00000000E+00  0.00000000E+00
  0.00000000E+00  0.00000000E+00  0.00000000E+00  0.00000000E+00  0.00000000E+00
  0.00000000E+00  0.00000000E+00  0.00000000E+00  0.00000000E+00  0.00000000E+00
  0.00000000E+00  0.00000000E+00  0.00000000E+00  0.00000000E+00  0.00000000E+00
  0.00000000E+00  0.00000000E+00  0.00000000E+00  0.00000000E+00  0.00000000E+00
  0.00000000E+00  0.00000000E+00  0.00000000E+00
Cartesian Gradient                         R   N=          36
  1.32814075E-05 -8.46149934E-06  1.60679690E-07 -5.71913899E-06 -1.54714676E-05
 -2.01637843E-07 -1.39494553E-05 -7.20065953E-06 -5.03278807E-09 -1.14320988E-05
  1.10672544E-05 -7.76472529E-08  2.66635273E-06  1.55251101E-05  2.86872690E-08
  1.51976036E-05  4.57915765E-06 -1.81991567E-08 -7.54510689E-06  5.18528529E-06
 -4.19092614E-08  3.76450439E-07  9.25144915E-06 -7.01051174E-10  7.64680908E-06
  4.28862092E-06  1.08143411E-07  7.23158478E-06 -5.54116369E-06  6.22611778E-08
  2.55836297E-09 -9.14188521E-06 -1.00387215E-07 -7.75696667E-06 -4.08020208E-06
  8.57430217E-08
Cartesian Force Constants                  R   N=         666
  7.19140641E-01 -3.37528884E-02  6.97735956E-01  3.55115140E-07  4.00339581E-07
  1.31408550E-01 -3.06479742E-01 -4.45049775E-02 -3.71900576E-07  6.73833685E-01
 -1.11350141E-01 -1.64233844E-01 -1.44925614E-07  7.59465860E-03  7.43062325E-01
 -2.91320613E-07 -1.15819675E-07 -6.08472351E-02 -8.44471065E-08  5.16857349E-07
  1.31424063E-01 -5.60753673E-02 -1.17338636E-02  4.69393582E-08 -2.67269991E-01
  1.33991957E-01  3.45829483E-07  7.32302648E-01  3.81797856E-02  6.43847093E-02
 -7.54700152E-09  6.71495775E-02 -2.03438161E-01 -2.18875424E-07  2.61595481E-02
  6.84540367E-01 -1.77799801E-08 -2.67655800E-08  7.92032996E-03  4.37314679E-07
 -2.22838199E-07 -6.08397196E-02 -1.21925910E-06 -1.83667569E-07  1.31394538E-01
 -2.50715714E-02 -3.25453445E-02 -1.14958156E-08  4.57298856E-02  2.05829393E-02
 -8.81819426E-09 -1.32296878E-01  1.07774529E-02  1.08567884E-07  7.19149114E-01
 -3.25452967E-02 -4.57454070E-02 -6.26847780E-09  7.04932648E-02 -3.74148200E-02
  7.43403153E-09 -5.60635800E-02 -3.38397420E-01  1.45528917E-07 -3.37502095E-02
  6.97728063E-01  6.58971208E-09  1.34026865E-08 -8.60664782E-03  1.27649784E-10
 -5.50285865E-08  7.91897046E-03  7.72040857E-08  1.45562137E-07 -6.08327981E-02
 -6.86708960E-07 -7.55696072E-08  1.31408712E-01  4.57298208E-02  7.04933587E-02
 -3.00943567E-08 -6.87725917E-02  7.32582174E-03  2.10142532E-09  2.28141239E-02
 -8.37197128E-02 -3.31294828E-09 -3.06486581E-01 -4.45080263E-02  2.64471124E-07
  6.73836189E-01  2.05830393E-02 -3.74147805E-02  1.79997239E-08  7.32575696E-03
 -2.04792215E-03  7.68339497E-09 -3.38079708E-02 -1.44919901E-02  4.91514008E-08
 -1.11353157E-01 -1.64235048E-01  8.14006982E-08  7.60268782E-03  7.43060376E-01
 -3.74847707E-08 -4.59898481E-09  7.91900034E-03  1.70301540E-10 -1.48411109E-08
 -8.60340432E-03  2.87408371E-08  2.17030356E-08  7.91772700E-03  1.71175211E-07
  7.50148144E-08 -6.08467537E-02  1.06315839E-07 -9.54775826E-07  1.31424347E-01
 -1.32296656E-01 -5.60644087E-02 -3.50964241E-08  2.28140919E-02 -3.38079054E-02
  7.23046751E-09 -1.23765344E-02  2.52219252E-02 -1.59956703E-08 -5.60754171E-02
 -1.17337748E-02 -2.21553541E-08 -2.67265186E-01  1.33988237E-01 -3.25543776E-07
  7.32297007E-01  1.07764314E-02 -3.38405157E-01 -1.51837559E-07 -8.37196780E-02
 -1.44919261E-02 -2.19133270E-08  2.52220438E-02 -5.84367427E-02 -2.19731953E-08
  3.81798201E-02  6.43847384E-02  3.56553757E-08  6.71456038E-02 -2.03435730E-01
  2.53384914E-07  2.61649527E-02  6.84546401E-01 -4.15070775E-08 -8.88525389E-08
 -6.08321330E-02  9.14904844E-11 -5.50450253E-08  7.91765836E-03 -9.18523587E-09
  1.07536553E-08 -8.59992040E-03  1.12649502E-08  2.87309619E-08  7.92041572E-03
 -3.54746263E-07  2.36011648E-07 -6.08404433E-02  9.61410480E-07  6.72428151E-08
  1.31394578E-01 -2.41138853E-01  1.32101040E-01  2.46063605E-08 -1.86644998E-02
  1.99246531E-02  8.23884313E-09 -3.65589269E-03 -4.12930050E-03 -5.19044918E-09
  2.95776953E-05 -1.02107393E-03  1.97539254E-10  1.24163678E-03 -1.15733759E-03
 -2.30409243E-09  6.52193215E-03 -3.83513743E-03 -1.65655045E-11  2.54572848E-01
  1.32100684E-01 -1.57280629E-01 -8.11917691E-08 -1.18295737E-02  1.16289267E-02
  6.00573275E-11 -2.71262389E-03 -4.36850342E-04 -6.15555717E-09 -1.02060731E-03
 -6.18186731E-04 -2.51027429E-09 -2.57449187E-03 -5.33470072E-03 -3.47850260E-09
  2.79190646E-02 -1.35574116E-02  7.32819662E-10 -1.42930154E-01  1.63840477E-01
  4.31422288E-08 -1.44766771E-07 -3.56371445E-02 -7.82566956E-09  3.75294335E-08
  2.40141222E-03 -1.98304861E-08 -3.60823246E-09  7.04861100E-03 -1.36995715E-08
 -2.70156652E-08 -2.25427387E-04  2.39887322E-08 -8.58254016E-09  7.04878254E-03
 -8.28826772E-10  5.58242808E-08  2.40243403E-03 -3.49437944E-08  7.67098862E-08
  2.54282237E-02  1.89073162E-03 -3.05921062E-02 -2.77796889E-09 -6.38461186E-02
 -2.97391006E-02 -5.24924510E-09  7.55973747E-03  2.69710330E-02  1.62397372E-09
 -4.20441430E-03  2.39647574E-03  1.38477770E-08 -1.33987960E-03  2.29612516E-04
  1.44981937E-09 -5.30708244E-03 -1.20658527E-03 -1.44887525E-08  1.05062823E-03
  4.53361689E-04  2.32928210E-09  6.27473471E-02  1.16127309E-03 -8.92762534E-03
  9.55477221E-10 -2.97393532E-02 -3.34597241E-01 -1.44046140E-07 -4.78323694E-03
 -1.45962034E-02  3.15911994E-09  3.81401107E-03  1.10763229E-04 -1.62340161E-08
  2.29713847E-04  7.51900425E-04  1.62824740E-09 -2.62294457E-03  1.21465751E-03
 -9.09480761E-09 -2.93117286E-04  9.04179446E-04  3.46757816E-09  3.21766598E-02
  3.55691136E-01 -3.43470814E-08 -5.45337611E-08  2.40206172E-03  4.40343559E-08
 -1.04161948E-07 -3.56458322E-02 -2.31832096E-08 -1.19350826E-08  2.40135595E-03
  2.13062545E-08 -1.35237386E-08  7.04861854E-03  2.00701408E-08  1.20550519E-08
 -2.25108227E-04 -2.45584407E-08  2.52021326E-08  7.04890260E-03  1.05819196E-09
  4.07271568E-09 -3.90926653E-03  1.12336508E-08  1.54419324E-07  2.54380776E-02
 -2.07511750E-03  4.48825898E-03  3.21745192E-08 -1.89673870E-02 -1.32029449E-02
  3.37935686E-08 -2.92644665E-01 -1.02360769E-01  7.06096696E-07  5.50940650E-04
  7.35546357E-04  1.64728492E-09  1.72092933E-03 -3.92234784E-04  2.02064091E-08
  4.28018413E-04  7.92116722E-04 -2.84607634E-10 -1.10497034E-03 -7.05575162E-04
 -4.63458826E-09  1.01053397E-03  2.69487335E-04 -1.47195294E-08  3.10302200E-01
  3.07223508E-03 -2.01843741E-03 -4.39360254E-09  1.85508222E-02  1.19298459E-02
 -3.07185436E-08 -1.02359517E-01 -1.05769025E-01  2.77631067E-07 -3.10185504E-02
 -7.58733282E-03  5.36851022E-08  1.02425510E-03 -5.81435507E-03  1.51488770E-08
  7.91004696E-04 -1.01588144E-03 -1.14898627E-09  1.05535346E-03  4.87204875E-04
  7.79831400E-09 -4.76868937E-04  9.44742518E-04 -2.46483093E-09  1.10751821E-01
  1.08108160E-01  1.44739519E-08 -1.95247002E-09  7.04870075E-03 -8.68510788E-09
  3.88029707E-08  2.40156550E-03  7.67369475E-07  2.70159517E-07 -3.56365976E-02
  1.36070114E-08  1.93712376E-08  2.40138585E-03 -2.03911079E-08 -1.54294559E-09
  7.04884873E-03 -1.22611206E-10 -2.39348211E-08 -2.24985719E-04  2.72428923E-09
  2.52615332E-09  3.52833872E-04 -3.42350799E-09  3.44287032E-09 -3.91028865E-03
 -7.57893818E-07 -3.08498455E-07  2.54290218E-02  2.95763421E-05 -1.02107133E-03
  1.98940920E-09  1.24161872E-03 -1.15732712E-03  9.81412684E-09  6.52184971E-03
 -3.83511654E-03 -4.32093535E-09 -2.41140259E-01  1.32100605E-01  3.35464282E-07
 -1.86644848E-02  1.99246552E-02  2.22850666E-08 -3.65583064E-03 -4.12931071E-03
  1.26707101E-08  3.56707263E-05  1.67279320E-04 -2.47848473E-09  2.40609222E-04
 -2.78595047E-04 -1.42352015E-10  8.71317994E-04  3.96383514E-04 -8.61029395E-09
  2.54574274E-01 -1.02061437E-03 -6.18188806E-04  1.25868614E-09 -2.57449227E-03
 -5.33475772E-03  3.90797614E-09  2.79191941E-02 -1.35574769E-02 -3.60654447E-08
  1.32100152E-01 -1.57279296E-01 -1.93446213E-07 -1.18296224E-02  1.16290013E-02
  1.27166450E-08 -2.71260854E-03 -4.36843867E-04 -3.81885389E-09  1.67276121E-04
  1.41826521E-04  4.13571070E-10  1.48245821E-03 -8.58309522E-04 -4.62269423E-09
 -3.49814285E-04  1.08346918E-03  8.47440364E-10 -1.42929730E-01  1.63839194E-01
  2.34694079E-08  3.25539120E-08 -2.25396601E-04 -2.54680432E-08  1.85330072E-08
  7.04865494E-03 -6.44705837E-09 -4.27450272E-08  2.40245871E-03  4.18835288E-07
 -1.61559295E-07 -3.56372185E-02 -6.41571187E-08 -2.97361934E-08  2.40145667E-03
  2.45946749E-08 -2.19763805E-08  7.04870568E-03  1.09590015E-09  1.93037410E-09
 -1.35415429E-03 -3.96439074E-09  1.85080103E-09  3.52855100E-04 -1.41924445E-08
 -4.34983181E-09 -3.90908632E-03 -3.54253586E-07  2.22230300E-07  2.54282349E-02
 -4.20444611E-03  2.39648557E-03 -8.40845499E-09 -1.33988583E-03  2.29601647E-04
 -8.99253175E-10 -5.30705942E-03 -1.20654599E-03  1.20197852E-08  1.89075609E-03
 -3.05922045E-02  3.13490152E-08 -6.38465360E-02 -2.97402791E-02  4.21381463E-08
  7.55974791E-03  2.69711130E-02 -2.94518143E-08  2.40612242E-04  1.48245706E-03
  4.41142624E-09  2.60133289E-04 -3.76397385E-05  7.85699392E-10 -6.22269203E-05
 -1.65730675E-03 -2.84282047E-09  1.05063000E-03  4.53379971E-04 -2.15814434E-09
  6.27477438E-02  3.81404227E-03  1.10726138E-04  2.07762459E-08  2.29717009E-04
  7.51900668E-04  7.46446849E-10 -2.62293535E-03  1.21468577E-03  2.08781226E-08
  1.16125518E-03 -8.92761653E-03  1.23597758E-08 -2.97404412E-02 -3.34596576E-01
  5.72603130E-07 -4.78329933E-03 -1.45963562E-02  1.65730158E-08 -2.78597948E-04
 -8.58312593E-04 -7.33071225E-11 -3.76367868E-05 -8.25588856E-05 -3.68230256E-09
  1.03741686E-04 -5.55441924E-04  2.70412425E-10 -2.93126271E-04  9.04174981E-04
 -1.11686893E-08  3.21777927E-02  3.55690629E-01 -1.59976700E-08  5.06621806E-09
  7.04849116E-03 -9.04945341E-09 -8.86144864E-09 -2.25066073E-04  9.46845868E-09
 -4.30949116E-09  7.04898748E-03 -8.23241644E-09 -3.81570788E-09  2.40214065E-03
  3.90556658E-08  6.25597278E-07 -3.56460062E-02  2.68486390E-08 -1.84889797E-10
  2.40139555E-03  1.84039310E-09  3.97416817E-09  3.52854628E-04  6.37051496E-11
  1.17612585E-09 -1.35411970E-03  1.88913320E-09 -2.01007925E-09  3.52741494E-04
 -6.96593171E-09  1.48670896E-09 -3.90934256E-03 -4.95395813E-08 -6.19090735E-07
  2.54381415E-02  5.50983787E-04  7.35516839E-04 -1.05103410E-09  1.72093414E-03
 -3.92212311E-04 -1.62736398E-08  4.28027831E-04  7.92122181E-04  2.35818921E-10
 -2.07515318E-03  4.48827389E-03 -2.20336831E-08 -1.89674400E-02 -1.32030101E-02
 -2.71492435E-08 -2.92644091E-01 -1.02361370E-01 -5.35757331E-07  8.71309705E-04
 -3.49820939E-04  1.03696938E-08 -6.22259943E-05  1.03741585E-04 -1.53764938E-09
 -2.95738539E-05 -1.29632071E-04  3.79452356E-09 -1.10497196E-03 -7.05578581E-04
  2.64546622E-09  1.01053095E-03  2.69488077E-04  1.06190596E-08  3.10301669E-01
 -3.10185503E-02 -7.58732161E-03 -4.51656111E-08  1.02427751E-03 -5.81432621E-03
 -5.31612302E-09  7.90984050E-04 -1.01589204E-03  1.11677270E-09  3.07223736E-03
 -2.01843722E-03  7.23120924E-10  1.85508536E-02  1.19298259E-02  2.54948054E-08
 -1.02360243E-01 -1.05769747E-01 -2.02084729E-07  3.96396258E-04  1.08347636E-03
  2.30344300E-09 -1.65730312E-03 -5.55441437E-04 -8.24928594E-10 -1.29634357E-04
  2.07051288E-04  5.08115421E-10  1.05535430E-03  4.87207288E-04 -5.56303291E-09
 -4.76853839E-04  9.44745648E-04  9.71798160E-10  1.10752482E-01  1.08108859E-01
 -4.35311255E-09 -1.40725987E-08  2.40142353E-03  2.56373354E-08 -6.02088293E-09
  7.04893317E-03  2.35359254E-09  2.45095667E-08 -2.24972714E-04 -1.58016705E-08
  1.16723831E-08  7.04860186E-03  1.66989843E-08 -3.52615319E-08  2.40155298E-03
 -5.95783339E-07 -1.95489400E-07 -3.56366074E-02  2.69334941E-09  3.32996605E-09
 -3.90915920E-03 -6.44322865E-10 -7.24607566E-10  3.52743821E-04 -4.08268255E-09
 -6.79054177E-10 -1.35413970E-03 -5.45203436E-09 -4.90806568E-09  3.52832293E-04
  2.59588308E-09 -1.01921262E-08 -3.91021800E-03  5.76138036E-07  2.27836333E-07
  2.54290093E-02
Nonadiabatic coupling                      R   N=          36
  0.00000000E+00  0.00000000E+00  0.00000000E+00  0.00000000E+00  0.00000000E+00
  0.00000000E+00  0.00000000E+00  0.00000000E+00  0.00000000E+00  0.00000000E+00
  0.00000000E+00  0.00000000E+00  0.00000000E+00  0.00000000E+00  0.00000000E+00
  0.00000000E+00  0.00000000E+00  0.00000000E+00  0.00000000E+00  0.00000000E+00
  0.00000000E+00  0.00000000E+00  0.00000000E+00  0.00000000E+00  0.00000000E+00
  0.00000000E+00  0.00000000E+00  0.00000000E+00  0.00000000E+00  0.00000000E+00
  0.00000000E+00  0.00000000E+00  0.00000000E+00  0.00000000E+00  0.00000000E+00
  0.00000000E+00
Dipole Moment                              R   N=           3
 -3.55430889E-07  2.63822757E-06  7.40444770E-07
Dipole Derivatives                         R   N=         108
  6.59985605E-02 -9.71606885E-02 -7.79211562E-09 -9.72240815E-02  4.30085135E-03
 -4.47232823E-09 -9.48200860E-07  5.03257297E-07 -1.11019310E-01 -6.45575080E-02
  2.18740077E-02  1.55284474E-07  2.18810984E-02  1.34673353E-01  3.41675648E-07
  4.91915051E-07 -1.33372299E-07 -1.11017761E-01  1.03900291E-01  7.52852286E-02
 -6.66686599E-07  7.53443806E-02 -3.36402144E-02 -3.03779006E-07 -1.23409998E-06
 -6.80382982E-07 -1.11017019E-01  6.59994164E-02 -9.71614179E-02 -2.62458990E-07
 -9.72246499E-02  4.30154327E-03  3.43330014E-07 -4.41123761E-07  1.07987458E-06
 -1.11018687E-01 -6.45568883E-02  2.18742915E-02 -8.13516742E-08  2.18809992E-02
  1.34675840E-01 -7.55252723E-07 -2.36106872E-07 -1.90286423E-06 -1.11016870E-01
  1.03900707E-01  7.52848920E-02  6.68282371E-07  7.53449930E-02 -3.36401795E-02
  2.99810371E-07  1.60049901E-06  8.23550458E-07 -1.11016756E-01 -6.28934902E-02
  8.75086799E-02 -6.94798086E-08  8.75137214E-02 -7.33359361E-03  3.96581772E-09
  1.32626319E-07 -5.79694305E-07  1.11020468E-01  5.45660104E-02 -1.96983301E-02
 -3.18611278E-09 -1.97034558E-02 -1.24786327E-01 -2.58769714E-07  7.28227530E-08
  3.45297287E-07  1.11017364E-01 -9.70140736E-02 -6.78080518E-02  3.72056043E-07
 -6.78107146E-02  2.67848187E-02  1.20694282E-07  7.29059034E-07  1.10115660E-07
  1.11015602E-01 -6.28947891E-02  8.75090962E-02  1.45200257E-07  8.75130968E-02
 -7.33304239E-03 -2.74972034E-08  5.80424185E-07 -1.34311231E-07  1.11020315E-01
  5.45655021E-02 -1.96996436E-02  3.71425086E-08 -1.97038557E-02 -1.24787369E-01
  3.24501277E-07 -1.29444443E-07  6.23511888E-07  1.11017092E-01 -9.70137384E-02
 -6.78080641E-02 -2.87010904E-07 -6.78115318E-02  2.67843197E-02 -8.42070813E-08
 -6.18370912E-07 -5.49822886E-08  1.11015559E-01
Polarizability                             R   N=           6
  7.12905791E+01  8.11836734E-05  7.12896098E+01 -2.54050051E-06 -1.02671414E-06
  2.09620191E+01
Quadrupole Moment                          R   N=           6
  1.78397830E+00  1.78389684E+00 -3.56787514E+00 -1.20273900E-05 -2.81971273E-06
 -1.13949002E-06
QEq coupling tensors                       R   N=          72
  1.23666584E-01  2.18501658E-02  1.37546412E-01  1.95230413E-07  2.88914362E-07
 -2.61212996E-01  1.52996380E-01 -4.92187294E-03  1.08216398E-01 -3.00074466E-07
  3.18612184E-07 -2.61212778E-01  1.15152028E-01 -1.69340588E-02  1.46062237E-01
 -4.75472059E-07  4.54147904E-08 -2.61214265E-01  1.23668789E-01  2.18507649E-02
  1.37544386E-01 -4.94914643E-07 -3.29808264E-07 -2.61213175E-01  1.52996954E-01
 -4.91980737E-03  1.08216147E-01  6.06903856E-08 -5.06380784E-07 -2.61213101E-01
  1.15150707E-01 -1.69327381E-02  1.46063579E-01  5.38207164E-07 -9.26011012E-09
 -2.61214286E-01 -1.45316849E-01  2.08741410E-01 -1.27992472E-02  6.60409420E-08
 -8.59449701E-08  1.58116097E-01  1.34846411E-01 -4.69887480E-02 -2.92962343E-01
 -1.39112276E-08 -2.04431739E-07  1.58115931E-01 -2.26703888E-01 -1.61751615E-01
  6.85880881E-02  1.04425454E-06  4.39073514E-07  1.58115800E-01 -1.45319029E-01
  2.08740866E-01 -1.27971433E-02  4.85345021E-07 -3.20346085E-07  1.58116172E-01
  1.34846000E-01 -4.69905352E-02 -2.92961890E-01  8.17712143E-08  8.51459768E-07
  1.58115889E-01 -2.26703052E-01 -1.61752598E-01  6.85871673E-02 -7.89808330E-07
 -3.26732791E-07  1.58115884E-01
Number of Normal Modes                     I               30
Vib-LE2Fix                                 I               14
Vib-NDFDPol                                I                0
Vib-NumROA                                 I                0
Vib-NDim                                   I               12
Vib-NDim0                                  I               12
Vib-LFlags                                 I                8
Vib-IFlags                                 I   N=         240
           0           0           1           0           0           0
           0           0           0           0           2           0
           0           0           0           0           0           0
           3           0           0           0           0           0
           0           0           4           0           0           0
           0           0           0           0           5           0
           0           0           0           0           0           0
           6           0           0           0           0           0
           0           0           7           0           0           0
           0           0           0           0           8           0
           0           0           0           0           0           0
           9           0           0           0           0           0
           0           0          10           0           0           0
           0           0           0           0          11           0
           0           0           0           0           0           0
          12           0           0           0           0           0
           0           0          13           0           0           0
           0           0           0           0          14           0
           0           0           0           0           0           0
          15           0           0           0           0           0
           0           0          16           0           0           0
           0           0           0           0          17           0
           0           0           0           0           0           0
          18           0           0           0           0           0
           0           0          19           0           0           0
           0           0           0           0          20           0
           0           0           0           0           0           0
          21           0           0           0           0           0
           0           0          22           0           0           0
           0           0           0           0          23           0
           0           0           0           0           0           0
          24           0           0           0           0           0
           0           0          25           0           0           0
           0           0           0           0          26           0
           0           0           0           0           0           0
          27           0           0           0           0           0
           0           0          28           0           0           0
           0           0           0           0          29           0
           0           0           0           0           0           0
          30           0           0           0           0           0
Vib-AtMass                                 R   N=          12
  1.20000000E+01  1.20000000E+01  1.20000000E+01  1.20000000E+01  1.20000000E+01
  1.20000000E+01  1.00782504E+00  1.00782504E+00  1.00782504E+00  1.00782504E+00
  1.00782504E+00  1.00782504E+00
Vib-E2                                     R   N=         420
  4.15027819E+02  4.15107217E+02  6.21893474E+02  6.21909991E+02  6.94367566E+02
  7.17774970E+02  8.64514561E+02  8.64604959E+02  9.69091193E+02  9.69192930E+02
  1.01082170E+03  1.01988150E+03  1.02051727E+03  1.06908017E+03  1.06910113E+03
  1.18560118E+03  1.20778482E+03  1.20780608E+03  1.35658392E+03  1.38711257E+03
  1.53139146E+03  1.53141164E+03  1.65600001E+03  1.65600974E+03  3.17448175E+03
  3.18408834E+03  3.18415367E+03  3.19986660E+03  3.19993470E+03  3.21055210E+03
  2.96066719E+00  2.96098512E+00  6.08337686E+00  6.08333215E+00  1.08481589E+00
  3.91442220E+00  1.24766490E+00  1.24766518E+00  1.35537081E+00  1.35529723E+00
  1.21935824E+00  6.55435615E+00  6.03249586E+00  1.70082520E+00  1.70075564E+00
  1.08050208E+00  1.13733405E+00  1.13736424E+00  6.66340763E+00  1.24766503E+00
  2.01559796E+00  2.01575828E+00  5.31975841E+00  5.32024266E+00  1.08342508E+00
  1.08749054E+00  1.08749176E+00  1.09491588E+00  1.09491717E+00  1.09914241E+00
  3.00465221E-01  3.00612472E-01  1.38620328E+00  1.38626673E+00  3.08166263E-01
  1.18821351E+00  5.49405223E-01  5.49520252E-01  7.49959178E-01  7.50075929E-01
  7.34058431E-01  4.01679499E+00  3.70158692E+00  1.14532946E+00  1.14532753E+00
  8.94855789E-01  9.77501372E-01  9.77561743E-01  7.22503430E+00  1.41439795E+00
  2.78500870E+00  2.78530361E+00  8.59533452E+00  8.59621792E+00  6.43272164E+00
  6.49599840E+00  6.49627219E+00  6.60533279E+00  6.60562173E+00  6.67518968E+00
  2.26889439E-08  7.61674099E-07  4.68798254E-11  7.43216932E-11  7.75399435E+01
  3.39650444E-10  6.01331702E-10  2.10395838E-10  1.56090375E-08  4.82200237E-06
  1.13230452E-10  7.12862572E-08  1.10347524E-10  3.26881992E+00  3.26858404E+00
  3.79294312E-08  2.84462470E-09  2.74079256E-09  4.60278721E-07  2.71089867E-10
  6.53908046E+00  6.53873157E+00  3.75842911E-09  4.19751982E-09  1.63226393E-04
  1.06234639E-08  6.49057471E-08  5.19503002E+01  5.19385970E+01  7.64088289E-09
  0.00000000E+00  0.00000000E+00  0.00000000E+00  0.00000000E+00  0.00000000E+00
  0.00000000E+00  0.00000000E+00  0.00000000E+00  0.00000000E+00  0.00000000E+00
  0.00000000E+00  0.00000000E+00  0.00000000E+00  0.00000000E+00  0.00000000E+00
  0.00000000E+00  0.00000000E+00  0.00000000E+00  0.00000000E+00  0.00000000E+00
  0.00000000E+00  0.00000000E+00  0.00000000E+00  0.00000000E+00  0.00000000E+00
  0.00000000E+00  0.00000000E+00  0.00000000E+00  0.00000000E+00  0.00000000E+00
  0.00000000E+00  0.00000000E+00  0.00000000E+00  0.00000000E+00  0.00000000E+00
  0.00000000E+00  0.00000000E+00  0.00000000E+00  0.00000000E+00  0.00000000E+00
  0.00000000E+00  0.00000000E+00  0.00000000E+00  0.00000000E+00  0.00000000E+00
  0.00000000E+00  0.00000000E+00  0.00000000E+00  0.00000000E+00  0.00000000E+00
  0.00000000E+00  0.00000000E+00  0.00000000E+00  0.00000000E+00  0.00000000E+00
  0.00000000E+00  0.00000000E+00  0.00000000E+00  0.00000000E+00  0.00000000E+00
  0.00000000E+00  0.00000000E+00  0.00000000E+00  0.00000000E+00  0.00000000E+00
  0.00000000E+00  0.00000000E+00  0.00000000E+00  0.00000000E+00  0.00000000E+00
  0.00000000E+00  0.00000000E+00  0.00000000E+00  0.00000000E+00  0.00000000E+00
  0.00000000E+00  0.00000000E+00  0.00000000E+00  0.00000000E+00  0.00000000E+00
  0.00000000E+00  0.00000000E+00  0.00000000E+00  0.00000000E+00  0.00000000E+00
  0.00000000E+00  0.00000000E+00  0.00000000E+00  0.00000000E+00  0.00000000E+00
  0.00000000E+00  0.00000000E+00  0.00000000E+00  0.00000000E+00  0.00000000E+00
  0.00000000E+00  0.00000000E+00  0.00000000E+00  0.00000000E+00  0.00000000E+00
  0.00000000E+00  0.00000000E+00  0.00000000E+00  0.00000000E+00  0.00000000E+00
  0.00000000E+00  0.00000000E+00  0.00000000E+00  0.00000000E+00  0.00000000E+00
  0.00000000E+00  0.00000000E+00  0.00000000E+00  0.00000000E+00  0.00000000E+00
  0.00000000E+00  0.00000000E+00  0.00000000E+00  0.00000000E+00  0.00000000E+00
  0.00000000E+00  0.00000000E+00  0.00000000E+00  0.00000000E+00  0.00000000E+00
  0.00000000E+00  0.00000000E+00  0.00000000E+00  0.00000000E+00  0.00000000E+00
  0.00000000E+00  0.00000000E+00  0.00000000E+00  0.00000000E+00  0.00000000E+00
  0.00000000E+00  0.00000000E+00  0.00000000E+00  0.00000000E+00  0.00000000E+00
  0.00000000E+00  0.00000000E+00  0.00000000E+00  0.00000000E+00  0.00000000E+00
  0.00000000E+00  0.00000000E+00  0.00000000E+00  0.00000000E+00  0.00000000E+00
  1.00000000E+02  1.00000000E+02  1.00000000E+02  1.00000000E+02  1.00000000E+02
  1.00000000E+02  1.00000000E+02  1.00000000E+02  1.00000000E+02  1.00000000E+02
  1.00000000E+02  1.00000000E+02  1.00000000E+02  1.00000000E+02  1.00000000E+02
  1.00000000E+02  1.00000000E+02  1.00000000E+02  1.00000000E+02  1.00000000E+02
  1.00000000E+02  1.00000000E+02  1.00000000E+02  1.00000000E+02  1.00000000E+02
  1.00000000E+02  1.00000000E+02  1.00000000E+02  1.00000000E+02  1.00000000E+02
  0.00000000E+00  0.00000000E+00  0.00000000E+00  0.00000000E+00  0.00000000E+00
  0.00000000E+00  0.00000000E+00  0.00000000E+00  0.00000000E+00  0.00000000E+00
  0.00000000E+00  0.00000000E+00  0.00000000E+00  0.00000000E+00  0.00000000E+00
  0.00000000E+00  0.00000000E+00  0.00000000E+00  0.00000000E+00  0.00000000E+00
  0.00000000E+00  0.00000000E+00  0.00000000E+00  0.00000000E+00  0.00000000E+00
  0.00000000E+00  0.00000000E+00  0.00000000E+00  0.00000000E+00  0.00000000E+00
  0.00000000E+00  0.00000000E+00  0.00000000E+00  0.00000000E+00  0.00000000E+00
  0.00000000E+00  0.00000000E+00  0.00000000E+00  0.00000000E+00  0.00000000E+00
  0.00000000E+00  0.00000000E+00  0.00000000E+00  0.00000000E+00  0.00000000E+00
  0.00000000E+00  0.00000000E+00  0.00000000E+00  0.00000000E+00  0.00000000E+00
  0.00000000E+00  0.00000000E+00  0.00000000E+00  0.00000000E+00  0.00000000E+00
  0.00000000E+00  0.00000000E+00  0.00000000E+00  0.00000000E+00  0.00000000E+00
  0.00000000E+00  0.00000000E+00  0.00000000E+00  0.00000000E+00  0.00000000E+00
  0.00000000E+00  0.00000000E+00  0.00000000E+00  0.00000000E+00  0.00000000E+00
  0.00000000E+00  0.00000000E+00  0.00000000E+00  0.00000000E+00  0.00000000E+00
  0.00000000E+00  0.00000000E+00  0.00000000E+00  0.00000000E+00  0.00000000E+00
  0.00000000E+00  0.00000000E+00  0.00000000E+00  0.00000000E+00  0.00000000E+00
  0.00000000E+00  0.00000000E+00  0.00000000E+00  0.00000000E+00  0.00000000E+00
  0.00000000E+00  0.00000000E+00  0.00000000E+00  0.00000000E+00  0.00000000E+00
  0.00000000E+00  0.00000000E+00  0.00000000E+00  0.00000000E+00  0.00000000E+00
  0.00000000E+00  0.00000000E+00  0.00000000E+00  0.00000000E+00  0.00000000E+00
  0.00000000E+00  0.00000000E+00  0.00000000E+00  0.00000000E+00  0.00000000E+00
  0.00000000E+00  0.00000000E+00  0.00000000E+00  0.00000000E+00  0.00000000E+00
  0.00000000E+00  0.00000000E+00  0.00000000E+00  0.00000000E+00  0.00000000E+00
Vib-Modes                                  R   N=        1080
  5.71454206E-08  1.43888876E-07 -2.10287538E-01 -1.99094806E-07  9.18623268E-08
 -9.15687124E-04  7.65823680E-08 -1.62115542E-08  2.11203883E-01 -1.40139444E-08
 -1.47248732E-07 -2.10286975E-01  1.01663368E-07 -1.33918122E-07 -9.14643214E-04
 -3.62316626E-08  2.38161370E-08  2.11204331E-01  4.09012692E-08  2.20996625E-07
 -4.52447773E-01 -5.30391022E-08  7.61613812E-08 -1.94368590E-03  5.69878578E-07
  3.67138923E-07  4.54376733E-01 -1.81951970E-07  1.49166118E-07 -4.52450758E-01
  2.28194346E-07 -1.48990404E-07 -1.94898821E-03 -4.37891714E-07 -2.14262741E-07
  4.54374347E-01  3.69693488E-07 -3.42418218E-08 -1.22465452E-01  2.87274410E-10
 -1.74369301E-07  2.43373462E-01 -2.80519993E-07  5.27492211E-08 -1.20891367E-01
 -2.30822148E-07  8.81122811E-08 -1.22466449E-01 -9.37672239E-08  1.12751712E-07
  2.43373579E-01  2.70665946E-07 -8.16050230E-08 -1.20890555E-01  3.16261543E-07
 -4.80162075E-08 -2.63552120E-01 -5.09744653E-08 -2.96826999E-07  5.23480198E-01
 -7.09427407E-07  1.65365940E-07 -2.60125846E-01 -4.84101100E-07  4.76224321E-08
 -2.63547544E-01 -5.37427307E-08  6.45014264E-07  5.23480356E-01  5.58847099E-07
 -7.73346010E-08 -2.60130558E-01  2.86110536E-01 -2.18846720E-01  1.34506886E-07
  1.54498787E-01  1.48795655E-01 -1.39240971E-07  1.26482082E-01  1.97763598E-01
  1.99774258E-07 -2.86110640E-01  2.18846333E-01 -4.05190295E-08 -1.54498841E-01
 -1.48794999E-01 -6.65780718E-08 -1.26481790E-01 -1.97763652E-01  1.09050012E-07
  2.96367969E-01 -2.03119264E-01 -2.16561801E-07 -1.80327515E-01  1.84677024E-01
 -4.01917233E-07  2.54337760E-01 -9.34142655E-02 -3.02038943E-07 -2.96368472E-01
  2.03118048E-01 -1.92572690E-07  1.80326823E-01 -1.84677609E-01 -4.73132857E-07
 -2.54338177E-01  9.34134989E-02 -7.59339370E-07  1.05593456E-01  1.14053791E-01
  1.69419459E-07 -3.55313455E-02  3.26556289E-01  8.44434503E-08 -3.11017906E-01
 -4.55768551E-02 -9.75113375E-09 -1.05592791E-01 -1.14054241E-01  3.16730055E-07
  3.55309905E-02 -3.26556364E-01 -1.28696747E-07  3.11017824E-01  4.55771762E-02
  1.20591952E-07 -1.17687563E-01 -1.90991585E-01 -1.08163987E-06  1.36125291E-01
  3.07020884E-01 -1.31642778E-06 -2.27394320E-01 -2.33029521E-01 -1.24868961E-06
  1.17686807E-01  1.90992279E-01 -1.17764796E-06 -1.36126194E-01 -3.07020080E-01
 -1.22450788E-06  2.27393276E-01  2.33030446E-01 -5.32432054E-07  6.35969115E-08
  8.10170810E-08 -3.41858137E-02 -1.01060208E-08  1.38163549E-07 -3.41292871E-02
 -1.27614019E-07  3.89750665E-08 -3.41849921E-02 -1.69371765E-07 -1.48486576E-08
 -3.41856901E-02 -1.24652136E-08 -2.59518057E-07 -3.41289130E-02  2.03472024E-07
 -5.09960431E-09 -3.41850074E-02 -3.26680699E-07 -6.29578188E-07  4.06856784E-01
  1.27173053E-07 -8.16001924E-08  4.06720458E-01  1.08871069E-06 -1.18187939E-08
  4.06872416E-01  6.98542839E-07  2.22711104E-07  4.06855893E-01 -1.86899400E-07
  5.99569977E-07  4.06718357E-01 -7.75879881E-07  1.54458030E-07  4.06872428E-01
  3.44866500E-07  7.16795000E-08 -2.09914170E-01  6.93091370E-08 -3.21738609E-07
  2.09939803E-01 -2.71180387E-07  9.02707015E-08 -2.09937442E-01  1.99788266E-07
  2.18580559E-07  2.09913660E-01  5.61670210E-08 -1.27641475E-07 -2.09939099E-01
 -4.10519673E-07  2.76463436E-08  2.09937203E-01  6.32933520E-07  5.35226207E-07
 -3.50243260E-01  9.79678557E-08 -3.71529683E-07  3.50073486E-01 -6.77501043E-07
  1.97909804E-07 -3.50091454E-01  5.21476516E-07  3.61711845E-07  3.50245512E-01
  3.08949903E-07 -4.08444765E-07 -3.50076193E-01 -7.46075031E-07  1.75723417E-07
  3.50092444E-01 -1.28547787E-07 -1.16766471E-07  7.27070483E-02  1.87054560E-07
 -3.92545061E-08 -2.28157927E-03 -2.72420872E-07  1.05822972E-07 -7.49538037E-02
 -1.92834368E-07 -1.27363297E-07 -7.27058450E-02  2.53503424E-07 -7.38762356E-08
  2.27931510E-03 -1.91845074E-07  1.60633946E-07  7.49547654E-02  2.85779919E-07
  6.68261515E-07 -4.86730914E-01  3.94984783E-07 -7.98758825E-08  1.51872234E-02
  1.15044745E-06  3.95375903E-07  5.01949927E-01  7.54568253E-07 -1.44817039E-08
  4.86728168E-01  5.77365780E-07 -1.40230597E-07 -1.51823508E-02  9.45782711E-07
  2.52133564E-07 -5.01950872E-01 -1.33985375E-07  2.22189659E-07 -4.46253606E-02
 -9.36233599E-08 -2.30677247E-08 -8.52173334E-02  1.29322491E-07 -7.64953751E-08
 -4.06961165E-02 -1.17002557E-07  1.41913464E-07  4.46275115E-02 -7.68741667E-08
  4.03059644E-08  8.52166991E-02  1.91694367E-07 -8.51595796E-08  4.06949616E-02
 -3.83565371E-07 -2.52031047E-07  2.98748442E-01  8.76199818E-08 -3.40264730E-07
  5.70632819E-01  1.11387622E-06 -3.94404986E-07  2.72428957E-01 -7.88590720E-07
 -2.70237902E-08 -2.98754477E-01  2.03326694E-07 -1.22138967E-06 -5.70629803E-01
  9.63595602E-07 -3.80654185E-07 -2.72430244E-01 -3.50830192E-07  3.97431134E-07
 -9.15318599E-02 -1.71739323E-08 -5.83678506E-08  5.50554674E-03  5.27024478E-07
  1.72630115E-07  8.60253161E-02 -2.50776355E-07 -2.13719571E-08 -9.15312306E-02
  5.64552509E-08 -4.32832107E-07  5.50627728E-03 -1.83687004E-08  3.90917873E-08
  8.60263301E-02 -7.03548794E-07 -2.82009075E-07  5.06553084E-01  1.71760674E-07
 -3.71058221E-08 -3.04529604E-02 -8.39555177E-07 -1.31646751E-07 -4.76095440E-01
  6.31645638E-07 -1.19230027E-07  5.06548266E-01  2.35904862E-07 -5.29485643E-07
 -3.04550634E-02  1.14282574E-06 -5.04975408E-08 -4.76102408E-01 -4.60852374E-07
  3.46785377E-07  4.64792186E-02 -8.59934506E-08  3.02731214E-07 -1.02511956E-01
  6.67196345E-07  2.09955555E-07  5.60050722E-02  3.78489696E-07 -1.30594154E-07
  4.64790717E-02 -7.32948963E-08 -8.16485688E-07 -1.02511797E-01 -3.61681638E-07
 -6.32368696E-08  5.60027553E-02 -2.28412412E-07  8.35997724E-07 -2.57171042E-01
 -1.71659011E-07  3.78739490E-08  5.67451192E-01 -2.69915012E-07  1.95659661E-07
 -3.09946546E-01  1.15427751E-07  7.28174454E-08 -2.57164801E-01 -4.18082789E-07
  4.37319327E-07  5.67446038E-01  2.12227559E-07  2.16412286E-07 -3.09928587E-01
  4.19223468E-07 -1.32336805E-07 -5.66105539E-02  2.78142851E-07  1.41595328E-06
  5.66725924E-02 -6.56514509E-07 -1.96396963E-07 -5.66146383E-02  1.42583642E-06
 -7.87710868E-07  5.66120631E-02  8.15151095E-08  2.32966031E-07 -5.66747367E-02
 -1.69366066E-06 -6.56885451E-07  5.66151443E-02  3.46772507E-07 -2.92056304E-07
  4.04149765E-01  5.53631664E-07  1.63197570E-06 -4.04564850E-01  5.01579209E-07
  1.00137078E-07  4.04176907E-01  1.01923901E-06 -4.41208921E-07 -4.04157895E-01
  1.93139027E-07  1.00535542E-06  4.04577101E-01 -8.82426053E-07 -5.22865196E-07
 -4.04179492E-01  2.34055160E-01 -1.71237472E-01  7.43270055E-07  3.13059306E-02
  2.88257935E-01 -1.50035199E-06 -2.65365540E-01 -1.17031820E-01  1.74945856E-06
  2.34061467E-01 -1.71242360E-01 -1.41854210E-06  3.13046686E-02  2.88250528E-01
  8.86923972E-07 -2.65373121E-01 -1.17034120E-01 -6.39742487E-07  2.32006373E-01
 -1.69552788E-01 -4.67733842E-06  3.10604045E-02  2.85617098E-01  1.11316448E-05
 -2.62999089E-01 -1.15833853E-01 -9.05952123E-06  2.32014263E-01 -1.69556492E-01
  8.52492983E-06  3.10606356E-02  2.85608616E-01 -7.59804263E-06 -2.63006422E-01
 -1.15838349E-01  3.80945928E-06  2.22758898E-01 -1.62999965E-01 -3.69179762E-07
 -2.97842406E-02 -2.74399356E-01 -6.57072172E-07 -2.52534659E-01 -1.11414109E-01
  4.38913809E-07 -2.22745250E-01  1.63004487E-01  6.95927984E-07  2.97738453E-02
  2.74406799E-01 -1.72517286E-06  2.52531446E-01  1.11401693E-01  1.55357896E-06
  2.42764699E-01 -1.77630461E-01  4.12315051E-06 -3.24595293E-02 -2.99037390E-01
 -8.07469499E-07 -2.75210659E-01 -1.21413271E-01  1.22317835E-06 -2.42749592E-01
  1.77636955E-01 -4.40163498E-06  3.24489011E-02  2.99044667E-01  7.71841767E-06
  2.75205707E-01  1.21404861E-01 -7.10546373E-06  1.07388415E-01 -3.67678773E-02
 -2.18691534E-08 -5.93021788E-02 -8.98285466E-02 -2.96288760E-07 -2.18543801E-02
  8.10869221E-02 -2.37957641E-08  1.07386306E-01 -3.67711625E-02 -8.54588428E-08
 -5.92987385E-02 -8.98288517E-02  4.01490772E-07 -2.18560605E-02  8.10858034E-02
  3.07559099E-08  2.23780624E-01  1.08821461E-01  8.58899370E-07 -3.30227072E-01
 -6.74833689E-02 -1.22911833E-08 -2.05890539E-01  5.00569880E-01  4.28172767E-07
  2.23772841E-01  1.08811740E-01  1.12605918E-07 -3.30214946E-01 -6.74836275E-02
 -9.73067520E-07 -2.05893181E-01  5.00567662E-01 -4.71878886E-07  6.40826696E-03
  8.99212245E-02  2.91932473E-08  5.94706922E-02 -7.68013343E-02 -2.82905312E-07
 -1.11388886E-01 -3.93595883E-02  3.25115821E-07  6.40865159E-03  8.99230831E-02
 -2.98103169E-08  5.94727705E-02 -7.68028911E-02  3.01405863E-07 -1.11390859E-01
 -3.93563604E-02 -3.75879443E-07  2.52456856E-01  4.32115267E-01  3.07426399E-07
  4.28644525E-01 -1.22032818E-01  3.98086530E-07 -1.39225493E-01  2.32241990E-03
 -4.42638476E-07  2.52457427E-01  4.32120421E-01 -1.36758021E-07  4.28649033E-01
 -1.22036014E-01 -3.99875768E-07 -1.39230380E-01  2.33187364E-03  6.65257536E-07
 -1.96108331E-02 -2.67761445E-02 -8.01173845E-08  3.30154840E-02 -3.58795348E-03
 -8.41184402E-08 -1.34065621E-02  3.03615058E-02  5.93232589E-08 -1.96119531E-02
 -2.67732735E-02  1.40376785E-07  3.30136632E-02 -3.58520987E-03  2.12490211E-08
 -1.34041918E-02  3.03618637E-02 -5.69014901E-08 -2.40295176E-01 -3.28353479E-01
 -1.35596412E-07  4.04563852E-01 -4.39184814E-02  2.88109188E-07 -1.64237743E-01
  3.72261128E-01  6.15730380E-09 -2.40287355E-01 -3.28340776E-01 -2.61310075E-07
  4.04542966E-01 -4.39148141E-02  1.26657226E-07 -1.64234240E-01  3.72257037E-01
 -2.17757720E-08 -3.35012647E-02 -4.34454635E-02 -1.57881329E-08  9.69654959E-04
 -2.98686649E-03  8.43263787E-08  2.29778403E-02 -4.84071976E-02 -1.25641818E-10
  3.35026046E-02  4.34450159E-02 -4.72545851E-08 -9.70365961E-04  2.98662164E-03
  1.08022507E-07 -2.29767536E-02  4.84076309E-02  2.90730696E-08 -2.97995475E-01
 -4.05026284E-01 -5.83959133E-07  1.13997972E-02 -3.95650800E-03 -8.51211226E-09
  1.99472716E-01 -4.48693422E-01 -3.75357140E-07  2.97993993E-01  4.05025185E-01
 -3.38331213E-07 -1.14176519E-02  3.95814974E-03 -1.82759014E-07 -1.99473806E-01
  4.48695965E-01 -3.95379822E-07  1.57979393E-02  2.58358707E-02 -1.51803997E-08
 -6.22436362E-02  6.69682096E-03  4.40856027E-08  1.08381764E-02 -3.06352959E-02
 -2.83099963E-08 -1.57997629E-02 -2.58362616E-02  2.68105729E-08  6.22454906E-02
 -6.69537545E-03 -5.67180870E-09 -1.08380718E-02  3.06359980E-02 -7.29425489E-08
  1.61511738E-01  2.24723418E-01  3.98467466E-07 -5.70414302E-01  6.18598374E-02
 -5.14447086E-08  1.17822153E-01 -2.72804381E-01 -7.34348355E-08 -1.61527851E-01
 -2.24745030E-01  6.61815176E-08  5.70430319E-01 -6.18617406E-02  3.38850513E-07
 -1.17823670E-01  2.72806980E-01 -6.88881912E-08 -1.72916197E-01 -2.36326924E-01
 -4.83339674E-07  2.91107819E-01 -3.16129400E-02 -1.26195542E-07 -1.18190786E-01
  2.67941181E-01  2.96275666E-07 -1.72923701E-01 -2.36321610E-01  4.25174973E-07
  2.91107775E-01 -3.16034638E-02  1.86802492E-07 -1.18181948E-01  2.67945469E-01
 -2.98535236E-07  1.67948538E-01  2.29482296E-01  1.71178022E-06 -2.82817440E-01
  3.06808526E-02  1.19952465E-06  1.14846141E-01 -2.60305794E-01 -1.24777789E-06
  1.67939097E-01  2.29493185E-01 -2.42545692E-06 -2.82811344E-01  3.06940553E-02
 -4.61976962E-07  1.14859756E-01 -2.60303129E-01  1.22173178E-06 -3.56193144E-02
 -4.86695935E-02 -7.10417840E-08 -5.99367142E-02  6.50495357E-03  4.76416065E-08
 -2.43460816E-02  5.51796699E-02  5.07538511E-08  3.56190957E-02  4.86683694E-02
 -9.77177449E-08  5.99362785E-02 -6.50464518E-03  2.03127789E-08  2.43462506E-02
 -5.51788207E-02  4.98056965E-08  2.38412321E-01  3.25812089E-01  4.06639047E-07
  4.01472317E-01 -4.35782645E-02 -6.36832114E-08  1.62961239E-01 -3.69409667E-01
 -2.46497838E-07 -2.38408322E-01 -3.25811486E-01  3.16392223E-07 -4.01470394E-01
  4.35802764E-02 -1.60156246E-07 -1.62961380E-01  3.69407845E-01 -2.49769706E-07
  9.78231295E-02 -1.68897137E-02  1.24007366E-07 -1.07035166E-01 -5.73131390E-02
 -6.33286365E-08 -3.95947739E-02  1.40281798E-01  6.65649330E-08  9.78148502E-02
 -1.68977925E-02 -7.35240337E-08 -1.07026122E-01 -5.73101788E-02  2.32022688E-08
 -3.95994489E-02  1.40277640E-01 -7.81165677E-08 -7.25512175E-03 -1.93685336E-01
 -1.54996907E-07  3.53630420E-01 -1.22514086E-01 -1.45021862E-07  2.34785562E-01
 -4.70548162E-01 -4.68399734E-07 -7.24220331E-03 -1.93665979E-01  1.23241498E-07
  3.53616051E-01 -1.22510360E-01  2.26040042E-07  2.34780511E-01 -4.70546978E-01
  4.33361702E-07  6.09648577E-02  1.30360979E-01  1.26691140E-07  1.01354992E-01
 -7.44959657E-02 -1.35822923E-07 -9.62425195E-02 -7.06364135E-03  1.51884970E-07
  6.09629072E-02  1.30366797E-01 -1.40194136E-07  1.01361639E-01 -7.45006666E-02
  1.02392619E-07 -9.62472450E-02 -7.05576544E-03 -1.00777074E-07 -3.30803693E-01
 -3.94641785E-01 -7.31974829E-07 -4.02016946E-01 -3.38571747E-02  1.01971951E-07
 -5.39409225E-02 -1.52612116E-01  8.70628432E-08 -3.30811191E-01 -3.94648755E-01
  6.10351494E-07 -4.02035657E-01 -3.38571239E-02 -2.08201721E-07 -5.39341278E-02
 -1.52629261E-01  9.10840638E-08 -1.52172080E-01  4.07524122E-02 -1.39630673E-07
  3.02170650E-01 -8.42021219E-02 -1.22782793E-07 -1.89541399E-01  1.92354367E-01
  3.03284779E-07  1.52183255E-01 -4.07416991E-02 -1.09212199E-07 -3.02167973E-01
  8.41913920E-02 -1.66872106E-07  1.89529872E-01 -1.92348051E-01  2.43137704E-07
 -8.94493382E-02  1.55056977E-01 -2.15010490E-07 -3.96837818E-01 -1.42381302E-02
  2.38419125E-07  3.16719938E-02 -3.36368359E-01 -2.98488236E-07  8.94318396E-02
 -1.55087758E-01  2.32359472E-07  3.96828688E-01  1.42221613E-02  2.77241706E-07
 -3.16730552E-02  3.36340102E-01 -3.28879785E-07  1.70788760E-01  2.77095657E-01
  2.97112948E-07 -1.27333342E-01 -1.27104544E-01 -1.37239999E-07  1.91676268E-02
  2.39720756E-01 -6.19109628E-08 -1.70796642E-01 -2.77087448E-01  2.48154729E-07
  1.27348995E-01  1.27107330E-01 -9.54425162E-08 -1.91690875E-02 -2.39735309E-01
  1.29567040E-08 -2.66481559E-01 -3.15433464E-01 -8.48444249E-07  1.25620063E-01
 -1.70760530E-01 -4.95479653E-07  2.24997583E-01 -1.94302627E-01 -4.47138639E-07
  2.66464182E-01  3.15441399E-01 -8.81852429E-07 -1.25655361E-01  1.70771149E-01
 -6.12528537E-08 -2.25020049E-01  1.94326441E-01 -4.04840156E-07 -2.73533698E-02
  2.00091869E-02  7.63394049E-09 -3.64421657E-03 -3.35675034E-02 -1.30795498E-08
  3.10295168E-02  1.36834565E-02 -8.18758778E-08 -2.73542871E-02  2.00097012E-02
  4.37116867E-08 -3.64461733E-03 -3.35702592E-02  6.17314679E-08  3.10289875E-02
  1.36834011E-02  6.18014854E-08  3.28636473E-01 -2.40474032E-01 -9.94667604E-08
  4.37923039E-02  4.03441262E-01  1.89849673E-07 -3.72809035E-01 -1.64456900E-01
  1.01071684E-06  3.28648100E-01 -2.40480129E-01 -5.13708932E-07  4.37974311E-02
  4.03473147E-01 -7.70627598E-07 -3.72803658E-01 -1.64456040E-01 -7.68394502E-07
 -3.36207079E-02  2.32927744E-02  6.71068569E-09  2.22719996E-03  2.86292375E-03
  1.46276009E-09 -4.06102591E-02 -1.69881525E-02  1.08394241E-07  3.36193895E-02
 -2.32914010E-02 -4.95057917E-08 -2.22718360E-03 -2.86358232E-03  5.97741627E-09
  4.06093545E-02  1.69879112E-02  8.10911663E-08  3.87222870E-01 -2.81797807E-01
 -1.11744121E-07 -6.15483959E-03 -3.57068213E-02 -2.12420249E-08  4.72039084E-01
  2.07137796E-01 -1.27591254E-06 -3.87206669E-01  2.81782955E-01  6.07927635E-07
  6.15559142E-03  3.57136090E-02 -6.38860529E-08 -4.72029762E-01 -2.07135369E-01
 -9.70348082E-07  2.10571453E-02 -1.73789235E-02 -5.08742148E-09  5.16261972E-03
  4.86802924E-02  2.57008411E-08 -1.93354606E-02 -1.03990832E-02  5.29324842E-08
 -2.10551696E-02  1.73775100E-02  3.17861587E-08 -5.16303236E-03 -4.86819741E-02
  8.91988866E-08  1.93319851E-02  1.03978280E-02  3.93755270E-08 -2.56471066E-01
  1.90018201E-01  8.20282175E-08 -6.17351253E-02 -5.70079476E-01 -2.60330749E-07
  2.33684957E-01  1.05312340E-01 -6.32495780E-07  2.56449611E-01 -1.90000952E-01
 -4.08475423E-07  6.17393971E-02  5.70097526E-01 -1.08570881E-06 -2.33645002E-01
 -1.05295839E-01 -4.80101778E-07 -3.31413107E-02  2.66032168E-02  1.04984839E-08
  2.95214425E-03 -4.05556515E-03 -3.98134205E-09 -4.16102593E-02 -1.99682391E-02
  1.08411099E-07 -3.31424682E-02  2.66035369E-02  4.70892575E-08  2.95235823E-03
 -4.05399238E-03  9.77880615E-09 -4.16114450E-02 -1.99691233E-02 -8.05365343E-08
  3.82651107E-01 -2.83297402E-01 -1.07790895E-07 -1.93157962E-04  4.19128267E-02
  1.23714714E-08  4.72445580E-01  2.10673416E-01 -1.27625539E-06  3.82663345E-01
 -2.83303438E-01 -6.06544197E-07 -1.94938540E-04  4.18956707E-02 -7.54062156E-08
  4.72460331E-01  2.10681671E-01  9.67010782E-07  2.48269990E-02 -1.46990169E-02
  4.05302765E-10 -5.76823822E-03 -5.08811919E-02 -2.88729251E-08 -2.16385388E-02
 -6.21973840E-03  5.60428525E-08  2.48293689E-02 -1.47005614E-02 -3.81006140E-08
 -5.76843616E-03 -5.08791941E-02  9.40074255E-08 -2.16405016E-02 -6.22088620E-03
 -4.26071969E-08 -2.62142073E-01  1.86976229E-01  7.75359637E-08  6.23091433E-02
  5.70877260E-01  2.55034663E-07  2.30549960E-01  9.70578053E-02 -6.15262181E-07
 -2.62168299E-01  1.86993634E-01  4.01054716E-07  6.23089159E-02  5.70853374E-01
 -1.07098482E-06  2.30573811E-01  9.70692992E-02  4.65931887E-07  3.00049579E-02
 -2.19530793E-02 -3.84523983E-09 -4.02516153E-03 -3.70771267E-02 -2.24127414E-08
 -3.39973201E-02 -1.49951291E-02  8.61331224E-08 -3.00046224E-02  2.19525297E-02
  4.18565271E-08  4.02516719E-03  3.70750285E-02 -6.59802879E-08  3.39977298E-02
  1.49956863E-02  6.76832393E-08 -3.27793135E-01  2.39861854E-01  9.11802478E-08
  4.39791555E-02  4.05164406E-01  1.86177599E-07  3.71399495E-01  1.63839997E-01
 -1.00337075E-06  3.27789282E-01 -2.39856738E-01 -5.10847333E-07 -4.39781405E-02
 -4.05140469E-01  7.59840806E-07 -3.71405598E-01 -1.63844159E-01 -7.54558862E-07
ClPar MaxAn                                I              200
ClPar NIntPar                              I                4
ClPar NRealPar                             I               16
ClPar NBits                                I               30
ClPar LenBitVec                            I                1
ClPar Read BitMap                          I   N=         200
           0           0           0           0           0           0
           0           0           0           0           0           0
           0           0           0           0           0           0
           0           0           0           0           0           0
           0           0           0           0           0           0
           0           0           0           0           0           0
           0           0           0           0           0           0
           0           0           0           0           0           0
           0           0           0           0           0           0
           0           0           0           0           0           0
           0           0           0           0           0           0
           0           0           0           0           0           0
           0           0           0           0           0           0
           0           0           0           0           0           0
           0           0           0           0           0           0
           0           0           0           0           0           0
           0           0           0           0           0           0
           0           0           0           0           0           0
           0           0           0           0           0           0
           0           0           0           0           0           0
           0           0           0           0           0           0
           0           0           0           0           0           0
           0           0           0           0           0           0
           0           0           0           0           0           0
           0           0           0           0           0           0
           0           0           0           0           0           0
           0           0           0           0           0           0
           0           0           0           0           0           0
           0           0           0           0           0           0
           0           0           0           0           0           0
           0           0           0           0           0           0
           0           0           0           0           0           0
           0           0           0           0           0           0
           0           0
ClPar Default BitMap                       I   N=         200
        2016        2016        2016        2016        2016        2016
        2016        2016        2016        2016        2016        2016
        2016        2016        2016        2016        2016        2016
        2016        2016        2016        2016        2016        2016
        2016        2016        2016        2016        2016        2016
        2016        2016        2016        2016        2016        2016
        2016        2016        2016        2016        2016        2016
        2016        2016        2016        2016        2016        2016
        2016        2016        2016        2016        2016        2016
        2016        2016        2016        2016        2016        2016
        2016        2016        2016        2016        2016        2016
        2016        2016        2016        2016        2016        2016
        2016        2016        2016        2016        2016        2016
        2016        2016        2016        2016        2016        2016
        2016        2016         480         480         480         480
         480         480         480         480         480         480
         480         480         480         480         480         480
         480         480         480         480         480         480
         480         480         480         480         480         480
         480         480         480         480         480         480
         480         480         480         480         480         480
         480         480         480         480         480         480
         480         480         480         480         480         480
         480         480         480         480         480         480
         480         480         480         480         480         480
         480         480         480         480         480         480
         480         480         480         480         480         480
         480         480         480         480         480         480
         480         480         480         480         480         480
         480         480         480         480         480         480
         480         480         480         480         480         480
         480         480         480         480         480         480
         480         480         480         480         480         480
         480         480
ClPar Int Params                           I   N=         800
           0           0           0           0           0           0
           0           0           0           0           0           0
           0           0           0           0           0           0
           0           0           0           0           0           0
           0           0           0           0           0           0
           0           0           0           0           0           0
           0           0           0           0           0           0
           0           0           0           0           0           0
           0           0           0           0           0           0
           0           0           0           0           0           0
           0           0           0           0           0           0
           0           0           0           0           0           0
           0           0           0           0           0           0
           0           0           0           0           0           0
           0           0           0           0           0           0
           0           0           0           0           0           0
           0           0           0           0           0           0
           0           0           0           0           0           0
           0           0           0           0           0           0
           0           0           0           0           0           0
           0           0           0           0           0           0
           0           0           0           0           0           0
           0           0           0           0           0           0
           0           0           0           0           0           0
           0           0           0           0           0           0
           0           0           0           0           0           0
           0           0           0           0           0           0
           0           0           0           0           0           0
           0           0           0           0           0           0
           0           0           0           0           0           0
           0           0           0           0           0           0
           0           0           0           0           0           0
           0           0           0           0           0           0
           0           0           0           0           0           0
           0           0           0           0           0           0
           0           0           0           0           0           0
           0           0           0           0           0           0
           0           0           0           0           0           0
           0           0           0           0           0           0
           0           0           0           0           0           0
           0           0           0           0           0           0
           0           0           0           0           0           0
           0           0           0           0           0           0
           0           0           0           0           0           0
           0           0           0           0           0           0
           0           0           0           0           0           0
           0           0           0           0           0           0
           0           0           0           0           0           0
           0           0           0           0           0           0
           0           0           0           0           0           0
           0           0           0           0           0           0
           0           0           0           0           0           0
           0           0           0           0           0           0
           0           0           0           0           0           0
           0           0           0           0           0           0
           0           0           0           0           0           0
           0           0           0           0           0           0
           0           0           0           0           0           0
           0           0           0           0           0           0
           0           0           0           0           0           0
           0           0           0           0           0           0
           0           0           0           0           0           0
           0           0           0           0           0           0
           0           0           0           0           0           0
           0           0           0           0           0           0
           0           0           0           0           0           0
           0           0           0           0           0           0
           0           0           0           0           0           0
           0           0           0           0           0           0
           0           0           0           0           0           0
           0           0           0           0           0           0
           0           0           0           0           0           0
           0           0           0           0           0           0
           0           0           0           0           0           0
           0           0           0           0           0           0
           0           0           0           0           0           0
           0           0           0           0           0           0
           0           0           0           0           0           0
           0           0           0           0           0           0
           0           0           0           0           0           0
           0           0           0           0           0           0
           0           0           0           0           0           0
           0           0           0           0           0           0
           0           0           0           0           0           0
           0           0           0           0           0           0
           0           0           0           0           0           0
           0           0           0           0           0           0
           0           0           0           0           0           0
           0           0           0           0           0           0
           0           0           0           0           0           0
           0           0           0           0           0           0
           0           0           0           0           0           0
           0           0           0           0           0           0
           0           0           0           0           0           0
           0           0           0           0           0           0
           0           0           0           0           0           0
           0           0           0           0           0           0
           0           0           0           0           0           0
           0           0           0           0           0           0
           0           0           0           0           0           0
           0           0           0           0           0           0
           0           0           0           0           0           0
           0           0           0           0           0           0
           0           0           0           0           0           0
           0           0           0           0           0           0
           0           0           0           0           0           0
           0           0           0           0           0           0
           0           0           0           0           0           0
           0           0           0           0           0           0
           0           0           0           0           0           0
           0           0           0           0           0           0
           0           0           0           0           0           0
           0           0           0           0           0           0
           0           0           0           0           0           0
           0           0           0           0           0           0
           0           0           0           0           0           0
           0           0           0           0           0           0
           0           0           0           0           0           0
           0           0           0           0           0           0
           0           0           0           0           0           0
           0           0           0           0           0           0
           0           0           0           0           0           0
           0           0           0           0           0           0
           0           0           0           0           0           0
           0           0           0           0           0           0
           0           0           0           0           0           0
           0           0           0           0           0           0
           0           0           0           0           0           0
           0           0           0           0           0           0
           0           0           0           0           0           0
           0           0           0           0           0           0
           0           0           0           0           0           0
           0           0           0           0           0           0
           0           0
ClPar Real Params                          R   N=        3200
  0.00000000E+00  0.00000000E+00  0.00000000E+00  0.00000000E+00  0.00000000E+00
  0.00000000E+00  0.00000000E+00  0.00000000E+00  0.00000000E+00  0.00000000E+00
  0.00000000E+00  0.00000000E+00  0.00000000E+00  0.00000000E+00  0.00000000E+00
  0.00000000E+00  0.00000000E+00  0.00000000E+00  0.00000000E+00  0.00000000E+00
  0.00000000E+00  0.00000000E+00  0.00000000E+00  0.00000000E+00  0.00000000E+00
  0.00000000E+00  0.00000000E+00  0.00000000E+00  0.00000000E+00  0.00000000E+00
  0.00000000E+00  0.00000000E+00  0.00000000E+00  0.00000000E+00  0.00000000E+00
  0.00000000E+00  0.00000000E+00  0.00000000E+00  0.00000000E+00  0.00000000E+00
  0.00000000E+00  0.00000000E+00  0.00000000E+00  0.00000000E+00  0.00000000E+00
  0.00000000E+00  0.00000000E+00  0.00000000E+00  0.00000000E+00  0.00000000E+00
  0.00000000E+00  0.00000000E+00  0.00000000E+00  0.00000000E+00  0.00000000E+00
  0.00000000E+00  0.00000000E+00  0.00000000E+00  0.00000000E+00  0.00000000E+00
  0.00000000E+00  0.00000000E+00  0.00000000E+00  0.00000000E+00  0.00000000E+00
  0.00000000E+00  0.00000000E+00  0.00000000E+00  0.00000000E+00  0.00000000E+00
  0.00000000E+00  0.00000000E+00  0.00000000E+00  0.00000000E+00  0.00000000E+00
  0.00000000E+00  0.00000000E+00  0.00000000E+00  0.00000000E+00  0.00000000E+00
  0.00000000E+00  0.00000000E+00  0.00000000E+00  0.00000000E+00  0.00000000E+00
  0.00000000E+00  0.00000000E+00  0.00000000E+00  0.00000000E+00  0.00000000E+00
  0.00000000E+00  0.00000000E+00  0.00000000E+00  0.00000000E+00  0.00000000E+00
  0.00000000E+00  0.00000000E+00  0.00000000E+00  0.00000000E+00  0.00000000E+00
  0.00000000E+00  0.00000000E+00  0.00000000E+00  0.00000000E+00  0.00000000E+00
  0.00000000E+00  0.00000000E+00  0.00000000E+00  0.00000000E+00  0.00000000E+00
  0.00000000E+00  0.00000000E+00  0.00000000E+00  0.00000000E+00  0.00000000E+00
  0.00000000E+00  0.00000000E+00  0.00000000E+00  0.00000000E+00  0.00000000E+00
  0.00000000E+00  0.00000000E+00  0.00000000E+00  0.00000000E+00  0.00000000E+00
  0.00000000E+00  0.00000000E+00  0.00000000E+00  0.00000000E+00  0.00000000E+00
  0.00000000E+00  0.00000000E+00  0.00000000E+00  0.00000000E+00  0.00000000E+00
  0.00000000E+00  0.00000000E+00  0.00000000E+00  0.00000000E+00  0.00000000E+00
  0.00000000E+00  0.00000000E+00  0.00000000E+00  0.00000000E+00  0.00000000E+00
  0.00000000E+00  0.00000000E+00  0.00000000E+00  0.00000000E+00  0.00000000E+00
  0.00000000E+00  0.00000000E+00  0.00000000E+00  0.00000000E+00  0.00000000E+00
  0.00000000E+00  0.00000000E+00  0.00000000E+00  0.00000000E+00  0.00000000E+00
  0.00000000E+00  0.00000000E+00  0.00000000E+00  0.00000000E+00  0.00000000E+00
  0.00000000E+00  0.00000000E+00  0.00000000E+00  0.00000000E+00  0.00000000E+00
  0.00000000E+00  0.00000000E+00  0.00000000E+00  0.00000000E+00  0.00000000E+00
  0.00000000E+00  0.00000000E+00  0.00000000E+00  0.00000000E+00  0.00000000E+00
  0.00000000E+00  0.00000000E+00  0.00000000E+00  0.00000000E+00  0.00000000E+00
  0.00000000E+00  0.00000000E+00  0.00000000E+00  0.00000000E+00  0.00000000E+00
  0.00000000E+00  0.00000000E+00  0.00000000E+00  0.00000000E+00  0.00000000E+00
  0.00000000E+00  0.00000000E+00  0.00000000E+00  0.00000000E+00  0.00000000E+00
  2.26000000E-01  4.43000000E-01  1.01000000E-01  1.47000000E-01  1.92000000E-01
  2.40000000E-01  2.75000000E-01  3.03000000E-01  3.25000000E-01  4.13000000E-01
  9.60000000E-02  1.35000000E-01  1.73000000E-01  2.11000000E-01  2.48000000E-01
  2.86000000E-01  3.23000000E-01  3.60000000E-01  8.20000000E-02  1.04000000E-01
  1.17000000E-01  1.23000000E-01  1.29000000E-01  1.34000000E-01  1.40000000E-01
  1.44000000E-01  1.48000000E-01  1.52000000E-01  1.55000000E-01  1.76000000E-01
  1.98000000E-01  2.19000000E-01  2.39000000E-01  2.60000000E-01  2.80000000E-01
  3.00000000E-01  7.90000000E-02  9.90000000E-02  1.19000000E-01  1.26000000E-01
  1.33000000E-01  1.40000000E-01  1.47000000E-01  1.53000000E-01  1.58000000E-01
  1.63000000E-01  1.57000000E-01  1.70000000E-01  1.87000000E-01  2.03000000E-01
  2.19000000E-01  2.34000000E-01  2.50000000E-01  2.65000000E-01  7.40000000E-02
  9.20000000E-02  1.05000000E-01  1.06000000E-01  1.07000000E-01  1.08000000E-01
  1.09000000E-01  1.10000000E-01  1.11000000E-01  1.12000000E-01  1.13000000E-01
  1.14000000E-01  1.15000000E-01  1.16000000E-01  1.17000000E-01  1.17000000E-01
  1.26000000E-01  1.36000000E-01  1.46000000E-01  1.55000000E-01  1.65000000E-01
  1.73000000E-01  1.82000000E-01  1.90000000E-01  1.62000000E-01  1.78000000E-01
  1.10000000E-01  1.35000000E-01  1.59000000E-01  1.83000000E-01  2.07000000E-01
  2.31000000E-01  6.90000000E-02  9.40000000E-02  1.02000000E-01  1.03000000E-01
  1.05000000E-01  1.07000000E-01  1.09000000E-01  1.11000000E-01  1.13000000E-01
  1.15000000E-01  1.17000000E-01  1.19000000E-01  1.20000000E-01  1.22000000E-01
  1.24000000E-01  1.26000000E-01  1.28000000E-01  1.28000000E-01  1.28000000E-01
  1.28000000E-01  1.28000000E-01  1.28000000E-01  1.28000000E-01  1.28000000E-01
  1.28000000E-01  1.28000000E-01  1.28000000E-01  1.28000000E-01  1.28000000E-01
  1.28000000E-01  1.28000000E-01  1.28000000E-01  1.28000000E-01  1.28000000E-01
  1.28000000E-01  1.28000000E-01  1.28000000E-01  1.28000000E-01  1.28000000E-01
  1.28000000E-01  1.28000000E-01  1.28000000E-01  1.28000000E-01  1.28000000E-01
  1.28000000E-01  1.28000000E-01  1.28000000E-01  1.28000000E-01  1.28000000E-01
  1.28000000E-01  1.28000000E-01  1.28000000E-01  1.28000000E-01  1.28000000E-01
  1.28000000E-01  1.28000000E-01  1.28000000E-01  1.28000000E-01  1.28000000E-01
  1.28000000E-01  1.28000000E-01  1.28000000E-01  1.28000000E-01  1.28000000E-01
  1.28000000E-01  1.28000000E-01  1.28000000E-01  1.28000000E-01  1.28000000E-01
  1.28000000E-01  1.28000000E-01  1.28000000E-01  1.28000000E-01  1.28000000E-01
  1.28000000E-01  1.28000000E-01  1.28000000E-01  1.28000000E-01  1.28000000E-01
  1.28000000E-01  1.28000000E-01  1.28000000E-01  1.28000000E-01  1.28000000E-01
  1.28000000E-01  1.28000000E-01  1.28000000E-01  1.28000000E-01  1.28000000E-01
  1.28000000E-01  1.28000000E-01  1.28000000E-01  1.28000000E-01  1.28000000E-01
  1.28000000E-01  1.28000000E-01  1.28000000E-01  1.28000000E-01  1.28000000E-01
  1.28000000E-01  1.28000000E-01  1.28000000E-01  1.28000000E-01  1.28000000E-01
  1.28000000E-01  1.28000000E-01  1.28000000E-01  1.28000000E-01  1.28000000E-01
  1.28000000E-01  1.28000000E-01  1.28000000E-01  1.28000000E-01  1.28000000E-01
  5.47000000E-01  5.92000000E-01  5.99000000E-01  6.68000000E-01  6.98000000E-01
  7.18000000E-01  7.26000000E-01  7.36000000E-01  7.43000000E-01  7.45000000E-01
  6.07000000E-01  6.66000000E-01  6.93000000E-01  7.09000000E-01  7.20000000E-01
  7.29000000E-01  7.35000000E-01  7.40000000E-01  6.08000000E-01  7.34000000E-01
  7.46000000E-01  7.55000000E-01  7.61000000E-01  7.65000000E-01  7.67000000E-01
  7.60000000E-01  7.49000000E-01  7.33000000E-01  7.08000000E-01  6.48000000E-01
  6.88000000E-01  7.09000000E-01  7.22000000E-01  7.31000000E-01  7.38000000E-01
  7.44000000E-01  6.09000000E-01  7.30000000E-01  7.41000000E-01  7.52000000E-01
  7.58000000E-01  7.63000000E-01  7.66000000E-01  7.58000000E-01  7.48000000E-01
  7.33000000E-01  7.01000000E-01  6.45000000E-01  6.86000000E-01  7.08000000E-01
  7.22000000E-01  7.31000000E-01  7.38000000E-01  7.44000000E-01  6.08000000E-01
  7.28000000E-01  7.32000000E-01  7.32000000E-01  7.32000000E-01  7.32000000E-01
  7.32000000E-01  7.32000000E-01  7.32000000E-01  7.32000000E-01  7.32000000E-01
  7.31000000E-01  7.31000000E-01  7.31000000E-01  7.31000000E-01  7.46000000E-01
  7.37000000E-01  7.46000000E-01  7.51000000E-01  7.55000000E-01  7.58000000E-01
  7.47000000E-01  7.32000000E-01  7.11000000E-01  7.41000000E-01  7.07000000E-01
  7.47000000E-01  7.43000000E-01  7.42000000E-01  7.42000000E-01  7.43000000E-01
  7.44000000E-01  6.05000000E-01  7.24000000E-01  7.26000000E-01  7.26000000E-01
  7.27000000E-01  7.27000000E-01  7.27000000E-01  7.28000000E-01  7.28000000E-01
  7.28000000E-01  7.28000000E-01  7.28000000E-01  7.29000000E-01  7.29000000E-01
  7.29000000E-01  7.29000000E-01  7.29000000E-01  7.29000000E-01  7.29000000E-01
  7.29000000E-01  7.29000000E-01  7.29000000E-01  7.29000000E-01  7.29000000E-01
  7.29000000E-01  7.29000000E-01  7.29000000E-01  7.29000000E-01  7.29000000E-01
  7.29000000E-01  7.29000000E-01  7.29000000E-01  7.29000000E-01  7.29000000E-01
  7.29000000E-01  7.29000000E-01  7.29000000E-01  7.29000000E-01  7.29000000E-01
  7.29000000E-01  7.29000000E-01  7.29000000E-01  7.29000000E-01  7.29000000E-01
  7.29000000E-01  7.29000000E-01  7.29000000E-01  7.29000000E-01  7.29000000E-01
  7.29000000E-01  7.29000000E-01  7.29000000E-01  7.29000000E-01  7.29000000E-01
  7.29000000E-01  7.29000000E-01  7.29000000E-01  7.29000000E-01  7.29000000E-01
  7.29000000E-01  7.29000000E-01  7.29000000E-01  7.29000000E-01  7.29000000E-01
  7.29000000E-01  7.29000000E-01  7.29000000E-01  7.29000000E-01  7.29000000E-01
  7.29000000E-01  7.29000000E-01  7.29000000E-01  7.29000000E-01  7.29000000E-01
  7.29000000E-01  7.29000000E-01  7.29000000E-01  7.29000000E-01  7.29000000E-01
  7.29000000E-01  7.29000000E-01  7.29000000E-01  7.29000000E-01  7.29000000E-01
  7.29000000E-01  7.29000000E-01  7.29000000E-01  7.29000000E-01  7.29000000E-01
  7.29000000E-01  7.29000000E-01  7.29000000E-01  7.29000000E-01  7.29000000E-01
  7.29000000E-01  7.29000000E-01  7.29000000E-01  7.29000000E-01  7.29000000E-01
  7.29000000E-01  7.29000000E-01  7.29000000E-01  7.29000000E-01  7.29000000E-01
  7.29000000E-01  7.29000000E-01  7.29000000E-01  7.29000000E-01  7.29000000E-01
  7.29000000E-01  7.29000000E-01  7.29000000E-01  7.29000000E-01  7.29000000E-01
  1.00000000E+00  1.70400000E+00  3.23000000E-01  3.89000000E-01  4.67000000E-01
  5.67000000E-01  6.36000000E-01  6.64000000E-01  6.96000000E-01  8.79000000E-01
  3.07000000E-01  3.48000000E-01  4.00000000E-01  4.54000000E-01  5.09000000E-01
  5.65000000E-01  6.21000000E-01  6.77000000E-01  2.56000000E-01  3.50000000E-01
  3.64000000E-01  3.62000000E-01  3.62000000E-01  3.62000000E-01  3.62000000E-01
  3.65000000E-01  3.69000000E-01  3.75000000E-01  3.86000000E-01  4.46000000E-01
  4.55000000E-01  4.74000000E-01  4.96000000E-01  5.20000000E-01  5.45000000E-01
  5.70000000E-01  2.45000000E-01  3.22000000E-01  3.55000000E-01  3.59000000E-01
  3.64000000E-01  3.70000000E-01  3.76000000E-01  3.85000000E-01  3.95000000E-01
  4.08000000E-01  3.76000000E-01  4.23000000E-01  4.22000000E-01  4.32000000E-01
  4.45000000E-01  4.59000000E-01  4.75000000E-01  4.91000000E-01  2.28000000E-01
  2.92000000E-01  2.89000000E-01  2.92000000E-01  2.95000000E-01  2.98000000E-01
  3.00000000E-01  3.03000000E-01  3.06000000E-01  3.09000000E-01  3.12000000E-01
  3.15000000E-01  3.18000000E-01  3.21000000E-01  3.24000000E-01  3.61000000E-01
  3.69000000E-01  3.70000000E-01  3.72000000E-01  3.75000000E-01  3.78000000E-01
  3.85000000E-01  3.94000000E-01  4.07000000E-01  5.26000000E-01  6.21000000E-01
  3.36000000E-01  3.54000000E-01  3.71000000E-01  3.86000000E-01  4.02000000E-01
  4.17000000E-01  2.09000000E-01  2.94000000E-01  2.65000000E-01  2.72000000E-01
  2.78000000E-01  2.84000000E-01  2.91000000E-01  2.97000000E-01  3.03000000E-01
  3.10000000E-01  3.16000000E-01  3.22000000E-01  3.29000000E-01  3.35000000E-01
  3.41000000E-01  3.48000000E-01  3.54000000E-01  3.54000000E-01  3.54000000E-01
  3.54000000E-01  3.54000000E-01  3.54000000E-01  3.54000000E-01  3.54000000E-01
  3.54000000E-01  3.54000000E-01  3.54000000E-01  3.54000000E-01  3.54000000E-01
  3.54000000E-01  3.54000000E-01  3.54000000E-01  3.54000000E-01  3.54000000E-01
  3.54000000E-01  3.54000000E-01  3.54000000E-01  3.54000000E-01  3.54000000E-01
  3.54000000E-01  3.54000000E-01  3.54000000E-01  3.54000000E-01  3.54000000E-01
  3.54000000E-01  3.54000000E-01  3.54000000E-01  3.54000000E-01  3.54000000E-01
  3.54000000E-01  3.54000000E-01  3.54000000E-01  3.54000000E-01  3.54000000E-01
  3.54000000E-01  3.54000000E-01  3.54000000E-01  3.54000000E-01  3.54000000E-01
  3.54000000E-01  3.54000000E-01  3.54000000E-01  3.54000000E-01  3.54000000E-01
  3.54000000E-01  3.54000000E-01  3.54000000E-01  3.54000000E-01  3.54000000E-01
  3.54000000E-01  3.54000000E-01  3.54000000E-01  3.54000000E-01  3.54000000E-01
  3.54000000E-01  3.54000000E-01  3.54000000E-01  3.54000000E-01  3.54000000E-01
  3.54000000E-01  3.54000000E-01  3.54000000E-01  3.54000000E-01  3.54000000E-01
  3.54000000E-01  3.54000000E-01  3.54000000E-01  3.54000000E-01  3.54000000E-01
  3.54000000E-01  3.54000000E-01  3.54000000E-01  3.54000000E-01  3.54000000E-01
  3.54000000E-01  3.54000000E-01  3.54000000E-01  3.54000000E-01  3.54000000E-01
  3.54000000E-01  3.54000000E-01  3.54000000E-01  3.54000000E-01  3.54000000E-01
  3.54000000E-01  3.54000000E-01  3.54000000E-01  3.54000000E-01  3.54000000E-01
  3.54000000E-01  3.54000000E-01  3.54000000E-01  3.54000000E-01  3.54000000E-01
  2.74000000E-01  2.96000000E-01  5.80000000E-02  4.40000000E-02  3.90000000E-02
  3.90000000E-02  3.60000000E-02  3.20000000E-02  2.90000000E-02  3.30000000E-02
  5.50000000E-02  3.90000000E-02  3.30000000E-02  3.00000000E-02  2.80000000E-02
  2.60000000E-02  2.50000000E-02  2.50000000E-02  4.50000000E-02  4.40000000E-02
  3.30000000E-02  2.50000000E-02  2.10000000E-02  1.80000000E-02  1.50000000E-02
  1.80000000E-02  2.10000000E-02  2.50000000E-02  3.30000000E-02  5.00000000E-02
  3.80000000E-02  3.10000000E-02  2.70000000E-02  2.40000000E-02  2.20000000E-02
  2.10000000E-02  4.30000000E-02  4.00000000E-02  3.20000000E-02  2.50000000E-02
  2.10000000E-02  1.80000000E-02  1.60000000E-02  1.90000000E-02  2.20000000E-02
  2.80000000E-02  3.10000000E-02  4.70000000E-02  3.40000000E-02  2.80000000E-02
  2.40000000E-02  2.10000000E-02  1.90000000E-02  1.80000000E-02  3.90000000E-02
  3.60000000E-02  2.50000000E-02  2.50000000E-02  2.50000000E-02  2.60000000E-02
  2.60000000E-02  2.60000000E-02  2.70000000E-02  2.70000000E-02  2.70000000E-02
  2.70000000E-02  2.80000000E-02  2.80000000E-02  2.80000000E-02  3.30000000E-02
  3.30000000E-02  2.60000000E-02  2.10000000E-02  1.80000000E-02  1.60000000E-02
  1.80000000E-02  2.20000000E-02  2.60000000E-02  4.90000000E-02  8.20000000E-02
  3.00000000E-02  2.40000000E-02  2.10000000E-02  1.80000000E-02  1.60000000E-02
  1.50000000E-02  3.50000000E-02  3.60000000E-02  2.20000000E-02  2.30000000E-02
  2.40000000E-02  2.40000000E-02  2.50000000E-02  2.50000000E-02  2.60000000E-02
  2.70000000E-02  2.70000000E-02  2.80000000E-02  2.80000000E-02  2.90000000E-02
  3.00000000E-02  3.00000000E-02  3.10000000E-02  3.10000000E-02  3.10000000E-02
  3.10000000E-02  3.10000000E-02  3.10000000E-02  3.10000000E-02  3.10000000E-02
  3.10000000E-02  3.10000000E-02  3.10000000E-02  3.10000000E-02  3.10000000E-02
  3.10000000E-02  3.10000000E-02  3.10000000E-02  3.10000000E-02  3.10000000E-02
  3.10000000E-02  3.10000000E-02  3.10000000E-02  3.10000000E-02  3.10000000E-02
  3.10000000E-02  3.10000000E-02  3.10000000E-02  3.10000000E-02  3.10000000E-02
  3.10000000E-02  3.10000000E-02  3.10000000E-02  3.10000000E-02  3.10000000E-02
  3.10000000E-02  3.10000000E-02  3.10000000E-02  3.10000000E-02  3.10000000E-02
  3.10000000E-02  3.10000000E-02  3.10000000E-02  3.10000000E-02  3.10000000E-02
  3.10000000E-02  3.10000000E-02  3.10000000E-02  3.10000000E-02  3.10000000E-02
  3.10000000E-02  3.10000000E-02  3.10000000E-02  3.10000000E-02  3.10000000E-02
  3.10000000E-02  3.10000000E-02  3.10000000E-02  3.10000000E-02  3.10000000E-02
  3.10000000E-02  3.10000000E-02  3.10000000E-02  3.10000000E-02  3.10000000E-02
  3.10000000E-02  3.10000000E-02  3.10000000E-02  3.10000000E-02  3.10000000E-02
  3.10000000E-02  3.10000000E-02  3.10000000E-02  3.10000000E-02  3.10000000E-02
  3.10000000E-02  3.10000000E-02  3.10000000E-02  3.10000000E-02  3.10000000E-02
  3.10000000E-02  3.10000000E-02  3.10000000E-02  3.10000000E-02  3.10000000E-02
  3.10000000E-02  3.10000000E-02  3.10000000E-02  3.10000000E-02  3.10000000E-02
  3.10000000E-02  3.10000000E-02  3.10000000E-02  3.10000000E-02  3.10000000E-02
  3.10000000E-02  3.10000000E-02  3.10000000E-02  3.10000000E-02  3.10000000E-02
 -5.92770000E-01 -9.17860000E-01 -2.48668000E+00 -8.36430000E-01 -3.18470000E-01
 -4.55790000E-01 -5.70730000E-01 -6.77940000E-01 -7.69860000E-01 -8.51140000E-01
 -1.51908000E+00 -3.18830000E-01 -2.17900000E-01 -3.01260000E-01 -3.72750000E-01
 -4.15890000E-01 -4.45930000E-01 -5.91320000E-01 -9.56370000E-01 -2.88450000E-01
 -4.87320000E-01 -6.34280000E-01 -7.17490000E-01 -7.91980000E-01 -8.68490000E-01
 -9.17520000E-01 -9.54890000E-01 -9.88460000E-01 -1.50055000E+00 -2.92560000E-01
 -2.14960000E-01 -2.91180000E-01 -3.42080000E-01 -3.84480000E-01 -4.34940000E-01
 -5.24310000E-01 -8.10070000E-01 -2.58460000E-01 -4.35550000E-01 -5.32740000E-01
 -6.08450000E-01 -6.10260000E-01 -7.58920000E-01 -8.90130000E-01 -8.45780000E-01
 -8.69340000E-01 -1.38234000E+00 -2.64850000E-01 -1.97280000E-01 -2.65040000E-01
 -2.94470000E-01 -3.16570000E-01 -3.63590000E-01 -4.57840000E-01 -8.61830000E-01
 -1.33004000E+00 -6.82880000E-01 -6.25540000E-01 -6.35430000E-01 -8.79690000E-01
 -9.02690000E-01 -9.59650000E-01 -1.01869000E+00 -6.81170000E-01 -7.96500000E-01
 -9.04950000E-01 -8.34790000E-01 -9.01560000E-01 -9.74130000E-01 -1.03326000E+00
 -7.15490000E-01 -7.83960000E-01 -8.28380000E-01 -5.61040000E-01 -1.03841000E+00
 -8.62500000E-01 -9.59300000E-01 -1.01755000E+00 -7.64900000E-01 -1.29467000E+00
 -1.92740000E-01 -2.56010000E-01 -3.19820000E-01 -1.94660000E-01 -2.60090000E-01
 -4.27990000E-01  0.00000000E+00  0.00000000E+00  0.00000000E+00  0.00000000E+00
  0.00000000E+00  0.00000000E+00  0.00000000E+00  0.00000000E+00  0.00000000E+00
  0.00000000E+00  0.00000000E+00  0.00000000E+00  0.00000000E+00  0.00000000E+00
  0.00000000E+00  0.00000000E+00  0.00000000E+00  0.00000000E+00  0.00000000E+00
  0.00000000E+00  0.00000000E+00  0.00000000E+00  0.00000000E+00  0.00000000E+00
  0.00000000E+00  0.00000000E+00  0.00000000E+00  0.00000000E+00  0.00000000E+00
  0.00000000E+00  0.00000000E+00  0.00000000E+00  0.00000000E+00  0.00000000E+00
  0.00000000E+00  0.00000000E+00  0.00000000E+00  0.00000000E+00  0.00000000E+00
  0.00000000E+00  0.00000000E+00  0.00000000E+00  0.00000000E+00  0.00000000E+00
  0.00000000E+00  0.00000000E+00  0.00000000E+00  0.00000000E+00  0.00000000E+00
  0.00000000E+00  0.00000000E+00  0.00000000E+00  0.00000000E+00  0.00000000E+00
  0.00000000E+00  0.00000000E+00  0.00000000E+00  0.00000000E+00  0.00000000E+00
  0.00000000E+00  0.00000000E+00  0.00000000E+00  0.00000000E+00  0.00000000E+00
  0.00000000E+00  0.00000000E+00  0.00000000E+00  0.00000000E+00  0.00000000E+00
  0.00000000E+00  0.00000000E+00  0.00000000E+00  0.00000000E+00  0.00000000E+00
  0.00000000E+00  0.00000000E+00  0.00000000E+00  0.00000000E+00  0.00000000E+00
  0.00000000E+00  0.00000000E+00  0.00000000E+00  0.00000000E+00  0.00000000E+00
  0.00000000E+00  0.00000000E+00  0.00000000E+00  0.00000000E+00  0.00000000E+00
  0.00000000E+00  0.00000000E+00  0.00000000E+00  0.00000000E+00  0.00000000E+00
  0.00000000E+00  0.00000000E+00  0.00000000E+00  0.00000000E+00  0.00000000E+00
  0.00000000E+00  0.00000000E+00  0.00000000E+00  0.00000000E+00  0.00000000E+00
  0.00000000E+00  0.00000000E+00  0.00000000E+00  0.00000000E+00  0.00000000E+00
  0.00000000E+00  0.00000000E+00  0.00000000E+00  0.00000000E+00  0.00000000E+00
  1.90440000E+00  1.36430000E+00  4.84000000E-01  7.31600000E+00  9.24030000E+00
  8.78200000E+00  5.61290000E+00  4.83340000E+00  3.24870000E+00  2.71090000E+00
  2.01130000E+00  1.50282000E+01  1.46788000E+01  2.13546000E+01  2.38290000E+01
  1.98022000E+01  1.50468000E+01  1.09745000E+01  1.27219000E+01  1.51949000E+01
  1.57342000E+01  2.79222000E+01  1.61366000E+01  2.21252000E+01  2.45676000E+01
  1.96016000E+01  1.79818000E+01  1.72396000E+01  5.01500000E+00  1.92898000E+01
  2.34477000E+01  2.23993000E+01  2.96586000E+01  2.60081000E+01  2.15580000E+01
  1.69594000E+01  1.56479000E+01  1.86897000E+01  1.93530000E+01  3.43444000E+01
  1.98480000E+01  2.72140000E+01  3.02182000E+01  2.41099000E+01  2.21176000E+01
  2.12047000E+01  7.56690000E+00  2.37264000E+01  2.93879000E+01  3.01278000E+01
  4.19382000E+01  3.85203000E+01  3.39511000E+01  2.75774000E+01  1.56460000E+01
  1.04460000E+01  2.01830000E+01  4.99540000E+01  4.76430000E+01  1.18690000E+01
  1.08670000E+01  9.96100000E+00  9.18700000E+00  3.67980000E+01  1.34070000E+01
  9.38200000E+00  9.81700000E+00  8.90800000E+00  8.40700000E+00  8.05800000E+00
  1.29600000E+01  2.67920000E+01  2.49300000E+01  3.45630000E+01  1.11860000E+01
  1.09440000E+01  1.01270000E+01  9.40400000E+00  1.36660000E+01  7.81000000E+00
  6.93600000E+01  5.86630000E+01  4.79690000E+01  4.52740000E+01  3.92290000E+01
  3.30660000E+01  0.00000000E+00  0.00000000E+00  0.00000000E+00  0.00000000E+00
  0.00000000E+00  0.00000000E+00  0.00000000E+00  0.00000000E+00  0.00000000E+00
  0.00000000E+00  0.00000000E+00  0.00000000E+00  0.00000000E+00  0.00000000E+00
  0.00000000E+00  0.00000000E+00  0.00000000E+00  0.00000000E+00  0.00000000E+00
  0.00000000E+00  0.00000000E+00  0.00000000E+00  0.00000000E+00  0.00000000E+00
  0.00000000E+00  0.00000000E+00  0.00000000E+00  0.00000000E+00  0.00000000E+00
  0.00000000E+00  0.00000000E+00  0.00000000E+00  0.00000000E+00  0.00000000E+00
  0.00000000E+00  0.00000000E+00  0.00000000E+00  0.00000000E+00  0.00000000E+00
  0.00000000E+00  0.00000000E+00  0.00000000E+00  0.00000000E+00  0.00000000E+00
  0.00000000E+00  0.00000000E+00  0.00000000E+00  0.00000000E+00  0.00000000E+00
  0.00000000E+00  0.00000000E+00  0.00000000E+00  0.00000000E+00  0.00000000E+00
  0.00000000E+00  0.00000000E+00  0.00000000E+00  0.00000000E+00  0.00000000E+00
  0.00000000E+00  0.00000000E+00  0.00000000E+00  0.00000000E+00  0.00000000E+00
  0.00000000E+00  0.00000000E+00  0.00000000E+00  0.00000000E+00  0.00000000E+00
  0.00000000E+00  0.00000000E+00  0.00000000E+00  0.00000000E+00  0.00000000E+00
  0.00000000E+00  0.00000000E+00  0.00000000E+00  0.00000000E+00  0.00000000E+00
  0.00000000E+00  0.00000000E+00  0.00000000E+00  0.00000000E+00  0.00000000E+00
  0.00000000E+00  0.00000000E+00  0.00000000E+00  0.00000000E+00  0.00000000E+00
  0.00000000E+00  0.00000000E+00  0.00000000E+00  0.00000000E+00  0.00000000E+00
  0.00000000E+00  0.00000000E+00  0.00000000E+00  0.00000000E+00  0.00000000E+00
  0.00000000E+00  0.00000000E+00  0.00000000E+00  0.00000000E+00  0.00000000E+00
  0.00000000E+00  0.00000000E+00  0.00000000E+00  0.00000000E+00  0.00000000E+00
  0.00000000E+00  0.00000000E+00  0.00000000E+00  0.00000000E+00  0.00000000E+00
  0.00000000E+00  0.00000000E+00  0.00000000E+00  0.00000000E+00  0.00000000E+00
  0.00000000E+00  0.00000000E+00  0.00000000E+00  0.00000000E+00  0.00000000E+00
  0.00000000E+00  0.00000000E+00  0.00000000E+00  0.00000000E+00  0.00000000E+00
  0.00000000E+00  0.00000000E+00  0.00000000E+00  0.00000000E+00  0.00000000E+00
  0.00000000E+00  0.00000000E+00  0.00000000E+00  0.00000000E+00  0.00000000E+00
  0.00000000E+00  0.00000000E+00  0.00000000E+00  0.00000000E+00  0.00000000E+00
  0.00000000E+00  0.00000000E+00  0.00000000E+00  0.00000000E+00  0.00000000E+00
  0.00000000E+00  0.00000000E+00  0.00000000E+00  0.00000000E+00  0.00000000E+00
  0.00000000E+00  0.00000000E+00  0.00000000E+00  0.00000000E+00  0.00000000E+00
  0.00000000E+00  0.00000000E+00  0.00000000E+00  0.00000000E+00  0.00000000E+00
  0.00000000E+00  0.00000000E+00  0.00000000E+00  0.00000000E+00  0.00000000E+00
  0.00000000E+00  0.00000000E+00  0.00000000E+00  0.00000000E+00  0.00000000E+00
  0.00000000E+00  0.00000000E+00  0.00000000E+00  0.00000000E+00  0.00000000E+00
  0.00000000E+00  0.00000000E+00  0.00000000E+00  0.00000000E+00  0.00000000E+00
  0.00000000E+00  0.00000000E+00  0.00000000E+00  0.00000000E+00  0.00000000E+00
  0.00000000E+00  0.00000000E+00  0.00000000E+00  0.00000000E+00  0.00000000E+00
  0.00000000E+00  0.00000000E+00  0.00000000E+00  0.00000000E+00  0.00000000E+00
  0.00000000E+00  0.00000000E+00  0.00000000E+00  0.00000000E+00  0.00000000E+00
  0.00000000E+00  0.00000000E+00  0.00000000E+00  0.00000000E+00  0.00000000E+00
  0.00000000E+00  0.00000000E+00  0.00000000E+00  0.00000000E+00  0.00000000E+00
  0.00000000E+00  0.00000000E+00  0.00000000E+00  0.00000000E+00  0.00000000E+00
  0.00000000E+00  0.00000000E+00  0.00000000E+00  0.00000000E+00  0.00000000E+00
  0.00000000E+00  0.00000000E+00  0.00000000E+00  0.00000000E+00  0.00000000E+00
  0.00000000E+00  0.00000000E+00  0.00000000E+00  0.00000000E+00  0.00000000E+00
  0.00000000E+00  0.00000000E+00  0.00000000E+00  0.00000000E+00  0.00000000E+00
  0.00000000E+00  0.00000000E+00  0.00000000E+00  0.00000000E+00  0.00000000E+00
  0.00000000E+00  0.00000000E+00  0.00000000E+00  0.00000000E+00  0.00000000E+00
  0.00000000E+00  0.00000000E+00  0.00000000E+00  0.00000000E+00  0.00000000E+00
  0.00000000E+00  0.00000000E+00  0.00000000E+00  0.00000000E+00  0.00000000E+00
  0.00000000E+00  0.00000000E+00  0.00000000E+00  0.00000000E+00  0.00000000E+00
  0.00000000E+00  0.00000000E+00  0.00000000E+00  0.00000000E+00  0.00000000E+00
  0.00000000E+00  0.00000000E+00  0.00000000E+00  0.00000000E+00  0.00000000E+00
  0.00000000E+00  0.00000000E+00  0.00000000E+00  0.00000000E+00  0.00000000E+00
  0.00000000E+00  0.00000000E+00  0.00000000E+00  0.00000000E+00  0.00000000E+00
  0.00000000E+00  0.00000000E+00  0.00000000E+00  0.00000000E+00  0.00000000E+00
  0.00000000E+00  0.00000000E+00  0.00000000E+00  0.00000000E+00  0.00000000E+00
  0.00000000E+00  0.00000000E+00  0.00000000E+00  0.00000000E+00  0.00000000E+00
  0.00000000E+00  0.00000000E+00  0.00000000E+00  0.00000000E+00  0.00000000E+00
  0.00000000E+00  0.00000000E+00  0.00000000E+00  0.00000000E+00  0.00000000E+00
  0.00000000E+00  0.00000000E+00  0.00000000E+00  0.00000000E+00  0.00000000E+00
  0.00000000E+00  0.00000000E+00  0.00000000E+00  0.00000000E+00  0.00000000E+00
  0.00000000E+00  0.00000000E+00  0.00000000E+00  0.00000000E+00  0.00000000E+00
  0.00000000E+00  0.00000000E+00  0.00000000E+00  0.00000000E+00  0.00000000E+00
  0.00000000E+00  0.00000000E+00  0.00000000E+00  0.00000000E+00  0.00000000E+00
  0.00000000E+00  0.00000000E+00  0.00000000E+00  0.00000000E+00  0.00000000E+00
  0.00000000E+00  0.00000000E+00  0.00000000E+00  0.00000000E+00  0.00000000E+00
  0.00000000E+00  0.00000000E+00  0.00000000E+00  0.00000000E+00  0.00000000E+00
  0.00000000E+00  0.00000000E+00  0.00000000E+00  0.00000000E+00  0.00000000E+00
  0.00000000E+00  0.00000000E+00  0.00000000E+00  0.00000000E+00  0.00000000E+00
  0.00000000E+00  0.00000000E+00  0.00000000E+00  0.00000000E+00  0.00000000E+00
  0.00000000E+00  0.00000000E+00  0.00000000E+00  0.00000000E+00  0.00000000E+00
  0.00000000E+00  0.00000000E+00  0.00000000E+00  0.00000000E+00  0.00000000E+00
  0.00000000E+00  0.00000000E+00  0.00000000E+00  0.00000000E+00  0.00000000E+00
  0.00000000E+00  0.00000000E+00  0.00000000E+00  0.00000000E+00  0.00000000E+00
  0.00000000E+00  0.00000000E+00  0.00000000E+00  0.00000000E+00  0.00000000E+00
  0.00000000E+00  0.00000000E+00  0.00000000E+00  0.00000000E+00  0.00000000E+00
  0.00000000E+00  0.00000000E+00  0.00000000E+00  0.00000000E+00  0.00000000E+00
  0.00000000E+00  0.00000000E+00  0.00000000E+00  0.00000000E+00  0.00000000E+00
  0.00000000E+00  0.00000000E+00  0.00000000E+00  0.00000000E+00  0.00000000E+00
  0.00000000E+00  0.00000000E+00  0.00000000E+00  0.00000000E+00  0.00000000E+00
  0.00000000E+00  0.00000000E+00  0.00000000E+00  0.00000000E+00  0.00000000E+00
  0.00000000E+00  0.00000000E+00  0.00000000E+00  0.00000000E+00  0.00000000E+00
  0.00000000E+00  0.00000000E+00  0.00000000E+00  0.00000000E+00  0.00000000E+00
  0.00000000E+00  0.00000000E+00  0.00000000E+00  0.00000000E+00  0.00000000E+00
  0.00000000E+00  0.00000000E+00  0.00000000E+00  0.00000000E+00  0.00000000E+00
  0.00000000E+00  0.00000000E+00  0.00000000E+00  0.00000000E+00  0.00000000E+00
  0.00000000E+00  0.00000000E+00  0.00000000E+00  0.00000000E+00  0.00000000E+00
  0.00000000E+00  0.00000000E+00  0.00000000E+00  0.00000000E+00  0.00000000E+00
  0.00000000E+00  0.00000000E+00  0.00000000E+00  0.00000000E+00  0.00000000E+00
  0.00000000E+00  0.00000000E+00  0.00000000E+00  0.00000000E+00  0.00000000E+00
  0.00000000E+00  0.00000000E+00  0.00000000E+00  0.00000000E+00  0.00000000E+00
  0.00000000E+00  0.00000000E+00  0.00000000E+00  0.00000000E+00  0.00000000E+00
  0.00000000E+00  0.00000000E+00  0.00000000E+00  0.00000000E+00  0.00000000E+00
  0.00000000E+00  0.00000000E+00  0.00000000E+00  0.00000000E+00  0.00000000E+00
  0.00000000E+00  0.00000000E+00  0.00000000E+00  0.00000000E+00  0.00000000E+00
  0.00000000E+00  0.00000000E+00  0.00000000E+00  0.00000000E+00  0.00000000E+00
  0.00000000E+00  0.00000000E+00  0.00000000E+00  0.00000000E+00  0.00000000E+00
  0.00000000E+00  0.00000000E+00  0.00000000E+00  0.00000000E+00  0.00000000E+00
  0.00000000E+00  0.00000000E+00  0.00000000E+00  0.00000000E+00  0.00000000E+00
  0.00000000E+00  0.00000000E+00  0.00000000E+00  0.00000000E+00  0.00000000E+00
  0.00000000E+00  0.00000000E+00  0.00000000E+00  0.00000000E+00  0.00000000E+00
  0.00000000E+00  0.00000000E+00  0.00000000E+00  0.00000000E+00  0.00000000E+00
  0.00000000E+00  0.00000000E+00  0.00000000E+00  0.00000000E+00  0.00000000E+00
  0.00000000E+00  0.00000000E+00  0.00000000E+00  0.00000000E+00  0.00000000E+00
  0.00000000E+00  0.00000000E+00  0.00000000E+00  0.00000000E+00  0.00000000E+00
  0.00000000E+00  0.00000000E+00  0.00000000E+00  0.00000000E+00  0.00000000E+00
  0.00000000E+00  0.00000000E+00  0.00000000E+00  0.00000000E+00  0.00000000E+00
  0.00000000E+00  0.00000000E+00  0.00000000E+00  0.00000000E+00  0.00000000E+00
  0.00000000E+00  0.00000000E+00  0.00000000E+00  0.00000000E+00  0.00000000E+00
  0.00000000E+00  0.00000000E+00  0.00000000E+00  0.00000000E+00  0.00000000E+00
  0.00000000E+00  0.00000000E+00  0.00000000E+00  0.00000000E+00  0.00000000E+00
  0.00000000E+00  0.00000000E+00  0.00000000E+00  0.00000000E+00  0.00000000E+00
  0.00000000E+00  0.00000000E+00  0.00000000E+00  0.00000000E+00  0.00000000E+00
  0.00000000E+00  0.00000000E+00  0.00000000E+00  0.00000000E+00  0.00000000E+00
  0.00000000E+00  0.00000000E+00  0.00000000E+00  0.00000000E+00  0.00000000E+00
  0.00000000E+00  0.00000000E+00  0.00000000E+00  0.00000000E+00  0.00000000E+00
  0.00000000E+00  0.00000000E+00  0.00000000E+00  0.00000000E+00  0.00000000E+00
  0.00000000E+00  0.00000000E+00  0.00000000E+00  0.00000000E+00  0.00000000E+00
  0.00000000E+00  0.00000000E+00  0.00000000E+00  0.00000000E+00  0.00000000E+00
  0.00000000E+00  0.00000000E+00  0.00000000E+00  0.00000000E+00  0.00000000E+00
  0.00000000E+00  0.00000000E+00  0.00000000E+00  0.00000000E+00  0.00000000E+00
  0.00000000E+00  0.00000000E+00  0.00000000E+00  0.00000000E+00  0.00000000E+00
  0.00000000E+00  0.00000000E+00  0.00000000E+00  0.00000000E+00  0.00000000E+00
  0.00000000E+00  0.00000000E+00  0.00000000E+00  0.00000000E+00  0.00000000E+00
  0.00000000E+00  0.00000000E+00  0.00000000E+00  0.00000000E+00  0.00000000E+00
  0.00000000E+00  0.00000000E+00  0.00000000E+00  0.00000000E+00  0.00000000E+00
  0.00000000E+00  0.00000000E+00  0.00000000E+00  0.00000000E+00  0.00000000E+00
  0.00000000E+00  0.00000000E+00  0.00000000E+00  0.00000000E+00  0.00000000E+00
  0.00000000E+00  0.00000000E+00  0.00000000E+00  0.00000000E+00  0.00000000E+00
  0.00000000E+00  0.00000000E+00  0.00000000E+00  0.00000000E+00  0.00000000E+00
  0.00000000E+00  0.00000000E+00  0.00000000E+00  0.00000000E+00  0.00000000E+00
  0.00000000E+00  0.00000000E+00  0.00000000E+00  0.00000000E+00  0.00000000E+00
  0.00000000E+00  0.00000000E+00  0.00000000E+00  0.00000000E+00  0.00000000E+00
  0.00000000E+00  0.00000000E+00  0.00000000E+00  0.00000000E+00  0.00000000E+00
  0.00000000E+00  0.00000000E+00  0.00000000E+00  0.00000000E+00  0.00000000E+00
  0.00000000E+00  0.00000000E+00  0.00000000E+00  0.00000000E+00  0.00000000E+00
  0.00000000E+00  0.00000000E+00  0.00000000E+00  0.00000000E+00  0.00000000E+00
  0.00000000E+00  0.00000000E+00  0.00000000E+00  0.00000000E+00  0.00000000E+00
  0.00000000E+00  0.00000000E+00  0.00000000E+00  0.00000000E+00  0.00000000E+00
  0.00000000E+00  0.00000000E+00  0.00000000E+00  0.00000000E+00  0.00000000E+00
  0.00000000E+00  0.00000000E+00  0.00000000E+00  0.00000000E+00  0.00000000E+00
  0.00000000E+00  0.00000000E+00  0.00000000E+00  0.00000000E+00  0.00000000E+00
  0.00000000E+00  0.00000000E+00  0.00000000E+00  0.00000000E+00  0.00000000E+00
  0.00000000E+00  0.00000000E+00  0.00000000E+00  0.00000000E+00  0.00000000E+00
  0.00000000E+00  0.00000000E+00  0.00000000E+00  0.00000000E+00  0.00000000E+00
  0.00000000E+00  0.00000000E+00  0.00000000E+00  0.00000000E+00  0.00000000E+00
  0.00000000E+00  0.00000000E+00  0.00000000E+00  0.00000000E+00  0.00000000E+00
  0.00000000E+00  0.00000000E+00  0.00000000E+00  0.00000000E+00  0.00000000E+00
  0.00000000E+00  0.00000000E+00  0.00000000E+00  0.00000000E+00  0.00000000E+00
  0.00000000E+00  0.00000000E+00  0.00000000E+00  0.00000000E+00  0.00000000E+00
  0.00000000E+00  0.00000000E+00  0.00000000E+00  0.00000000E+00  0.00000000E+00
  0.00000000E+00  0.00000000E+00  0.00000000E+00  0.00000000E+00  0.00000000E+00
  0.00000000E+00  0.00000000E+00  0.00000000E+00  0.00000000E+00  0.00000000E+00
  0.00000000E+00  0.00000000E+00  0.00000000E+00  0.00000000E+00  0.00000000E+00
  0.00000000E+00  0.00000000E+00  0.00000000E+00  0.00000000E+00  0.00000000E+00
  0.00000000E+00  0.00000000E+00  0.00000000E+00  0.00000000E+00  0.00000000E+00
  0.00000000E+00  0.00000000E+00  0.00000000E+00  0.00000000E+00  0.00000000E+00
  0.00000000E+00  0.00000000E+00  0.00000000E+00  0.00000000E+00  0.00000000E+00
  0.00000000E+00  0.00000000E+00  0.00000000E+00  0.00000000E+00  0.00000000E+00
  0.00000000E+00  0.00000000E+00  0.00000000E+00  0.00000000E+00  0.00000000E+00
  0.00000000E+00  0.00000000E+00  0.00000000E+00  0.00000000E+00  0.00000000E+00
  0.00000000E+00  0.00000000E+00  0.00000000E+00  0.00000000E+00  0.00000000E+00
  0.00000000E+00  0.00000000E+00  0.00000000E+00  0.00000000E+00  0.00000000E+00
  0.00000000E+00  0.00000000E+00  0.00000000E+00  0.00000000E+00  0.00000000E+00
  0.00000000E+00  0.00000000E+00  0.00000000E+00  0.00000000E+00  0.00000000E+00
  0.00000000E+00  0.00000000E+00  0.00000000E+00  0.00000000E+00  0.00000000E+00
  0.00000000E+00  0.00000000E+00  0.00000000E+00  0.00000000E+00  0.00000000E+00
  0.00000000E+00  0.00000000E+00  0.00000000E+00  0.00000000E+00  0.00000000E+00
  0.00000000E+00  0.00000000E+00  0.00000000E+00  0.00000000E+00  0.00000000E+00
  0.00000000E+00  0.00000000E+00  0.00000000E+00  0.00000000E+00  0.00000000E+00
  0.00000000E+00  0.00000000E+00  0.00000000E+00  0.00000000E+00  0.00000000E+00
  0.00000000E+00  0.00000000E+00  0.00000000E+00  0.00000000E+00  0.00000000E+00
  0.00000000E+00  0.00000000E+00  0.00000000E+00  0.00000000E+00  0.00000000E+00
  0.00000000E+00  0.00000000E+00  0.00000000E+00  0.00000000E+00  0.00000000E+00
  0.00000000E+00  0.00000000E+00  0.00000000E+00  0.00000000E+00  0.00000000E+00
  0.00000000E+00  0.00000000E+00  0.00000000E+00  0.00000000E+00  0.00000000E+00
  0.00000000E+00  0.00000000E+00  0.00000000E+00  0.00000000E+00  0.00000000E+00
  0.00000000E+00  0.00000000E+00  0.00000000E+00  0.00000000E+00  0.00000000E+00
  0.00000000E+00  0.00000000E+00  0.00000000E+00  0.00000000E+00  0.00000000E+00
  0.00000000E+00  0.00000000E+00  0.00000000E+00  0.00000000E+00  0.00000000E+00
  0.00000000E+00  0.00000000E+00  0.00000000E+00  0.00000000E+00  0.00000000E+00
  0.00000000E+00  0.00000000E+00  0.00000000E+00  0.00000000E+00  0.00000000E+00
  0.00000000E+00  0.00000000E+00  0.00000000E+00  0.00000000E+00  0.00000000E+00
  0.00000000E+00  0.00000000E+00  0.00000000E+00  0.00000000E+00  0.00000000E+00
  0.00000000E+00  0.00000000E+00  0.00000000E+00  0.00000000E+00  0.00000000E+00
  0.00000000E+00  0.00000000E+00  0.00000000E+00  0.00000000E+00  0.00000000E+00
  0.00000000E+00  0.00000000E+00  0.00000000E+00  0.00000000E+00  0.00000000E+00
  0.00000000E+00  0.00000000E+00  0.00000000E+00  0.00000000E+00  0.00000000E+00
  0.00000000E+00  0.00000000E+00  0.00000000E+00  0.00000000E+00  0.00000000E+00
  0.00000000E+00  0.00000000E+00  0.00000000E+00  0.00000000E+00  0.00000000E+00
  0.00000000E+00  0.00000000E+00  0.00000000E+00  0.00000000E+00  0.00000000E+00
  0.00000000E+00  0.00000000E+00  0.00000000E+00  0.00000000E+00  0.00000000E+00
  0.00000000E+00  0.00000000E+00  0.00000000E+00  0.00000000E+00  0.00000000E+00
  0.00000000E+00  0.00000000E+00  0.00000000E+00  0.00000000E+00  0.00000000E+00
  0.00000000E+00  0.00000000E+00  0.00000000E+00  0.00000000E+00  0.00000000E+00
  0.00000000E+00  0.00000000E+00  0.00000000E+00  0.00000000E+00  0.00000000E+00
  0.00000000E+00  0.00000000E+00  0.00000000E+00  0.00000000E+00  0.00000000E+00
  0.00000000E+00  0.00000000E+00  0.00000000E+00  0.00000000E+00  0.00000000E+00
  0.00000000E+00  0.00000000E+00  0.00000000E+00  0.00000000E+00  0.00000000E+00
  0.00000000E+00  0.00000000E+00  0.00000000E+00  0.00000000E+00  0.00000000E+00
  0.00000000E+00  0.00000000E+00  0.00000000E+00  0.00000000E+00  0.00000000E+00
  0.00000000E+00  0.00000000E+00  0.00000000E+00  0.00000000E+00  0.00000000E+00
  0.00000000E+00  0.00000000E+00  0.00000000E+00  0.00000000E+00  0.00000000E+00
  0.00000000E+00  0.00000000E+00  0.00000000E+00  0.00000000E+00  0.00000000E+00
  0.00000000E+00  0.00000000E+00  0.00000000E+00  0.00000000E+00  0.00000000E+00
  0.00000000E+00  0.00000000E+00  0.00000000E+00  0.00000000E+00  0.00000000E+00
  0.00000000E+00  0.00000000E+00  0.00000000E+00  0.00000000E+00  0.00000000E+00
  0.00000000E+00  0.00000000E+00  0.00000000E+00  0.00000000E+00  0.00000000E+00
  0.00000000E+00  0.00000000E+00  0.00000000E+00  0.00000000E+00  0.00000000E+00
  0.00000000E+00  0.00000000E+00  0.00000000E+00  0.00000000E+00  0.00000000E+00
  0.00000000E+00  0.00000000E+00  0.00000000E+00  0.00000000E+00  0.00000000E+00
  0.00000000E+00  0.00000000E+00  0.00000000E+00  0.00000000E+00  0.00000000E+00
  0.00000000E+00  0.00000000E+00  0.00000000E+00  0.00000000E+00  0.00000000E+00
  0.00000000E+00  0.00000000E+00  0.00000000E+00  0.00000000E+00  0.00000000E+00
  0.00000000E+00  0.00000000E+00  0.00000000E+00  0.00000000E+00  0.00000000E+00
  0.00000000E+00  0.00000000E+00  0.00000000E+00  0.00000000E+00  0.00000000E+00
  0.00000000E+00  0.00000000E+00  0.00000000E+00  0.00000000E+00  0.00000000E+00
  0.00000000E+00  0.00000000E+00  0.00000000E+00  0.00000000E+00  0.00000000E+00
  0.00000000E+00  0.00000000E+00  0.00000000E+00  0.00000000E+00  0.00000000E+00
  0.00000000E+00  0.00000000E+00  0.00000000E+00  0.00000000E+00  0.00000000E+00
  0.00000000E+00  0.00000000E+00  0.00000000E+00  0.00000000E+00  0.00000000E+00
  0.00000000E+00  0.00000000E+00  0.00000000E+00  0.00000000E+00  0.00000000E+00
  0.00000000E+00  0.00000000E+00  0.00000000E+00  0.00000000E+00  0.00000000E+00
  0.00000000E+00  0.00000000E+00  0.00000000E+00  0.00000000E+00  0.00000000E+00
  0.00000000E+00  0.00000000E+00  0.00000000E+00  0.00000000E+00  0.00000000E+00
  0.00000000E+00  0.00000000E+00  0.00000000E+00  0.00000000E+00  0.00000000E+00
  0.00000000E+00  0.00000000E+00  0.00000000E+00  0.00000000E+00  0.00000000E+00
  0.00000000E+00  0.00000000E+00  0.00000000E+00  0.00000000E+00  0.00000000E+00
  0.00000000E+00  0.00000000E+00  0.00000000E+00  0.00000000E+00  0.00000000E+00
  0.00000000E+00  0.00000000E+00  0.00000000E+00  0.00000000E+00  0.00000000E+00
  0.00000000E+00  0.00000000E+00  0.00000000E+00  0.00000000E+00  0.00000000E+00
  0.00000000E+00  0.00000000E+00  0.00000000E+00  0.00000000E+00  0.00000000E+00
  0.00000000E+00  0.00000000E+00  0.00000000E+00  0.00000000E+00  0.00000000E+00
  0.00000000E+00  0.00000000E+00  0.00000000E+00  0.00000000E+00  0.00000000E+00
  0.00000000E+00  0.00000000E+00  0.00000000E+00  0.00000000E+00  0.00000000E+00
  0.00000000E+00  0.00000000E+00  0.00000000E+00  0.00000000E+00  0.00000000E+00
  0.00000000E+00  0.00000000E+00  0.00000000E+00  0.00000000E+00  0.00000000E+00
  0.00000000E+00  0.00000000E+00  0.00000000E+00  0.00000000E+00  0.00000000E+00
  0.00000000E+00  0.00000000E+00  0.00000000E+00  0.00000000E+00  0.00000000E+00
  0.00000000E+00  0.00000000E+00  0.00000000E+00  0.00000000E+00  0.00000000E+00
  0.00000000E+00  0.00000000E+00  0.00000000E+00  0.00000000E+00  0.00000000E+00
  0.00000000E+00  0.00000000E+00  0.00000000E+00  0.00000000E+00  0.00000000E+00
  0.00000000E+00  0.00000000E+00  0.00000000E+00  0.00000000E+00  0.00000000E+00
  0.00000000E+00  0.00000000E+00  0.00000000E+00  0.00000000E+00  0.00000000E+00
  0.00000000E+00  0.00000000E+00  0.00000000E+00  0.00000000E+00  0.00000000E+00
  0.00000000E+00  0.00000000E+00  0.00000000E+00  0.00000000E+00  0.00000000E+00
  0.00000000E+00  0.00000000E+00  0.00000000E+00  0.00000000E+00  0.00000000E+00
  0.00000000E+00  0.00000000E+00  0.00000000E+00  0.00000000E+00  0.00000000E+00
  0.00000000E+00  0.00000000E+00  0.00000000E+00  0.00000000E+00  0.00000000E+00
  0.00000000E+00  0.00000000E+00  0.00000000E+00  0.00000000E+00  0.00000000E+00
  0.00000000E+00  0.00000000E+00  0.00000000E+00  0.00000000E+00  0.00000000E+00
  0.00000000E+00  0.00000000E+00  0.00000000E+00  0.00000000E+00  0.00000000E+00
  0.00000000E+00  0.00000000E+00  0.00000000E+00  0.00000000E+00  0.00000000E+00
  0.00000000E+00  0.00000000E+00  0.00000000E+00  0.00000000E+00  0.00000000E+00
  0.00000000E+00  0.00000000E+00  0.00000000E+00  0.00000000E+00  0.00000000E+00
  0.00000000E+00  0.00000000E+00  0.00000000E+00  0.00000000E+00  0.00000000E+00
  0.00000000E+00  0.00000000E+00  0.00000000E+00  0.00000000E+00  0.00000000E+00
  0.00000000E+00  0.00000000E+00  0.00000000E+00  0.00000000E+00  0.00000000E+00
  0.00000000E+00  0.00000000E+00  0.00000000E+00  0.00000000E+00  0.00000000E+00
  0.00000000E+00  0.00000000E+00  0.00000000E+00  0.00000000E+00  0.00000000E+00
  0.00000000E+00  0.00000000E+00  0.00000000E+00  0.00000000E+00  0.00000000E+00
  0.00000000E+00  0.00000000E+00  0.00000000E+00  0.00000000E+00  0.00000000E+00
  0.00000000E+00  0.00000000E+00  0.00000000E+00  0.00000000E+00  0.00000000E+00
  0.00000000E+00  0.00000000E+00  0.00000000E+00  0.00000000E+00  0.00000000E+00
  0.00000000E+00  0.00000000E+00  0.00000000E+00  0.00000000E+00  0.00000000E+00
  0.00000000E+00  0.00000000E+00  0.00000000E+00  0.00000000E+00  0.00000000E+00
  0.00000000E+00  0.00000000E+00  0.00000000E+00  0.00000000E+00  0.00000000E+00
  0.00000000E+00  0.00000000E+00  0.00000000E+00  0.00000000E+00  0.00000000E+00
  0.00000000E+00  0.00000000E+00  0.00000000E+00  0.00000000E+00  0.00000000E+00
  0.00000000E+00  0.00000000E+00  0.00000000E+00  0.00000000E+00  0.00000000E+00
  0.00000000E+00  0.00000000E+00  0.00000000E+00  0.00000000E+00  0.00000000E+00
  0.00000000E+00  0.00000000E+00  0.00000000E+00  0.00000000E+00  0.00000000E+00
  0.00000000E+00  0.00000000E+00  0.00000000E+00  0.00000000E+00  0.00000000E+00
  0.00000000E+00  0.00000000E+00  0.00000000E+00  0.00000000E+00  0.00000000E+00
  0.00000000E+00  0.00000000E+00  0.00000000E+00  0.00000000E+00  0.00000000E+00
  0.00000000E+00  0.00000000E+00  0.00000000E+00  0.00000000E+00  0.00000000E+00
  0.00000000E+00  0.00000000E+00  0.00000000E+00  0.00000000E+00  0.00000000E+00
  0.00000000E+00  0.00000000E+00  0.00000000E+00  0.00000000E+00  0.00000000E+00
  0.00000000E+00  0.00000000E+00  0.00000000E+00  0.00000000E+00  0.00000000E+00
  0.00000000E+00  0.00000000E+00  0.00000000E+00  0.00000000E+00  0.00000000E+00
  0.00000000E+00  0.00000000E+00  0.00000000E+00  0.00000000E+00  0.00000000E+00
  0.00000000E+00  0.00000000E+00  0.00000000E+00  0.00000000E+00  0.00000000E+00
  0.00000000E+00  0.00000000E+00  0.00000000E+00  0.00000000E+00  0.00000000E+00
  0.00000000E+00  0.00000000E+00  0.00000000E+00  0.00000000E+00  0.00000000E+00
  0.00000000E+00  0.00000000E+00  0.00000000E+00  0.00000000E+00  0.00000000E+00
  0.00000000E+00  0.00000000E+00  0.00000000E+00  0.00000000E+00  0.00000000E+00
  0.00000000E+00  0.00000000E+00  0.00000000E+00  0.00000000E+00  0.00000000E+00
  0.00000000E+00  0.00000000E+00  0.00000000E+00  0.00000000E+00  0.00000000E+00
  0.00000000E+00  0.00000000E+00  0.00000000E+00  0.00000000E+00  0.00000000E+00
  0.00000000E+00  0.00000000E+00  0.00000000E+00  0.00000000E+00  0.00000000E+00
  0.00000000E+00  0.00000000E+00  0.00000000E+00  0.00000000E+00  0.00000000E+00
  0.00000000E+00  0.00000000E+00  0.00000000E+00  0.00000000E+00  0.00000000E+00
  0.00000000E+00  0.00000000E+00  0.00000000E+00  0.00000000E+00  0.00000000E+00
  0.00000000E+00  0.00000000E+00  0.00000000E+00  0.00000000E+00  0.00000000E+00
  0.00000000E+00  0.00000000E+00  0.00000000E+00  0.00000000E+00  0.00000000E+00
  0.00000000E+00  0.00000000E+00  0.00000000E+00  0.00000000E+00  0.00000000E+00
  0.00000000E+00  0.00000000E+00  0.00000000E+00  0.00000000E+00  0.00000000E+00
  0.00000000E+00  0.00000000E+00  0.00000000E+00  0.00000000E+00  0.00000000E+00
  0.00000000E+00  0.00000000E+00  0.00000000E+00  0.00000000E+00  0.00000000E+00
  0.00000000E+00  0.00000000E+00  0.00000000E+00  0.00000000E+00  0.00000000E+00
  0.00000000E+00  0.00000000E+00  0.00000000E+00  0.00000000E+00  0.00000000E+00
  0.00000000E+00  0.00000000E+00  0.00000000E+00  0.00000000E+00  0.00000000E+00
  0.00000000E+00  0.00000000E+00  0.00000000E+00  0.00000000E+00  0.00000000E+00
  0.00000000E+00  0.00000000E+00  0.00000000E+00  0.00000000E+00  0.00000000E+00
  0.00000000E+00  0.00000000E+00  0.00000000E+00  0.00000000E+00  0.00000000E+00
  0.00000000E+00  0.00000000E+00  0.00000000E+00  0.00000000E+00  0.00000000E+00
  0.00000000E+00  0.00000000E+00  0.00000000E+00  0.00000000E+00  0.00000000E+00
  0.00000000E+00  0.00000000E+00  0.00000000E+00  0.00000000E+00  0.00000000E+00
  0.00000000E+00  0.00000000E+00  0.00000000E+00  0.00000000E+00  0.00000000E+00
  0.00000000E+00  0.00000000E+00  0.00000000E+00  0.00000000E+00  0.00000000E+00
  0.00000000E+00  0.00000000E+00  0.00000000E+00  0.00000000E+00  0.00000000E+00
  0.00000000E+00  0.00000000E+00  0.00000000E+00  0.00000000E+00  0.00000000E+00
  0.00000000E+00  0.00000000E+00  0.00000000E+00  0.00000000E+00  0.00000000E+00
  0.00000000E+00  0.00000000E+00  0.00000000E+00  0.00000000E+00  0.00000000E+00
  0.00000000E+00  0.00000000E+00  0.00000000E+00  0.00000000E+00  0.00000000E+00
  0.00000000E+00  0.00000000E+00  0.00000000E+00  0.00000000E+00  0.00000000E+00
  0.00000000E+00  0.00000000E+00  0.00000000E+00  0.00000000E+00  0.00000000E+00
  0.00000000E+00  0.00000000E+00  0.00000000E+00  0.00000000E+00  0.00000000E+00
  0.00000000E+00  0.00000000E+00  0.00000000E+00  0.00000000E+00  0.00000000E+00
  0.00000000E+00  0.00000000E+00  0.00000000E+00  0.00000000E+00  0.00000000E+00
  0.00000000E+00  0.00000000E+00  0.00000000E+00  0.00000000E+00  0.00000000E+00
  0.00000000E+00  0.00000000E+00  0.00000000E+00  0.00000000E+00  0.00000000E+00
  0.00000000E+00  0.00000000E+00  0.00000000E+00  0.00000000E+00  0.00000000E+00
  0.00000000E+00  0.00000000E+00  0.00000000E+00  0.00000000E+00  0.00000000E+00
  0.00000000E+00  0.00000000E+00  0.00000000E+00  0.00000000E+00  0.00000000E+00
  0.00000000E+00  0.00000000E+00  0.00000000E+00  0.00000000E+00  0.00000000E+00
  0.00000000E+00  0.00000000E+00  0.00000000E+00  0.00000000E+00  0.00000000E+00
  0.00000000E+00  0.00000000E+00  0.00000000E+00  0.00000000E+00  0.00000000E+00
  0.00000000E+00  0.00000000E+00  0.00000000E+00  0.00000000E+00  0.00000000E+00
  0.00000000E+00  0.00000000E+00  0.00000000E+00  0.00000000E+00  0.00000000E+00
  0.00000000E+00  0.00000000E+00  0.00000000E+00  0.00000000E+00  0.00000000E+00
  0.00000000E+00  0.00000000E+00  0.00000000E+00  0.00000000E+00  0.00000000E+00
  0.00000000E+00  0.00000000E+00  0.00000000E+00  0.00000000E+00  0.00000000E+00
  0.00000000E+00  0.00000000E+00  0.00000000E+00  0.00000000E+00  0.00000000E+00
  0.00000000E+00  0.00000000E+00  0.00000000E+00  0.00000000E+00  0.00000000E+00
  0.00000000E+00  0.00000000E+00  0.00000000E+00  0.00000000E+00  0.00000000E+00
  0.00000000E+00  0.00000000E+00  0.00000000E+00  0.00000000E+00  0.00000000E+00
  0.00000000E+00  0.00000000E+00  0.00000000E+00  0.00000000E+00  0.00000000E+00
  0.00000000E+00  0.00000000E+00  0.00000000E+00  0.00000000E+00  0.00000000E+00
  0.00000000E+00  0.00000000E+00  0.00000000E+00  0.00000000E+00  0.00000000E+00
  0.00000000E+00  0.00000000E+00  0.00000000E+00  0.00000000E+00  0.00000000E+00
  0.00000000E+00  0.00000000E+00  0.00000000E+00  0.00000000E+00  0.00000000E+00
  0.00000000E+00  0.00000000E+00  0.00000000E+00  0.00000000E+00  0.00000000E+00
  0.00000000E+00  0.00000000E+00  0.00000000E+00  0.00000000E+00  0.00000000E+00
  0.00000000E+00  0.00000000E+00  0.00000000E+00  0.00000000E+00  0.00000000E+00
  0.00000000E+00  0.00000000E+00  0.00000000E+00  0.00000000E+00  0.00000000E+00
  0.00000000E+00  0.00000000E+00  0.00000000E+00  0.00000000E+00  0.00000000E+00
  0.00000000E+00  0.00000000E+00  0.00000000E+00  0.00000000E+00  0.00000000E+00
  0.00000000E+00  0.00000000E+00  0.00000000E+00  0.00000000E+00  0.00000000E+00
  0.00000000E+00  0.00000000E+00  0.00000000E+00  0.00000000E+00  0.00000000E+00
  0.00000000E+00  0.00000000E+00  0.00000000E+00  0.00000000E+00  0.00000000E+00
  0.00000000E+00  0.00000000E+00  0.00000000E+00  0.00000000E+00  0.00000000E+00
  0.00000000E+00  0.00000000E+00  0.00000000E+00  0.00000000E+00  0.00000000E+00
  0.00000000E+00  0.00000000E+00  0.00000000E+00  0.00000000E+00  0.00000000E+00
  0.00000000E+00  0.00000000E+00  0.00000000E+00  0.00000000E+00  0.00000000E+00
  0.00000000E+00  0.00000000E+00  0.00000000E+00  0.00000000E+00  0.00000000E+00
  0.00000000E+00  0.00000000E+00  0.00000000E+00  0.00000000E+00  0.00000000E+00
  0.00000000E+00  0.00000000E+00  0.00000000E+00  0.00000000E+00  0.00000000E+00
  0.00000000E+00  0.00000000E+00  0.00000000E+00  0.00000000E+00  0.00000000E+00
  0.00000000E+00  0.00000000E+00  0.00000000E+00  0.00000000E+00  0.00000000E+00
  0.00000000E+00  0.00000000E+00  0.00000000E+00  0.00000000E+00  0.00000000E+00
  0.00000000E+00  0.00000000E+00  0.00000000E+00  0.00000000E+00  0.00000000E+00
  0.00000000E+00  0.00000000E+00  0.00000000E+00  0.00000000E+00  0.00000000E+00
  0.00000000E+00  0.00000000E+00  0.00000000E+00  0.00000000E+00  0.00000000E+00
  0.00000000E+00  0.00000000E+00  0.00000000E+00  0.00000000E+00  0.00000000E+00
  0.00000000E+00  0.00000000E+00  0.00000000E+00  0.00000000E+00  0.00000000E+00
  0.00000000E+00  0.00000000E+00  0.00000000E+00  0.00000000E+00  0.00000000E+00
  0.00000000E+00  0.00000000E+00  0.00000000E+00  0.00000000E+00  0.00000000E+00
  0.00000000E+00  0.00000000E+00  0.00000000E+00  0.00000000E+00  0.00000000E+00
  0.00000000E+00  0.00000000E+00  0.00000000E+00  0.00000000E+00  0.00000000E+00
  0.00000000E+00  0.00000000E+00  0.00000000E+00  0.00000000E+00  0.00000000E+00
  0.00000000E+00  0.00000000E+00  0.00000000E+00  0.00000000E+00  0.00000000E+00
  0.00000000E+00  0.00000000E+00  0.00000000E+00  0.00000000E+00  0.00000000E+00
  0.00000000E+00  0.00000000E+00  0.00000000E+00  0.00000000E+00  0.00000000E+00
  0.00000000E+00  0.00000000E+00  0.00000000E+00  0.00000000E+00  0.00000000E+00
  0.00000000E+00  0.00000000E+00  0.00000000E+00  0.00000000E+00  0.00000000E+00
  0.00000000E+00  0.00000000E+00  0.00000000E+00  0.00000000E+00  0.00000000E+00
  0.00000000E+00  0.00000000E+00  0.00000000E+00  0.00000000E+00  0.00000000E+00
  0.00000000E+00  0.00000000E+00  0.00000000E+00  0.00000000E+00  0.00000000E+00
  0.00000000E+00  0.00000000E+00  0.00000000E+00  0.00000000E+00  0.00000000E+00
Gaussian Version                           C   N=           2
ES64L-G16RevC.01        
