energy: -15.879640656223 gnorm: 0.000045661745 xtb: 6.7.1 (edcfbbe)     
Freq      RB3LYP                                                      6-31G(d)            
Number of atoms                            I               12
Info1-9                                    I   N=           9
          20          20        1002           0           0         100
           6          18        -502
Full Title                                 C   N=           6
energy: -15.879640656223 gnorm: 0.000045661745 xtb: 6.7.1 (e
dcfbbe)     
Route                                      C   N=           3
#p B3LYP/6-31G(d) Opt Freq=Raman    
Charge                                     I                0
Multiplicity                               I                1
Number of electrons                        I               42
Number of alpha electrons                  I               21
Number of beta electrons                   I               21
Number of basis functions                  I              102
Number of independent functions            I              102
Number of point charges in /Mol/           I                0
Number of translation vectors              I                0
Atomic numbers                             I   N=          12
           6           6           6           6           6           6
           1           1           1           1           1           1
Nuclear charges                            R   N=          12
  6.00000000E+00  6.00000000E+00  6.00000000E+00  6.00000000E+00  6.00000000E+00
  6.00000000E+00  1.00000000E+00  1.00000000E+00  1.00000000E+00  1.00000000E+00
  1.00000000E+00  1.00000000E+00
Current cartesian coordinates              R   N=          36
  2.12992092E+00 -1.55854761E+00  7.08414964E-07 -2.84791496E-01 -2.62383089E+00
 -2.34042227E-06 -2.41470350E+00 -1.06528336E+00  1.04204473E-06 -2.12991869E+00
  1.55855088E+00 -1.16854596E-07  2.84787820E-01  2.62383102E+00 -1.55389011E-06
  2.41470496E+00  1.06528050E+00  1.30748315E-06  3.78763297E+00 -2.77157634E+00
  5.85326626E-08 -5.06450397E-01 -4.66596640E+00 -3.22997391E-06 -4.29407589E+00
 -1.89438540E+00  6.48024819E-06 -3.78763738E+00  2.77157046E+00  2.70961903E-06
  5.06456070E-01  4.66596577E+00 -5.75036086E-06  4.29407451E+00  1.89438867E+00
  5.45127969E-06
Number of symbols in /Mol/                 I                0
Int Atom Types                             I   N=          12
           0           0           0           0           0           0
           0           0           0           0           0           0
Force Field                                I                0
Atom Types                                 C   N=          12
                                                            
                                                            
                        
MM charges                                 R   N=          12
  0.00000000E+00  0.00000000E+00  0.00000000E+00  0.00000000E+00  0.00000000E+00
  0.00000000E+00  0.00000000E+00  0.00000000E+00  0.00000000E+00  0.00000000E+00
  0.00000000E+00  0.00000000E+00
Integer atomic weights                     I   N=          12
          12          12          12          12          12          12
           1           1           1           1           1           1
Real atomic weights                        R   N=          12
  1.20000000E+01  1.20000000E+01  1.20000000E+01  1.20000000E+01  1.20000000E+01
  1.20000000E+01  1.00782504E+00  1.00782504E+00  1.00782504E+00  1.00782504E+00
  1.00782504E+00  1.00782504E+00
Atom fragment info                         I   N=          12
           0           0           0           0           0           0
           0           0           0           0           0           0
Atom residue num                           I   N=          12
           0           0           0           0           0           0
           0           0           0           0           0           0
Nuclear spins                              I   N=          12
           0           0           0           0           0           0
           1           1           1           1           1           1
Nuclear ZEff                               R   N=          12
 -3.60000000E+00 -3.60000000E+00 -3.60000000E+00 -3.60000000E+00 -3.60000000E+00
 -3.60000000E+00 -1.00000000E+00 -1.00000000E+00 -1.00000000E+00 -1.00000000E+00
 -1.00000000E+00 -1.00000000E+00
Nuclear ZNuc                               R   N=          12
  6.00000000E+00  6.00000000E+00  6.00000000E+00  6.00000000E+00  6.00000000E+00
  6.00000000E+00  1.00000000E+00  1.00000000E+00  1.00000000E+00  1.00000000E+00
  1.00000000E+00  1.00000000E+00
Nuclear QMom                               R   N=          12
  0.00000000E+00  0.00000000E+00  0.00000000E+00  0.00000000E+00  0.00000000E+00
  0.00000000E+00  0.00000000E+00  0.00000000E+00  0.00000000E+00  0.00000000E+00
  0.00000000E+00  0.00000000E+00
Nuclear GFac                               R   N=          12
  0.00000000E+00  0.00000000E+00  0.00000000E+00  0.00000000E+00  0.00000000E+00
  0.00000000E+00  2.79284600E+00  2.79284600E+00  2.79284600E+00  2.79284600E+00
  2.79284600E+00  2.79284600E+00
MicOpt                                     I   N=          12
          -1          -1          -1          -1          -1          -1
          -1          -1          -1          -1          -1          -1
Number of residues                         I                0
Number of secondary structures             I                0
Redundant internal dimensions              I   N=           4
          54          12          18          24
Redundant internal coordinate indices      I   N=         216
           1           2           0           0           1           6
           0           0           1           7           0           0
           2           3           0           0           2           8
           0           0           3           4           0           0
           3           9           0           0           4           5
           0           0           4          10           0           0
           5           6           0           0           5          11
           0           0           6          12           0           0
           2           1           6           0           2           1
           7           0           6           1           7           0
           1           2           3           0           1           2
           8           0           3           2           8           0
           2           3           4           0           2           3
           9           0           4           3           9           0
           3           4           5           0           3           4
          10           0           5           4          10           0
           4           5           6           0           4           5
          11           0           6           5          11           0
           1           6           5           0           1           6
          12           0           5           6          12           0
           6           1           2           3           6           1
           2           8           7           1           2           3
           7           1           2           8           2           1
           6           5           2           1           6          12
           7           1           6           5           7           1
           6          12           1           2           3           4
           1           2           3           9           8           2
           3           4           8           2           3           9
           2           3           4           5           2           3
           4          10           9           3           4           5
           9           3           4          10           3           4
           5           6           3           4           5          11
          10           4           5           6          10           4
           5          11           4           5           6           1
           4           5           6          12          11           5
           6           1          11           5           6          12
Redundant internal coordinates             R   N=          54
  2.63925454E+00  2.63923775E+00  2.05412949E+00  2.63924148E+00  2.05413001E+00
  2.63924392E+00  2.05413017E+00  2.63924786E+00  2.05412945E+00  2.63924738E+00
  2.05413026E+00  2.05413005E+00  2.09439207E+00  2.09439368E+00  2.09439956E+00
  2.09439764E+00  2.09439709E+00  2.09439058E+00  2.09439556E+00  2.09440151E+00
  2.09438823E+00  2.09439192E+00  2.09439401E+00  2.09439938E+00  2.09439806E+00
  2.09440147E+00  2.09438577E+00  2.09439536E+00  2.09439148E+00  2.09439846E+00
 -2.55171237E-06  3.14159242E+00  3.14159154E+00  1.19915006E-06 -1.79433742E-07
  3.14159166E+00  3.14159104E+00 -2.43263453E-06  3.32078654E-06 -3.14158826E+00
 -3.14159165E+00  2.07720263E-06 -1.35813274E-06 -3.14159255E+00  3.14159023E+00
 -9.61096018E-07 -1.37357672E-06  3.14159080E+00  3.14158981E+00 -3.31918139E-06
  2.14271237E-06 -3.14158970E+00 -3.14159003E+00  3.43645461E-06
ZRed-IntVec                                I   N=          54
           0           0           0           0           0           0
           0           0           0           0           0           0
           0           0           0           0           0           0
           0           0           0           0           0           0
           0           0           0           0           0           0
           0           0           0           0           0           0
           0           0           0           0           0           0
           0           0           0           0           0           0
           0           0           0           0           0           0
ZRed-FPVec                                 R   N=          54
  0.00000000E+00  0.00000000E+00  0.00000000E+00  0.00000000E+00  0.00000000E+00
  0.00000000E+00  0.00000000E+00  0.00000000E+00  0.00000000E+00  0.00000000E+00
  0.00000000E+00  0.00000000E+00  0.00000000E+00  0.00000000E+00  0.00000000E+00
  0.00000000E+00  0.00000000E+00  0.00000000E+00  0.00000000E+00  0.00000000E+00
  0.00000000E+00  0.00000000E+00  0.00000000E+00  0.00000000E+00  0.00000000E+00
  0.00000000E+00  0.00000000E+00  0.00000000E+00  0.00000000E+00  0.00000000E+00
  0.00000000E+00  0.00000000E+00  0.00000000E+00  0.00000000E+00  0.00000000E+00
  0.00000000E+00  0.00000000E+00  0.00000000E+00  0.00000000E+00  0.00000000E+00
  0.00000000E+00  0.00000000E+00  0.00000000E+00  0.00000000E+00  0.00000000E+00
  0.00000000E+00  0.00000000E+00  0.00000000E+00  0.00000000E+00  0.00000000E+00
  0.00000000E+00  0.00000000E+00  0.00000000E+00  0.00000000E+00
ZRed-Constraint1                           R   N=          54
  2.63925454E+00  2.63923775E+00  2.05412949E+00  2.63924148E+00  2.05413001E+00
  2.63924392E+00  2.05413017E+00  2.63924786E+00  2.05412945E+00  2.63924738E+00
  2.05413026E+00  2.05413005E+00  2.09439207E+00  2.09439368E+00  2.09439956E+00
  2.09439764E+00  2.09439709E+00  2.09439058E+00  2.09439556E+00  2.09440151E+00
  2.09438823E+00  2.09439192E+00  2.09439401E+00  2.09439938E+00  2.09439806E+00
  2.09440147E+00  2.09438577E+00  2.09439536E+00  2.09439148E+00  2.09439846E+00
 -2.55166886E-06  3.14159242E+00  3.14159154E+00  1.19915006E-06 -1.80666978E-07
  3.14159166E+00  3.14159104E+00 -2.43263453E-06  3.32078654E-06 -3.14158826E+00
 -3.14159165E+00  2.07720263E-06 -1.35821448E-06 -3.14159255E+00  3.14159023E+00
 -9.61096018E-07 -1.37357672E-06  3.14159080E+00  3.14158981E+00 -3.31914794E-06
  2.14271237E-06 -3.14158970E+00 -3.14159003E+00  3.43648691E-06
ZRed-Constraint2                           R   N=          54
  2.61653020E+00  2.61649924E+00  2.04176334E+00  2.61649667E+00  2.04176123E+00
  2.61651675E+00  2.04176316E+00  2.61648835E+00  2.04177309E+00  2.61651267E+00
  2.04177193E+00  2.04175225E+00  2.09439733E+00  2.09438076E+00  2.09440722E+00
  2.09438864E+00  2.09438853E+00  2.09440814E+00  2.09439680E+00  2.09440206E+00
  2.09438645E+00  2.09439638E+00  2.09437600E+00  2.09441293E+00  2.09440066E+00
  2.09439693E+00  2.09438772E+00  2.09439081E+00  2.09439119E+00  2.09440331E+00
 -2.48249097E-05 -3.14158062E+00  3.14157982E+00  2.40183007E-05 -8.41456579E-06
 -3.14158986E+00  3.14157225E+00 -9.19192716E-06  3.32394442E-05 -3.14153637E+00
  3.14158904E+00  1.94253311E-05 -8.41453940E-06 -3.14158378E+00  3.14156120E+00
 -1.41639280E-05 -2.48253122E-05  3.14157820E+00  3.14155054E+00 -3.17463915E-05
  3.32397514E-05 -3.14157062E+00 -3.14156979E+00  1.16577280E-05
SymInf integers                            I   N=          26
           1           1           1           1           1           0
           0           0           0           0           0           0
           0           0           0           0           0           0
           0           0           0           0           0           0
           0           0
RotTr to input orientation                 R   N=          12
  8.88760178E-01  4.58292178E-01  8.58056383E-03 -4.58345269E-01  8.88755693E-01
  5.73859780E-03 -4.99607047E-03 -9.03309803E-03  9.99946720E-01  9.45326131E-03
 -9.75392904E-03  9.85411335E-04
Number of contracted shells                I               36
Number of primitive shells                 I               90
Pure/Cartesian d shells                    I                1
Pure/Cartesian f shells                    I                0
Highest angular momentum                   I                2
Largest degree of contraction              I                6
Shell types                                I   N=          36
           0          -1          -1           2           0          -1
          -1           2           0          -1          -1           2
           0          -1          -1           2           0          -1
          -1           2           0          -1          -1           2
           0           0           0           0           0           0
           0           0           0           0           0           0
Number of primitives per shell             I   N=          36
           6           3           1           1           6           3
           1           1           6           3           1           1
           6           3           1           1           6           3
           1           1           6           3           1           1
           3           1           3           1           3           1
           3           1           3           1           3           1
Shell to atom map                          I   N=          36
           1           1           1           1           2           2
           2           2           3           3           3           3
           4           4           4           4           5           5
           5           5           6           6           6           6
           7           7           8           8           9           9
          10          10          11          11          12          12
Primitive exponents                        R   N=          90
  3.04752488E+03  4.57369518E+02  1.03948685E+02  2.92101553E+01  9.28666296E+00
  3.16392696E+00  7.86827235E+00  1.88128854E+00  5.44249258E-01  1.68714478E-01
  8.00000000E-01  3.04752488E+03  4.57369518E+02  1.03948685E+02  2.92101553E+01
  9.28666296E+00  3.16392696E+00  7.86827235E+00  1.88128854E+00  5.44249258E-01
  1.68714478E-01  8.00000000E-01  3.04752488E+03  4.57369518E+02  1.03948685E+02
  2.92101553E+01  9.28666296E+00  3.16392696E+00  7.86827235E+00  1.88128854E+00
  5.44249258E-01  1.68714478E-01  8.00000000E-01  3.04752488E+03  4.57369518E+02
  1.03948685E+02  2.92101553E+01  9.28666296E+00  3.16392696E+00  7.86827235E+00
  1.88128854E+00  5.44249258E-01  1.68714478E-01  8.00000000E-01  3.04752488E+03
  4.57369518E+02  1.03948685E+02  2.92101553E+01  9.28666296E+00  3.16392696E+00
  7.86827235E+00  1.88128854E+00  5.44249258E-01  1.68714478E-01  8.00000000E-01
  3.04752488E+03  4.57369518E+02  1.03948685E+02  2.92101553E+01  9.28666296E+00
  3.16392696E+00  7.86827235E+00  1.88128854E+00  5.44249258E-01  1.68714478E-01
  8.00000000E-01  1.87311370E+01  2.82539436E+00  6.40121692E-01  1.61277759E-01
  1.87311370E+01  2.82539436E+00  6.40121692E-01  1.61277759E-01  1.87311370E+01
  2.82539436E+00  6.40121692E-01  1.61277759E-01  1.87311370E+01  2.82539436E+00
  6.40121692E-01  1.61277759E-01  1.87311370E+01  2.82539436E+00  6.40121692E-01
  1.61277759E-01  1.87311370E+01  2.82539436E+00  6.40121692E-01  1.61277759E-01
Contraction coefficients                   R   N=          90
  1.83473713E-03  1.40373228E-02  6.88426223E-02  2.32184443E-01  4.67941348E-01
  3.62311985E-01 -1.19332420E-01 -1.60854152E-01  1.14345644E+00  1.00000000E+00
  1.00000000E+00  1.83473713E-03  1.40373228E-02  6.88426223E-02  2.32184443E-01
  4.67941348E-01  3.62311985E-01 -1.19332420E-01 -1.60854152E-01  1.14345644E+00
  1.00000000E+00  1.00000000E+00  1.83473713E-03  1.40373228E-02  6.88426223E-02
  2.32184443E-01  4.67941348E-01  3.62311985E-01 -1.19332420E-01 -1.60854152E-01
  1.14345644E+00  1.00000000E+00  1.00000000E+00  1.83473713E-03  1.40373228E-02
  6.88426223E-02  2.32184443E-01  4.67941348E-01  3.62311985E-01 -1.19332420E-01
 -1.60854152E-01  1.14345644E+00  1.00000000E+00  1.00000000E+00  1.83473713E-03
  1.40373228E-02  6.88426223E-02  2.32184443E-01  4.67941348E-01  3.62311985E-01
 -1.19332420E-01 -1.60854152E-01  1.14345644E+00  1.00000000E+00  1.00000000E+00
  1.83473713E-03  1.40373228E-02  6.88426223E-02  2.32184443E-01  4.67941348E-01
  3.62311985E-01 -1.19332420E-01 -1.60854152E-01  1.14345644E+00  1.00000000E+00
  1.00000000E+00  3.34946043E-02  2.34726953E-01  8.13757326E-01  1.00000000E+00
  3.34946043E-02  2.34726953E-01  8.13757326E-01  1.00000000E+00  3.34946043E-02
  2.34726953E-01  8.13757326E-01  1.00000000E+00  3.34946043E-02  2.34726953E-01
  8.13757326E-01  1.00000000E+00  3.34946043E-02  2.34726953E-01  8.13757326E-01
  1.00000000E+00  3.34946043E-02  2.34726953E-01  8.13757326E-01  1.00000000E+00
P(S=P) Contraction coefficients            R   N=          90
  0.00000000E+00  0.00000000E+00  0.00000000E+00  0.00000000E+00  0.00000000E+00
  0.00000000E+00  6.89990666E-02  3.16423961E-01  7.44308291E-01  1.00000000E+00
  0.00000000E+00  0.00000000E+00  0.00000000E+00  0.00000000E+00  0.00000000E+00
  0.00000000E+00  0.00000000E+00  6.89990666E-02  3.16423961E-01  7.44308291E-01
  1.00000000E+00  0.00000000E+00  0.00000000E+00  0.00000000E+00  0.00000000E+00
  0.00000000E+00  0.00000000E+00  0.00000000E+00  6.89990666E-02  3.16423961E-01
  7.44308291E-01  1.00000000E+00  0.00000000E+00  0.00000000E+00  0.00000000E+00
  0.00000000E+00  0.00000000E+00  0.00000000E+00  0.00000000E+00  6.89990666E-02
  3.16423961E-01  7.44308291E-01  1.00000000E+00  0.00000000E+00  0.00000000E+00
  0.00000000E+00  0.00000000E+00  0.00000000E+00  0.00000000E+00  0.00000000E+00
  6.89990666E-02  3.16423961E-01  7.44308291E-01  1.00000000E+00  0.00000000E+00
  0.00000000E+00  0.00000000E+00  0.00000000E+00  0.00000000E+00  0.00000000E+00
  0.00000000E+00  6.89990666E-02  3.16423961E-01  7.44308291E-01  1.00000000E+00
  0.00000000E+00  0.00000000E+00  0.00000000E+00  0.00000000E+00  0.00000000E+00
  0.00000000E+00  0.00000000E+00  0.00000000E+00  0.00000000E+00  0.00000000E+00
  0.00000000E+00  0.00000000E+00  0.00000000E+00  0.00000000E+00  0.00000000E+00
  0.00000000E+00  0.00000000E+00  0.00000000E+00  0.00000000E+00  0.00000000E+00
  0.00000000E+00  0.00000000E+00  0.00000000E+00  0.00000000E+00  0.00000000E+00
Coordinates of each shell                  R   N=         108
  2.12992092E+00 -1.55854761E+00  7.08414964E-07  2.12992092E+00 -1.55854761E+00
  7.08414964E-07  2.12992092E+00 -1.55854761E+00  7.08414964E-07  2.12992092E+00
 -1.55854761E+00  7.08414964E-07 -2.84791496E-01 -2.62383089E+00 -2.34042227E-06
 -2.84791496E-01 -2.62383089E+00 -2.34042227E-06 -2.84791496E-01 -2.62383089E+00
 -2.34042227E-06 -2.84791496E-01 -2.62383089E+00 -2.34042227E-06 -2.41470350E+00
 -1.06528336E+00  1.04204473E-06 -2.41470350E+00 -1.06528336E+00  1.04204473E-06
 -2.41470350E+00 -1.06528336E+00  1.04204473E-06 -2.41470350E+00 -1.06528336E+00
  1.04204473E-06 -2.12991869E+00  1.55855088E+00 -1.16854596E-07 -2.12991869E+00
  1.55855088E+00 -1.16854596E-07 -2.12991869E+00  1.55855088E+00 -1.16854596E-07
 -2.12991869E+00  1.55855088E+00 -1.16854596E-07  2.84787820E-01  2.62383102E+00
 -1.55389011E-06  2.84787820E-01  2.62383102E+00 -1.55389011E-06  2.84787820E-01
  2.62383102E+00 -1.55389011E-06  2.84787820E-01  2.62383102E+00 -1.55389011E-06
  2.41470496E+00  1.06528050E+00  1.30748315E-06  2.41470496E+00  1.06528050E+00
  1.30748315E-06  2.41470496E+00  1.06528050E+00  1.30748315E-06  2.41470496E+00
  1.06528050E+00  1.30748315E-06  3.78763297E+00 -2.77157634E+00  5.85326626E-08
  3.78763297E+00 -2.77157634E+00  5.85326626E-08 -5.06450397E-01 -4.66596640E+00
 -3.22997391E-06 -5.06450397E-01 -4.66596640E+00 -3.22997391E-06 -4.29407589E+00
 -1.89438540E+00  6.48024819E-06 -4.29407589E+00 -1.89438540E+00  6.48024819E-06
 -3.78763738E+00  2.77157046E+00  2.70961903E-06 -3.78763738E+00  2.77157046E+00
  2.70961903E-06  5.06456070E-01  4.66596577E+00 -5.75036086E-06  5.06456070E-01
  4.66596577E+00 -5.75036086E-06  4.29407451E+00  1.89438867E+00  5.45127969E-06
  4.29407451E+00  1.89438867E+00  5.45127969E-06
Num ILSW                                   I              100
ILSW                                       I   N=         100
           0           1           0           0           2           0
           0           0           0           0         402          -1
           5           0           0           0           2           0
           0           0           0           0           1           0
           1           0           0           0           0           0
           0           0      100000           0          -1           0
           0           0           0           0           0           0
           0           0           0           1           0           0
           0 -2000000000           1           0           0           0
           0           0           4          52           0           0
           0           0           5           0           0           0
           0           0           0          12           0           1
           0           0           0           0           0           0
           0           0           0           0           0           0
           0           0           0           0           0           0
           0           0           0           0           0           0
           0           0           0           0
Num RLSW                                   I               52
RLSW                                       R   N=          52
  8.00000000E-01  7.20000000E-01  1.00000000E+00  8.10000000E-01  2.00000000E-01
  0.00000000E+00  0.00000000E+00  1.00000000E+00  0.00000000E+00  0.00000000E+00
  0.00000000E+00  0.00000000E+00  1.00000000E+00  0.00000000E+00  0.00000000E+00
  0.00000000E+00  0.00000000E+00  1.00000000E+00  0.00000000E+00  0.00000000E+00
  0.00000000E+00  0.00000000E+00  1.00000000E+00  0.00000000E+00  0.00000000E+00
  0.00000000E+00  0.00000000E+00  1.00000000E+00  0.00000000E+00  0.00000000E+00
  0.00000000E+00  0.00000000E+00  1.00000000E+00  0.00000000E+00  0.00000000E+00
  0.00000000E+00  0.00000000E+00  0.00000000E+00  1.00000000E+00  1.00000000E+00
  0.00000000E+00  1.00000000E+00  0.00000000E+00  0.00000000E+00  0.00000000E+00
  0.00000000E+00  0.00000000E+00  0.00000000E+00  0.00000000E+00  0.00000000E+00
  0.00000000E+00  0.00000000E+00
MxBond                                     I                3
NBond                                      I   N=          12
           3           3           3           3           3           3
           1           1           1           1           1           1
IBond                                      I   N=          36
           2           6           7           1           3           8
           2           4           9           3           5          10
           4           6          11           1           5          12
           1           0           0           2           0           0
           3           0           0           4           0           0
           5           0           0           6           0           0
RBond                                      R   N=          36
  1.50000000E+00  1.50000000E+00  1.00000000E+00  1.50000000E+00  1.50000000E+00
  1.00000000E+00  1.50000000E+00  1.50000000E+00  1.00000000E+00  1.50000000E+00
  1.50000000E+00  1.00000000E+00  1.50000000E+00  1.50000000E+00  1.00000000E+00
  1.50000000E+00  1.50000000E+00  1.00000000E+00  1.00000000E+00  0.00000000E+00
  0.00000000E+00  1.00000000E+00  0.00000000E+00  0.00000000E+00  1.00000000E+00
  0.00000000E+00  0.00000000E+00  1.00000000E+00  0.00000000E+00  0.00000000E+00
  1.00000000E+00  0.00000000E+00  0.00000000E+00  1.00000000E+00  0.00000000E+00
  0.00000000E+00
Virial Ratio                               R      2.010102547668302E+00
SCF Energy                                 R     -2.322486506068443E+02
Total Energy                               R     -2.322486506068443E+02
RMS Force                                  R      7.471557036892445E-06
RMS Density                                R      9.212087380875256E-09
NImag                                      I                0
Job Status                                 I                1
Nuclear derivative order                   I                2
Thermal Energy                             R     -2.321435332804523E+02
Thermal Enthalpy                           R     -2.321425890956387E+02
Thermal Free Energy                        R     -2.321753815603030E+02
External E-field                           R   N=          35
  0.00000000E+00  0.00000000E+00  0.00000000E+00  0.00000000E+00  0.00000000E+00
  0.00000000E+00  0.00000000E+00  0.00000000E+00  0.00000000E+00  0.00000000E+00
  0.00000000E+00  0.00000000E+00  0.00000000E+00  0.00000000E+00  0.00000000E+00
  0.00000000E+00  0.00000000E+00  0.00000000E+00  0.00000000E+00  0.00000000E+00
  0.00000000E+00  0.00000000E+00  0.00000000E+00  0.00000000E+00  0.00000000E+00
  0.00000000E+00  0.00000000E+00  0.00000000E+00  0.00000000E+00  0.00000000E+00
  0.00000000E+00  0.00000000E+00  0.00000000E+00  0.00000000E+00  0.00000000E+00
IOpCl                                      I                0
IROHF                                      I                0
Alpha Orbital Energies                     R   N=         102
 -1.01877402E+01 -1.01874755E+01 -1.01874754E+01 -1.01869234E+01 -1.01869232E+01
 -1.01866578E+01 -8.46320202E-01 -7.39830324E-01 -7.39828513E-01 -5.97491531E-01
 -5.97490192E-01 -5.18552236E-01 -4.59294831E-01 -4.38101971E-01 -4.17258066E-01
 -4.17256095E-01 -3.59393233E-01 -3.40272863E-01 -3.40271963E-01 -2.46292035E-01
 -2.46290747E-01  3.61648703E-03  3.61761332E-03  9.07463094E-02  1.44692180E-01
  1.44693231E-01  1.63939389E-01  1.81852870E-01  1.81853996E-01  1.90263412E-01
  3.02657622E-01  3.02658503E-01  3.19136028E-01  3.19136668E-01  4.74884351E-01
  5.27355428E-01  5.49032471E-01  5.50289471E-01  5.63962934E-01  5.92512682E-01
  6.02014794E-01  6.02016172E-01  6.02060948E-01  6.02063164E-01  6.26788984E-01
  6.26790502E-01  6.67536902E-01  6.67537224E-01  7.44866719E-01  8.40013055E-01
  8.40013854E-01  8.41104708E-01  8.65019585E-01  8.65020967E-01  9.39034959E-01
  9.39036519E-01  9.40631368E-01  9.57979766E-01  1.08260696E+00  1.08260923E+00
  1.14238058E+00  1.14238567E+00  1.20099725E+00  1.26189146E+00  1.39628576E+00
  1.43637923E+00  1.43638138E+00  1.48697125E+00  1.48697237E+00  1.51542192E+00
  1.51542370E+00  1.75689078E+00  1.78986179E+00  1.85729239E+00  1.89560185E+00
  1.97354509E+00  1.97354852E+00  2.06599127E+00  2.06599348E+00  2.15163144E+00
  2.15163623E+00  2.15440248E+00  2.15440541E+00  2.30947459E+00  2.30947898E+00
  2.32162237E+00  2.54574396E+00  2.54574564E+00  2.65688864E+00  2.70539665E+00
  2.70539769E+00  2.72191119E+00  2.72191338E+00  2.76006151E+00  3.01696394E+00
  3.41015485E+00  4.08518741E+00  4.11773716E+00  4.11773947E+00  4.33034012E+00
  4.33034139E+00  4.66588532E+00
Alpha MO coefficients                      R   N=       10404
  4.05319761E-01  1.97678602E-02  1.03601555E-04 -7.56354525E-05 -3.89465405E-10
 -2.55715023E-03 -2.90602705E-04  2.11734179E-04  1.75278832E-09 -3.97127691E-03
 -3.99969739E-03 -4.06847046E-03 -5.18097905E-05 -2.78772312E-10  2.96491295E-11
  4.05497374E-01  1.97767219E-02 -1.38743531E-05 -1.27471627E-04  3.03519543E-10
 -2.55969112E-03  3.89549193E-05  3.57092367E-04 -1.80581840E-09 -4.03309728E-03
 -3.94118564E-03 -4.07017809E-03  1.16478575E-05 -4.42959988E-11 -8.67588094E-11
  4.05199548E-01  1.97619076E-02 -1.17435791E-04 -5.16069521E-05  6.69599190E-11
 -2.55601089E-03  3.29392863E-04  1.44261127E-04  4.21079935E-10 -3.95261629E-03
 -4.01602031E-03 -4.06730102E-03  4.01545840E-05 -8.13984654E-11 -1.47914164E-10
  4.04875468E-01  1.97458129E-02 -1.03485417E-04  7.58460841E-05  2.80550960E-10
 -2.55243177E-03  2.90171634E-04 -2.12949089E-04 -1.26691304E-09 -3.96695889E-03
 -3.99544029E-03 -4.06414893E-03 -5.17845210E-05 -1.22505915E-10  1.76691994E-10
  4.04883854E-01  1.97463005E-02  1.38008328E-05  1.27515552E-04 -3.51819706E-10
 -2.55358576E-03 -3.85859343E-05 -3.57437594E-04  1.17142057E-09 -4.02714178E-03
 -3.93527422E-03 -4.06420245E-03  1.16596123E-05 -7.54245824E-11 -3.39729137E-10
  4.05017120E-01  1.97528492E-02  1.17319845E-04  5.19049128E-05  3.21113823E-10
 -2.55397224E-03 -3.28912261E-04 -1.45853090E-04 -1.36184011E-09 -3.95083450E-03
 -4.01428753E-03 -4.06552862E-03  4.01225271E-05  2.70872053E-10  2.34076883E-10
 -1.92446840E-04  9.06501524E-04 -1.92515794E-04  9.06766795E-04 -1.92393319E-04
  9.06300812E-04 -1.92254573E-04  9.05799322E-04 -1.92253502E-04  9.05757017E-04
 -1.92313582E-04  9.06022442E-04 -2.49374645E-01 -1.23702024E-02 -1.46371222E-04
 -2.26891448E-04  3.17840438E-10  2.55082403E-03  6.94649082E-04  1.21716067E-03
 -1.50204397E-09  2.44065767E-03  2.37903751E-03  2.42781685E-03  2.00326106E-05
  3.90043763E-10 -3.06517611E-11 -5.71490073E-01 -2.83489305E-02 -2.55759201E-05
 -3.38490332E-05 -4.70148965E-10  5.85224364E-03  1.51289561E-04  3.51421648E-04
  3.33763996E-09  5.53784144E-03  5.50687746E-03  5.56373047E-03 -7.22539803E-06
  1.15087795E-11 -7.28295967E-12 -3.21566625E-01 -1.59512433E-02  8.13063333E-05
 -2.34925584E-04  9.77385216E-11  3.28941262E-03 -3.29884313E-04  1.25342185E-03
 -1.26755733E-09  3.12470222E-03  3.09025404E-03  3.13066316E-03 -3.26969835E-05
 -1.27541327E-11  3.24977705E-10  2.49883062E-01  1.23951244E-02 -1.46408276E-04
 -2.26770887E-04 -8.60512086E-11 -2.55512623E-03  6.94401199E-04  1.21675696E-03
  5.58677299E-10 -2.44554289E-03 -2.38401254E-03 -2.43287733E-03 -2.00543010E-05
  1.90004302E-11 -9.55603053E-12  5.71716395E-01  2.83596458E-02 -2.55613800E-05
 -3.36248627E-05 -2.46055567E-10 -5.85090967E-03  1.51215446E-04  3.50200246E-04
 -1.10879442E-09 -5.54032437E-03 -5.50918846E-03 -5.56611122E-03  7.25920369E-06
 -9.37948711E-11 -4.09300928E-10  3.22115627E-01  1.59782196E-02  8.13533047E-05
 -2.34833557E-04  8.69407699E-11 -3.29454148E-03 -3.29606377E-04  1.25309189E-03
  8.89255990E-10 -3.12996135E-03 -3.09558944E-03 -3.13610957E-03  3.26990936E-05
  1.57316951E-11  1.17491258E-10  1.07083261E-04 -4.03578367E-04  2.45450976E-04
 -9.24380350E-04  1.38089434E-04 -5.20398249E-04 -1.07316654E-04  4.04626939E-04
 -2.45578035E-04  9.25103917E-04 -1.38338199E-04  5.21497088E-04  5.15865740E-01
  2.55894845E-02 -1.03488008E-04 -8.58925553E-05 -3.56320651E-10 -5.28054238E-03
  6.63452640E-04  3.49431897E-04  1.25856776E-09 -4.96447224E-03 -5.00537317E-03
 -5.02227359E-03 -1.05332968E-05 -4.98213146E-12  2.65832050E-11  4.16030970E-02
  2.06376319E-03 -2.96633862E-04  3.48731324E-05 -8.44341804E-11 -4.26006504E-04
  1.53106679E-03 -1.92955949E-04 -1.08646110E-10 -4.11429313E-04 -3.92623387E-04
 -4.05016433E-04 -4.29568613E-05 -3.51195828E-10 -3.53629088E-12 -4.74297746E-01
 -2.35274141E-02 -9.54108156E-05  1.41684688E-04 -5.03328910E-11  4.85473843E-03
  6.27331895E-04 -6.72598442E-04 -5.69772846E-10  4.55809877E-03  4.60843252E-03
  4.61762356E-03  5.11642736E-06  5.44298388E-10  6.21679923E-11 -5.15785394E-01
 -2.55852169E-02 -1.03391554E-04 -8.59981434E-05 -3.36684525E-10  5.27704273E-03
  6.62717861E-04  3.50188368E-04  8.24239270E-10  4.96383247E-03  5.00480560E-03
  5.02158507E-03  1.05942513E-05  2.58339686E-10 -1.87385481E-10 -4.17899995E-02
 -2.07295174E-03 -2.96545948E-04  3.48395866E-05  3.99923217E-11  4.27842461E-04
  1.53049160E-03 -1.92980228E-04  5.86913615E-12  4.13219632E-04  3.94423786E-04
  4.06866388E-04  4.29084321E-05 -1.37558642E-10  1.42931907E-10  4.73989186E-01
  2.35120882E-02 -9.54055992E-05  1.41754182E-04  3.16359908E-10 -4.85045643E-03
  6.26955093E-04 -6.73193704E-04  1.47840332E-11 -4.55517900E-03 -4.60557117E-03
 -4.61461764E-03 -5.12033230E-06  4.17509341E-10  1.58970092E-10 -2.21550514E-04
  8.34657942E-04 -1.78682294E-05  6.72700309E-05  2.03707078E-04 -7.67454848E-04
  2.21533859E-04 -8.34715439E-04  1.79521438E-05 -6.76336399E-05 -2.03577333E-04
  7.66947582E-04 -2.86027877E-01 -1.44127677E-02  2.21942440E-04  8.75106810E-05
  8.20650307E-10  5.73184043E-03 -1.71460262E-03 -3.10372684E-04 -2.31161454E-09
  2.50062100E-03  2.64012988E-03  2.71786789E-03 -9.57558381E-05 -9.57544611E-11
 -5.28101897E-10  5.73371293E-01  2.88917936E-02  2.71326331E-05  2.54114881E-04
  1.12907458E-09 -1.14865924E-02 -2.56659908E-04 -2.39012215E-03 -5.52363603E-09
 -5.03903058E-03 -5.26593539E-03 -5.44825353E-03 -2.90084875E-05 -2.31689424E-11
  5.75556529E-11 -2.87883484E-01 -1.45062402E-02 -1.98578804E-04  1.32395865E-04
  6.16564411E-10  5.76850886E-03  1.61400830E-03 -6.65622581E-04 -2.16112611E-09
  2.55889649E-03  2.61528207E-03  2.73551633E-03  1.20861427E-04  4.33175740E-10
 -5.49484720E-10 -2.85545913E-01 -1.43878535E-02 -2.21770412E-04 -8.77705366E-05
  3.04589166E-10  5.70948671E-03  1.70755574E-03  3.16211833E-04 -9.85546898E-10
  2.49644210E-03  2.63604756E-03  2.71351511E-03 -9.56404292E-05 -3.21461196E-11
  2.44951678E-10  5.73131573E-01  2.88788925E-02 -2.71399964E-05 -2.53833852E-04
  3.21680566E-10 -1.14666973E-02  2.55868387E-04  2.38116759E-03 -3.19724215E-09
 -5.03735225E-03 -5.26403448E-03 -5.44625911E-03 -2.89702044E-05  9.51379789E-11
 -3.92755805E-10 -2.87293044E-01 -1.44759331E-02  1.98329641E-04 -1.32582476E-04
  4.07944042E-10  5.74500298E-03 -1.60572494E-03  6.69682650E-04 -2.05057067E-09
  2.55363978E-03  2.61017818E-03  2.73010597E-03  1.20777394E-04 -2.01330718E-10
  3.94619339E-10  1.07760088E-04 -3.29655422E-04 -2.15910614E-04  6.61388907E-04
  1.08463008E-04 -3.31815022E-04  1.07406724E-04 -3.30593580E-04 -2.15660218E-04
  6.62721787E-04  1.08061665E-04 -3.32583448E-04  4.96958430E-01  2.50411622E-02
 -1.10201023E-04  2.24397144E-04 -3.44530635E-10 -9.95137813E-03  1.25052151E-03
 -1.81518855E-03  1.23883064E-09 -4.54656901E-03 -4.38525213E-03 -4.72226230E-03
  9.24288921E-05  1.71321607E-10  5.27258172E-11 -1.10911280E-03 -5.59545259E-05
 -2.31345993E-04  2.46064207E-05  6.26805297E-11  2.36787945E-05  1.44898481E-03
 -1.51741799E-04 -3.45877987E-10 -1.29353223E-05  3.28309410E-05  1.05115752E-05
 -1.19079201E-04 -8.06811221E-10 -9.73529135E-11 -4.95821263E-01 -2.49836997E-02
 -1.54993687E-04 -1.95994342E-04  3.69445612E-10  9.92528731E-03  1.60292934E-03
  1.50622314E-03 -1.97252644E-09  4.56261771E-03  4.34889131E-03  4.71151773E-03
  4.44298296E-05  5.95086966E-10  4.02774624E-10  4.97062660E-01  2.50460817E-02
  1.10179038E-04 -2.24326447E-04  3.06698170E-10 -9.94812940E-03 -1.24894011E-03
  1.81376273E-03 -7.64048161E-10 -4.54768761E-03 -4.38640816E-03 -4.72336092E-03
  9.23958441E-05 -4.97375578E-10  1.19555198E-10 -9.61902292E-04 -4.84085519E-05
  2.31453910E-04 -2.46906852E-05  1.91170888E-10  1.78915923E-05 -1.44933795E-03
  1.54060433E-04 -5.05901085E-10 -1.42043003E-05  3.15156450E-05  9.16262609E-06
 -1.19102548E-04  5.05231080E-10 -1.18584724E-12 -4.96102004E-01 -2.49978804E-02
  1.55099243E-04  1.95963718E-04  1.52393970E-12  9.93247844E-03 -1.60524590E-03
 -1.50682729E-03 -1.79460260E-09  4.56521159E-03  4.35146520E-03  4.71416818E-03
  4.44532788E-05 -4.07870315E-10 -1.66315689E-10 -1.87087483E-04  5.73754665E-04
  4.39423514E-07 -1.09332956E-06  1.86614920E-04 -5.72822266E-04 -1.87095346E-04
  5.74350143E-04  3.40694134E-07 -1.27675090E-06  1.86772173E-04 -5.72850220E-04
 -4.05370227E-01 -2.10484191E-02  2.18308009E-04 -1.59904226E-04  5.64393607E-10
  2.03292505E-02 -6.82401272E-03  4.99438989E-03 -5.69868837E-09  3.46080207E-03
  3.39880678E-03  3.63275070E-03 -1.12576429E-04  1.89363358E-10 -9.53842964E-10
  4.05189127E-01  2.10393485E-02  2.91608331E-05  2.68985157E-04  5.74887267E-10
 -2.03264817E-02 -9.12237188E-04 -8.40659446E-03 -1.22779594E-08 -3.32821073E-03
 -3.52801379E-03 -3.63100634E-03 -2.53573226E-05 -3.53223387E-10 -9.69464951E-10
 -4.05497451E-01 -2.10548413E-02 -2.47578519E-04 -1.09387946E-04  8.89814602E-10
  2.03318727E-02  7.73709718E-03  3.41434031E-03 -1.24531502E-08  3.49997793E-03
  3.36191502E-03  3.63396223E-03  8.72269938E-05  1.61250779E-10 -4.47604553E-10
  4.05815123E-01  2.10708325E-02  2.18578653E-04 -1.59865091E-04  6.54935120E-11
 -2.03381039E-02 -6.82623042E-03  4.99448369E-03  2.32573308E-09 -3.46474874E-03
 -3.40286522E-03 -3.63698101E-03  1.12704331E-04 -8.70003520E-10 -2.54726426E-10
 -4.05803201E-01 -2.10703011E-02  2.92567032E-05  2.69253838E-04  6.41180489E-11
  2.03388534E-02 -9.12962194E-04 -8.40912708E-03  8.89464534E-09  3.33359698E-03
  3.53365842E-03  3.63683986E-03  2.53548921E-05 -1.56775407E-10  2.53500101E-10
  4.05680098E-01  2.10640392E-02 -2.47748178E-04 -1.09197416E-04  1.76110652E-12
 -2.03354724E-02  7.73838297E-03  3.41327459E-03  8.70660366E-09 -3.50156540E-03
 -3.36361851E-03 -3.63570027E-03 -8.73437011E-05  5.19250976E-10 -2.87903935E-10
  3.10818773E-04  9.41934590E-04 -3.10743279E-04 -9.42167760E-04  3.10865911E-04
  9.41788247E-04 -3.10986871E-04 -9.41417743E-04  3.10973730E-04  9.41462658E-04
 -3.10935317E-04 -9.41574168E-04 -9.40804848E-02  1.79691995E-01 -4.87547614E-02
  3.56774886E-02 -5.56243641E-08  1.14015700E-01 -5.74556352E-03  4.20452219E-03
 -1.37686091E-08  3.02646160E-03  3.02840645E-03 -1.07146666E-02  3.24310656E-06
  1.10381384E-08  5.84185002E-09 -9.40802556E-02  1.79691963E-01  6.51811214E-03
  6.00613484E-02  1.34801729E-07  1.14013966E-01  7.68020584E-04  7.07684971E-03
  2.23742606E-08  3.03032133E-03  3.02415419E-03 -1.07146540E-02 -8.35895411E-07
  6.62970661E-10  1.96886525E-08 -9.40807769E-02  1.79693002E-01  5.52743154E-02
  2.43852782E-02 -5.80055073E-08  1.14013573E-01  6.51188442E-03  2.87263052E-03
 -3.22401628E-09  3.02523407E-03  3.02930835E-03 -1.07146695E-02 -2.68585700E-06
 -2.68201890E-08 -4.27276401E-09 -9.40803834E-02  1.79691780E-01  4.87550207E-02
 -3.56771077E-02  1.30736229E-08  1.14015479E-01  5.74547990E-03 -4.20456959E-03
  8.18954752E-09  3.02649018E-03  3.02837307E-03 -1.07146535E-02  3.25084387E-06
 -1.17462207E-08 -1.91631808E-09 -9.40801281E-02  1.79691680E-01 -6.51862886E-03
 -6.00612644E-02  6.83683016E-08  1.14013815E-01 -7.67951284E-04 -7.07690031E-03
  1.08989777E-09  3.03032523E-03  3.02414574E-03 -1.07146397E-02 -8.02953924E-07
  1.89105184E-09 -2.25795571E-08 -9.40807406E-02  1.79692927E-01 -5.52740371E-02
 -2.43859074E-02 -5.30390736E-08  1.14013453E-01 -6.51186541E-03 -2.87257622E-03
 -2.23247624E-10  3.02521010E-03  3.02932934E-03 -1.07146641E-02 -2.65846776E-06
  2.20054105E-08  2.03795891E-09  3.55649817E-02  4.15364493E-03  3.55649262E-02
  4.15314968E-03  3.55650887E-02  4.15278105E-03  3.55649242E-02  4.15362571E-03
  3.55648447E-02  4.15315142E-03  3.55650699E-02  4.15276633E-03  9.94221114E-02
 -1.96276898E-01 -3.08189209E-02 -6.99246331E-02  1.74547269E-08 -1.46752865E-01
 -1.30340233E-02 -5.07524636E-03  9.53223413E-09  4.44086779E-03 -7.31812378E-03
  9.68186169E-03  1.53173340E-03 -2.24811515E-09 -5.91443564E-09 -2.38516159E-02
  4.70876716E-02 -1.11877207E-01  1.61056015E-02  4.18081251E-08  3.52059542E-02
 -1.79405222E-02  1.31153348E-04 -6.58420981E-10 -1.48454033E-03  2.17481037E-03
 -2.32260892E-03 -1.02821572E-02 -2.23875886E-08  6.09648789E-09 -1.23272876E-01
  2.43362743E-01  3.15540926E-03  4.32897107E-02 -1.42499839E-08  1.81957717E-01
 -1.09780578E-02  1.77737427E-03  2.46913961E-08 -9.24454447E-04  4.49199245E-03
 -1.20044037E-02  1.85701483E-03 -3.73584231E-08 -1.15455557E-08 -9.94216110E-02
  1.96275825E-01 -3.08184334E-02 -6.99236994E-02  6.55645886E-08  1.46752259E-01
 -1.30337591E-02 -5.07550391E-03  1.51829512E-08 -4.44072433E-03  7.31808018E-03
 -9.68182232E-03 -1.53169870E-03 -1.46691912E-08 -3.86852348E-10  2.38508972E-02
 -4.70861606E-02 -1.11876887E-01  1.61052840E-02 -3.40675217E-08 -3.52051194E-02
 -1.79404302E-02  1.31674327E-04 -3.76219993E-10  1.48446144E-03 -2.17487483E-03
  2.32255392E-03  1.02821247E-02 -1.44456738E-08  9.80327078E-09  1.23273068E-01
 -2.43363135E-01  3.15492476E-03  4.32910686E-02  8.30123692E-09 -1.81957912E-01
 -1.09781995E-02  1.77728427E-03 -1.91899461E-08  9.24547659E-04 -4.49203985E-03
  1.20044166E-02 -1.85708915E-03 -2.84478807E-08 -7.19505694E-09 -5.95181697E-02
 -1.09396382E-02  1.42786977E-02  2.62394987E-03  7.37964689E-02  1.35637248E-02
  5.95180306E-02  1.09397860E-02 -1.42785025E-02 -2.62417667E-03 -7.37965118E-02
 -1.35636414E-02 -8.49417504E-02  1.67690087E-01 -6.29036220E-02 -6.22079840E-02
 -9.91269945E-08  1.25379845E-01 -2.96547760E-03 -1.49339404E-02 -1.63159730E-08
  7.79557606E-03 -5.33732627E-03 -8.27173386E-03  2.93935833E-03  1.31838830E-08
  9.80921345E-09 -1.28572718E-01  2.53825897E-01  2.31226823E-02  1.88494639E-02
  1.58395354E-07  1.89781070E-01  2.24208572E-03 -1.00284245E-02  2.23528513E-08
  2.87215990E-03  8.48728626E-04 -1.25204622E-02  1.73685484E-03  4.12221016E-09
  1.75027680E-08 -4.36308346E-02  8.61353748E-02  5.03089922E-02 -9.61834263E-02
 -4.54423389E-08  6.44016291E-02  3.88698796E-03 -1.69911559E-02  5.63631349E-09
  6.91597378E-03 -5.65332911E-03 -4.24871216E-03 -6.97694923E-03 -2.10293311E-08
  6.73825602E-09  8.49423951E-02 -1.67691396E-01 -6.29043426E-02 -6.22083297E-02
  1.07814581E-08 -1.25380554E-01 -2.96511772E-03 -1.49340795E-02 -1.49627799E-08
 -7.79559427E-03  5.33745044E-03  8.27178400E-03 -2.93938042E-03  1.52532976E-08
 -2.65252655E-09  1.28572870E-01 -2.53826158E-01  2.31239975E-02  1.88495321E-02
 -4.14004037E-08 -1.89781189E-01  2.24199613E-03 -1.00284511E-02  1.59870987E-08
 -2.87217882E-03 -8.48691719E-04  1.25204731E-02 -1.73697688E-03  5.72855306E-10
  3.24147706E-08  4.36303598E-02 -8.61343481E-02  5.03086329E-02 -9.61829406E-02
  4.38538422E-08 -6.44011063E-02  3.88745238E-03 -1.69909306E-02 -3.38637303E-09
 -6.91601931E-03  5.65323798E-03  4.24868051E-03  6.97691261E-03 -1.76042548E-08
  7.49207429E-09  5.08502539E-02  9.34682909E-03  7.69696389E-02  1.41470869E-02
  2.61192262E-02  4.80030402E-03 -5.08503748E-02 -9.34664463E-03 -7.69695974E-02
 -1.41470313E-02 -2.61191026E-02 -4.80053298E-03  8.36288633E-02 -1.73050760E-01
 -1.16517614E-01 -6.14568289E-02 -6.47602061E-08 -1.31195991E-01 -5.61726706E-02
  2.49027836E-03 -3.49152838E-08  4.73184985E-03 -1.45473338E-03  6.66528262E-03
  6.37467706E-03  1.11480833E-08 -4.56869441E-09 -9.31192181E-02  1.92689031E-01
 -9.19889478E-02 -5.46842700E-02  3.35820322E-08  1.46084530E-01 -2.80074942E-02
 -4.93800623E-02 -2.70109003E-08 -7.24524485E-03  3.59635722E-03 -7.42161927E-03
 -2.57015068E-03 -1.30540962E-08  3.53117118E-09  9.49041922E-03 -1.96382498E-02
  8.83192744E-02 -1.83958187E-01 -1.38834482E-07 -1.48882800E-02  2.65258802E-02
 -4.69677023E-02 -4.75272904E-08  5.73087308E-03 -5.35903470E-03  7.56412135E-04
 -6.61179359E-03 -9.83045326E-09  1.39755466E-08  8.36290118E-02 -1.73051039E-01
  1.16518423E-01  6.14571220E-02 -1.86552240E-07 -1.31196077E-01  5.61731733E-02
 -2.48966533E-03 -7.25149407E-08  4.73174391E-03 -1.45473237E-03  6.66529735E-03
  6.37468680E-03  1.23119203E-08 -5.18322060E-09 -9.31194130E-02  1.92689386E-01
  9.19895187E-02  5.46844125E-02 -1.01510162E-07  1.46084746E-01  2.80083150E-02
  4.93799647E-02 -6.96304773E-08 -7.24520474E-03  3.59639308E-03 -7.42163602E-03
 -2.57008935E-03  7.10182168E-09 -2.87542013E-08  9.48996761E-03 -1.96373109E-02
 -8.83185362E-02  1.83958464E-01 -1.40158000E-07 -1.48878488E-02 -2.65255740E-02
  4.69677160E-02 -4.57786476E-08  5.73098972E-03 -5.35901332E-03  7.56373682E-04
 -6.61175099E-03  1.06312956E-08 -1.26458084E-08 -9.31877151E-02 -3.11866652E-02
  1.03762678E-01  3.47255958E-02 -1.05762548E-02 -3.53982358E-03 -9.31883452E-02
 -3.11870461E-02  1.03763074E-01  3.47258417E-02 -1.05751885E-02 -3.53924381E-03
  5.92417980E-02 -1.22587257E-01  6.56966230E-02  1.59044172E-01  2.03379477E-07
 -9.29388256E-02 -7.77489111E-04  5.50798869E-02  5.35092811E-08 -5.98086950E-03
  8.30218014E-03  4.72161199E-03  1.09514473E-03 -1.32200701E-08 -7.14214859E-09
  4.28041766E-02 -8.85735062E-02 -1.81838672E-01  4.94628474E-02  4.45488451E-08
 -6.71506639E-02 -4.61121276E-02  2.91007834E-02  2.28970298E-08  1.44375714E-03
  2.33528329E-04  3.41150862E-03 -8.73616019E-03 -3.06877283E-08  5.27861636E-09
 -1.02045436E-01  2.11159666E-01 -5.68058782E-02 -4.57919695E-02  1.30333968E-07
  1.60088504E-01 -5.02362902E-02 -2.76182142E-02  1.06752015E-07  2.10595263E-03
 -6.10463634E-03 -8.13304412E-03  3.92593501E-03 -4.09688882E-08 -1.24389714E-08
  5.92416391E-02 -1.22586899E-01 -6.56970173E-02 -1.59043150E-01  9.02457907E-08
 -9.29387606E-02  7.77723716E-04 -5.50792687E-02  6.91562513E-09 -5.98083049E-03
  8.30227360E-03  4.72159383E-03  1.09507746E-03  1.76322833E-08 -1.22202090E-08
  4.28039618E-02 -8.85730293E-02  1.81838353E-01 -4.94618867E-02  1.31653520E-07
 -6.71505976E-02  4.61116665E-02 -2.91004828E-02  6.10708969E-08  1.44376921E-03
  2.33654776E-04  3.41148718E-03 -8.73617534E-03  1.82764407E-08  5.62161088E-09
 -1.02045486E-01  2.11159749E-01  5.68058208E-02  4.57921458E-02  1.35874822E-07
  1.60088578E-01  5.02359347E-02  2.76189652E-02  8.14807105E-08  2.10592384E-03
 -6.10458961E-03 -8.13304835E-03  3.92598094E-03  2.92316927E-08  7.24493972E-09
 -6.60137459E-02 -2.20931059E-02 -4.76964836E-02 -1.59625186E-02  1.13710213E-01
  3.80552065E-02 -6.60127654E-02 -2.20925227E-02 -4.76954676E-02 -1.59619378E-02
  1.13710297E-01  3.80552555E-02  8.55169032E-03 -1.79236748E-02 -1.60639386E-01
  1.17549251E-01 -5.62840028E-08 -3.08437947E-02 -5.50372323E-02  4.02736494E-02
 -1.63767688E-08 -1.42527431E-03 -2.37827532E-03  1.49966640E-04 -1.73364988E-03
  1.04777171E-08 -1.20240397E-08  8.55211925E-03 -1.79241225E-02  2.14783211E-02
  1.97892231E-01  8.51908099E-08 -3.08466848E-02  7.35841503E-03  6.77988674E-02
  1.30833411E-08 -3.44030604E-03 -3.63626322E-04  1.49984825E-04  3.90004220E-04
  7.16694173E-09  1.04718583E-08  8.55114893E-03 -1.79220677E-02  1.82118761E-01
  8.03447300E-02 -3.26982892E-07 -3.08450227E-02  6.23941355E-02  2.75261328E-02
 -9.77329660E-08 -8.40106166E-04 -2.96378722E-03  1.49926014E-04  1.34342563E-03
  2.25904203E-08  6.26233977E-09  8.55179050E-03 -1.79238739E-02  1.60639983E-01
 -1.17548110E-01 -1.55941016E-07 -3.08441766E-02  5.50373618E-02 -4.02731990E-02
 -5.24605849E-08 -1.42531291E-03 -2.37822494E-03  1.49974252E-04 -1.73366356E-03
  1.94342750E-08 -2.85114787E-09  8.55214991E-03 -1.79242030E-02 -2.14795877E-02
 -1.97891648E-01  1.77707279E-07 -3.08466890E-02 -7.35882218E-03 -6.77987656E-02
  4.69006727E-08 -3.44031976E-03 -3.63597036E-04  1.49981927E-04  3.89983567E-04
  2.07165989E-09  2.02665050E-08  8.55122214E-03 -1.79222095E-02 -1.82118153E-01
 -8.03460727E-02 -2.25625756E-07 -3.08453205E-02 -6.23938947E-02 -2.75264194E-02
 -7.00097316E-08 -8.40123636E-04 -2.96376374E-03  1.49932594E-04  1.34343709E-03
 -1.73991324E-08 -4.20003430E-09 -1.08320467E-01 -6.71943593E-02 -1.08320592E-01
 -6.71950044E-02 -1.08319570E-01 -6.71947773E-02 -1.08320451E-01 -6.71943512E-02
 -1.08320362E-01 -6.71948131E-02 -1.08319630E-01 -6.71948281E-02 -5.92102697E-02
  1.21480041E-01  1.08087120E-01 -7.91020881E-02 -7.61894182E-08  1.61422468E-01
  3.13808903E-02 -2.29657234E-02 -3.65680110E-08  2.77017131E-03 -5.78077784E-03
 -4.69441551E-03 -1.55527446E-02 -1.59354920E-08 -1.67033844E-08  5.92105012E-02
 -1.21480597E-01  1.44588559E-02  1.33153145E-01  2.15079341E-07 -1.61423183E-01
  4.19840741E-03  3.86583608E-02  7.17777651E-08  1.53075216E-02 -1.22968107E-02
  4.69441472E-03 -3.50094266E-03 -1.30774011E-08 -3.96139828E-09 -5.92105408E-02
  1.21480636E-01 -1.22545357E-01 -5.40539644E-02  3.91059160E-07  1.61423252E-01
 -3.55785662E-02 -1.56936847E-02  1.31209722E-07  8.02139611E-03 -1.10320935E-02
 -4.69441098E-03  1.20518415E-02 -3.98118089E-08 -3.32807821E-08  5.92102800E-02
 -1.21480053E-01  1.08087447E-01 -7.91010056E-02 -2.17498904E-07 -1.61422365E-01
  3.13807727E-02 -2.29657724E-02 -8.05417922E-08 -2.77025814E-03  5.78087014E-03
  4.69441457E-03  1.55526866E-02  3.03247676E-09 -3.54392445E-08 -5.92105061E-02
  1.21480590E-01  1.44596004E-02  1.33152814E-01 -5.00932577E-07  1.61423059E-01
  4.19820847E-03  3.86584117E-02 -1.86144896E-07 -1.53074646E-02  1.22967529E-02
 -4.69441252E-03  3.50103727E-03 -1.17093684E-08 -2.90057192E-08  5.92105274E-02
 -1.21480604E-01 -1.22545078E-01 -5.40539525E-02 -4.64291879E-07 -1.61423162E-01
 -3.55786764E-02 -1.56932528E-02 -1.71033246E-07 -8.02132114E-03  1.10320210E-02
  4.69440977E-03 -1.20519033E-02 -2.22543963E-08 -2.53769623E-08  1.40637339E-01
  9.79364489E-02 -1.40634871E-01 -9.79342562E-02  1.40635835E-01  9.79351586E-02
 -1.40637113E-01 -9.79362438E-02  1.40634671E-01  9.79340559E-02 -1.40635671E-01
 -9.79350218E-02  1.27316398E-06 -2.63726007E-06 -1.62461410E-01 -2.22004792E-01
 -3.56664237E-07  1.60894764E-07 -5.46684301E-02 -7.47015925E-02 -1.32140954E-07
  3.17027703E-03 -3.17011045E-03  1.24878681E-07  1.16248725E-03  1.77892167E-08
  5.28262393E-09 -1.71290301E-06  3.82723715E-06  2.73495221E-01 -2.96890952E-02
 -6.33195160E-08  3.09168230E-06  9.20267411E-02 -9.99169890E-03 -3.32894035E-08
  7.13158691E-04 -7.13260306E-04 -6.48089555E-08  3.75175613E-03  2.64974532E-08
 -5.03048345E-09  2.13430647E-06 -4.54024295E-06 -1.11040071E-01  2.51694303E-01
  2.31616126E-07 -4.43229483E-06 -3.73621067E-02  8.46934371E-02  8.91368031E-08
 -2.45670540E-03  2.45704074E-03  1.31186957E-07  2.58904316E-03  1.30017003E-08
 -1.05013515E-08 -9.53744397E-07  2.05236369E-06 -1.62460670E-01 -2.22005557E-01
  2.97135823E-07 -3.36132621E-07 -5.46678087E-02 -7.47021368E-02  1.22778327E-07
 -3.17021098E-03  3.17015246E-03 -9.80479953E-08 -1.16259267E-03  5.17569630E-09
 -9.60399965E-09  1.94029883E-06 -4.21391927E-06  2.73495447E-01 -2.96902807E-02
  1.25071096E-07 -3.09222166E-06  9.20266662E-02 -9.99236608E-03  4.30076426E-08
 -7.13209050E-04  7.13388794E-04  8.80876509E-08 -3.75175272E-03  7.30434447E-09
 -4.39337819E-09 -2.07623973E-06  4.50997554E-06 -1.11041216E-01  2.51693981E-01
 -2.33799892E-07  4.79221375E-06 -3.73625321E-02  8.46933455E-02 -8.94778249E-08
  2.45679922E-03 -2.45709986E-03 -1.15633664E-07 -2.58896918E-03  8.74695002E-09
 -7.32004443E-10 -5.97031585E-06 -3.96664639E-06  4.05951014E-06  2.46233492E-06
 -8.78621368E-07  3.99356504E-07  5.96351946E-06  4.20033088E-06 -4.16970349E-06
 -2.39503160E-06  7.52883085E-07 -4.61589603E-07  2.06199370E-02 -4.76716936E-02
  1.89829037E-01 -1.91531137E-01 -9.58145949E-09 -8.23752400E-02  7.24672323E-02
 -4.09886674E-02  4.45901196E-08  1.11209437E-02 -3.73555841E-03  6.33799319E-04
 -5.06444464E-03 -2.47572297E-09  1.03090056E-08  2.11811459E-04 -4.89298614E-04
 -8.60488843E-02  6.58706529E-03 -2.71172728E-07 -8.47414974E-04  1.95356653E-02
 -2.97680313E-03 -1.59050705E-07 -2.53405603E-03  2.61008033E-03  6.61143680E-06
 -1.31646084E-02  8.72167549E-09 -1.39522978E-08 -2.04073471E-02  4.71807094E-02
  2.23457599E-01  1.46458974E-01 -8.35710748E-07  8.15270226E-02  7.89189936E-02
  2.38623665E-02 -3.44329531E-07 -1.23265755E-02  5.01717442E-03 -6.27176716E-04
 -8.06053914E-04  1.75364326E-08  4.54767236E-09 -2.06199679E-02  4.76716964E-02
  1.89829118E-01 -1.91528163E-01 -4.92218297E-07  8.23758810E-02  7.24674433E-02
 -4.09882719E-02 -2.33879808E-07 -1.11208488E-02  3.73554389E-03 -6.33808860E-04
  5.06433656E-03  1.47440399E-08  1.44073243E-09 -2.11622434E-04  4.88998285E-04
 -8.60492025E-02  6.58344104E-03 -1.28407925E-07  8.45811861E-04  1.95356106E-02
 -2.97698910E-03 -3.65650904E-08  2.53419264E-03 -2.61036366E-03 -6.58885601E-06
  1.31645561E-02  1.72917730E-08  7.65156987E-09  2.04071903E-02 -4.71804229E-02
  2.23458239E-01  1.46461903E-01  3.50578106E-07 -8.15260961E-02  7.89187749E-02
  2.38630005E-02  1.01793033E-07  1.23267415E-02 -5.01727661E-03  6.27162225E-04
  8.06094189E-04  2.71015141E-08  1.46444234E-08  1.44683409E-01  1.37281016E-01
  1.48703911E-03  1.41010429E-03 -1.43196292E-01 -1.35870426E-01 -1.44682251E-01
 -1.37279862E-01 -1.48962282E-03 -1.41260897E-03  1.43197619E-01  1.35871711E-01
 -1.16603741E-02  2.69577573E-02 -1.65867843E-01  2.83235048E-02 -6.66944635E-08
  4.65844766E-02 -2.75870497E-02  4.14794140E-02  2.38564558E-08  6.50920751E-03
 -1.06854585E-02 -3.58413941E-04  7.55463918E-03  1.64326145E-08 -1.45331816E-09
 -2.36871841E-02  5.47639761E-02  3.22421020E-02  3.04214023E-01  2.70782081E-07
  9.46285493E-02  1.04247820E-02  9.44125849E-02  9.15501460E-08  2.94796152E-03
 -1.14319858E-02 -7.27856137E-04 -1.94766206E-03  8.94417057E-09  1.03769584E-08
 -1.20276541E-02  2.78077286E-02  1.72112541E-01 -5.30118113E-03 -4.10106892E-07
  4.80492171E-02  3.72605341E-02  3.50274117E-02 -1.08925243E-07  2.75541033E-03
 -7.06321970E-03 -3.69517470E-04 -1.10360264E-02  9.60754402E-09  7.10605713E-09
  1.16602224E-02 -2.69575183E-02 -1.65871091E-01  2.83247883E-02 -9.55502316E-08
 -4.65830668E-02 -2.75873130E-02  4.14794359E-02 -1.34540614E-07 -6.50908045E-03
  1.06854653E-02  3.58395824E-04 -7.55483499E-03 -1.71267929E-08  1.24837970E-08
  2.36871229E-02 -5.47638146E-02  3.22447194E-02  3.04213577E-01 -5.98963590E-07
 -9.46283990E-02  1.04253638E-02  9.44125477E-02 -1.89842680E-07 -2.94795220E-03
  1.14319596E-02  7.27858937E-04  1.94760369E-03 -1.62837364E-09 -2.18111685E-08
  1.20278612E-02 -2.78080837E-02  1.72109454E-01 -5.30062107E-03  1.40764056E-07
 -4.80506342E-02  3.72603385E-02  3.50278201E-02 -2.59228382E-08 -2.75554478E-03
  7.06324621E-03  3.69539220E-04  1.10358259E-02  1.91723583E-08  1.89655958E-09
 -8.18135693E-02 -7.76282236E-02 -1.66208577E-01 -1.57706773E-01 -8.43921215E-02
 -8.00759590E-02  8.18159292E-02  7.76304769E-02  1.66208497E-01  1.57706637E-01
  8.43901817E-02  8.00740340E-02 -4.41949359E-08  9.16334060E-08 -1.53655984E-06
 -2.29355409E-06  2.22030813E-01  3.13165257E-08 -5.76855835E-07 -8.59425316E-07
  1.28828944E-01  1.15388251E-07 -1.01428630E-07 -2.04192670E-08  2.44053362E-08
 -7.71850810E-03  5.64813398E-03  1.59537098E-08  7.18625868E-08  1.35773438E-06
  1.64598666E-06  2.22030388E-01 -4.51673120E-07  5.54419366E-07  7.05699608E-08
  1.28829292E-01  9.48209867E-08 -1.98745530E-07  5.49596066E-08  7.33916619E-10
  1.03192058E-03  9.50838424E-03  5.56348781E-09 -1.04875834E-07 -4.24978300E-07
 -1.67726364E-06  2.22031100E-01  4.45421097E-07  3.34579554E-07 -4.59668812E-07
  1.28829398E-01  1.72714946E-07 -9.30170694E-08 -3.53908998E-08  8.59385077E-08
  8.75048189E-03  3.86044428E-03  3.65131066E-08 -8.34242434E-08  1.82415738E-06
  1.81645813E-06  2.22030576E-01  1.77469882E-09  8.37189067E-07  7.46538573E-07
  1.28828775E-01  7.51380836E-08 -7.61340924E-08  2.91711594E-09  3.44669527E-08
  7.71853904E-03 -5.64808870E-03 -6.61188426E-08  2.50384294E-07 -1.52865760E-06
 -1.15328143E-06  2.22030084E-01 -4.11208173E-07 -4.61623792E-07  1.82510964E-07
  1.28829076E-01  9.08987749E-08 -1.81164967E-07  3.20967011E-08  3.85147233E-08
 -1.03198629E-03 -9.50837466E-03  1.24925196E-07 -3.78062020E-07  1.04763904E-06
  1.96060859E-06  2.22031017E-01  1.07377791E-07 -1.96106273E-07  5.18236500E-07
  1.28829333E-01  1.85312908E-07 -8.40546310E-08 -2.54128267E-08  8.64393686E-08
 -8.75044362E-03 -3.86053151E-03  1.07277112E-07  1.22041945E-07 -1.42455376E-06
 -1.61446739E-06  1.19884333E-06  1.29656956E-06 -1.36764888E-07 -1.44102622E-07
 -1.19776542E-06 -1.37000188E-06  1.44181238E-06  1.64225092E-06 -5.05519669E-03
  2.06066778E-02 -1.82485403E-01  1.32603764E-01  4.94252590E-08 -2.52733534E-02
 -3.15928100E-02  2.27533627E-02  4.32746616E-08 -1.01231967E-02  1.35844405E-03
  1.11468195E-03  2.09908069E-02  1.77720450E-08  1.76829955E-08  2.51498481E-03
 -1.02529091E-02  2.19316236E-01 -1.36705318E-01 -5.87341674E-08  1.25768254E-02
  8.86938154E-02 -2.91115855E-02  2.26782312E-08 -5.21925881E-03  9.58025135E-03
 -5.54710258E-04  1.21531691E-02  1.59595552E-08  7.73138668E-09  2.53986395E-03
 -1.03534199E-02 -1.97347426E-01  1.66551878E-01  5.03224663E-07  1.26979700E-02
 -5.46347107E-02  7.53833351E-02  1.84121527E-07  2.25941995E-03  2.14403734E-03
 -5.60091984E-04  1.49129265E-02 -8.50951572E-09 -3.61477490E-08 -5.05512847E-03
  2.06065252E-02  1.82484973E-01 -1.32604444E-01 -3.86560011E-07 -2.52735969E-02
  3.15924324E-02 -2.27539249E-02 -1.48686141E-07 -1.01234966E-02  1.35875184E-03
  1.11468519E-03  2.09907063E-02 -6.88388496E-10 -4.72537739E-08  2.51531395E-03
 -1.02537295E-02 -2.19315886E-01  1.36709099E-01 -5.41903685E-07  1.25754887E-02
 -8.86938032E-02  2.91131835E-02 -2.44462053E-07 -5.21931216E-03  9.58032468E-03
 -5.54716044E-04  1.21533561E-02  5.36723216E-09 -1.61733419E-08  2.54035789E-03
 -1.03545849E-02  1.97350654E-01 -1.66550631E-01  3.69428437E-07  1.26961670E-02
  5.46360829E-02 -7.53829221E-02  1.42274646E-07  2.25937609E-03  2.14412985E-03
 -5.60091428E-04  1.49130693E-02  1.83063721E-08  4.29766865E-09 -1.70729784E-01
 -1.95195264E-01  8.49516677E-02  9.71257967E-02  8.57770789E-02  9.80690496E-02
 -1.70729900E-01 -1.95195334E-01  8.49534660E-02  9.71278976E-02  8.57785398E-02
  9.80707979E-02  1.42444902E-05 -5.78677855E-05 -1.57972087E-01 -2.16947015E-01
 -2.53792943E-06  7.14127998E-05 -6.20813256E-02 -8.50214397E-02 -1.51374431E-06
  9.57952224E-03 -9.55490997E-03 -3.08460950E-06  3.44234381E-03  9.40587650E-08
 -4.70997816E-08 -4.38524619E-03  1.78755963E-02  1.53869189E-01  1.80117897E-01
 -1.87228252E-06 -2.19222781E-02  5.57207128E-02  2.79208312E-02 -1.20657578E-06
  1.34194028E-02 -2.10221334E-02  9.66962440E-04  1.52676765E-03 -2.32518073E-08
 -9.89422378E-08  4.37096541E-03 -1.78175817E-02 -1.24023703E-01 -2.02085791E-01
 -1.59023376E-06  2.18522798E-02 -9.44940620E-03 -6.19789244E-02 -1.13512080E-06
  1.86199297E-02 -1.10416866E-02 -9.63797290E-04  1.01380220E-02 -1.26433520E-07
 -6.32193484E-08  1.45379147E-05 -5.86256333E-05  1.57968760E-01  2.16949425E-01
 -2.22695923E-06  7.00704560E-05  6.20798564E-02  8.50223669E-02 -1.31701151E-06
  9.57957494E-03 -9.55496845E-03 -3.09234929E-06  3.44222038E-03 -7.64905135E-08
  5.47486361E-08 -4.38502310E-03  1.78750580E-02 -1.53868360E-01 -1.80116508E-01
 -1.67541696E-06 -2.19231440E-02 -5.57201018E-02 -2.79203023E-02 -1.14968479E-06
  1.34193294E-02 -2.10220581E-02  9.66962723E-04  1.52648926E-03  2.27751231E-08
  1.30105897E-07  4.37061724E-03 -1.78167658E-02  1.24021901E-01  2.02084529E-01
 -1.84322112E-06  2.18535528E-02  9.44880418E-03  6.19781275E-02 -1.22153006E-06
  1.86197408E-02 -1.10415381E-02 -9.63800239E-04  1.01381600E-02  1.13433561E-07
  7.78609479E-08  4.75383004E-04  5.43866259E-04 -1.48095108E-01 -1.69317609E-01
  1.47618829E-01  1.68773390E-01  4.77280449E-04  5.46151193E-04 -1.48094614E-01
 -1.69316908E-01  1.47617944E-01  1.68772291E-01  1.20814063E-07 -3.07033991E-07
  3.87074553E-07  1.97177297E-07 -2.41813850E-01 -2.37248132E-07  1.88487390E-08
  4.05856344E-07 -1.73599203E-01  2.11852089E-08  2.45594414E-09 -3.79312014E-09
  2.89016885E-08 -4.97867008E-03 -1.27375456E-02 -2.67497246E-08  7.90318437E-08
 -1.68967807E-07 -9.97005517E-08  8.58814689E-02 -1.23291813E-07  9.88577673E-10
 -2.71725637E-07  6.16546272E-02 -4.32415532E-08  2.66256199E-08  1.17343645E-08
  2.50290647E-09 -1.79630100E-02  3.20140274E-03  2.40307766E-09  3.11273534E-08
  1.00266869E-06  1.97749767E-07  3.27692547E-01  1.18430066E-07  7.69016689E-07
  1.35761134E-07  2.35252407E-01 -8.61918952E-09  3.14399041E-08 -1.07714364E-08
 -4.83024020E-09  2.33263354E-03  6.47671467E-03 -4.14963061E-08  1.28151907E-07
  3.78166129E-07 -8.88325909E-08  2.41812268E-01  2.05280631E-08  1.77830949E-07
  1.15932474E-07  1.73598303E-01 -2.11258473E-08  1.02008938E-09  1.55269787E-08
 -3.95014015E-08 -4.97859929E-03 -1.27374336E-02  5.35619371E-08 -1.34290364E-07
 -1.02396713E-07 -4.59025329E-08 -8.58794031E-02 -2.32668353E-08  8.77370000E-08
 -2.81417831E-07 -6.16534932E-02  2.46033288E-08  5.05700162E-09 -1.33477634E-08
  5.14100351E-09 -1.79629582E-02  3.20138205E-03 -1.15452544E-08  2.28929291E-08
  8.02587064E-07 -4.58615223E-08 -3.27693021E-01 -3.19672728E-07  7.56327928E-07
  7.20737933E-08 -2.35252628E-01  7.63236956E-09 -2.58063373E-08  6.17427181E-09
  6.34403182E-09  2.33255713E-03  6.47690514E-03  2.44669131E-08  1.97272702E-07
  1.47413592E-07  8.90676902E-08 -1.55887361E-07 -1.65815545E-07  5.31495626E-08
 -2.50827424E-08  2.03632986E-08  1.28113467E-07  1.08430340E-07  6.07719326E-08
  1.71808723E-08 -2.16978583E-08 -1.59329261E-07 -3.76283497E-07  2.38775566E-01
 -4.02633282E-07  6.68346806E-08 -3.37210231E-07  1.71419363E-01  1.32381971E-08
  2.00016219E-08 -2.49742933E-08  1.18156780E-08 -1.06978501E-02 -8.76055121E-03
  7.33291422E-08 -2.08038716E-07 -8.44608145E-08 -4.03403956E-07  3.28804060E-01
 -6.40252815E-09  3.98893265E-08  1.84439057E-08  2.36051243E-01 -3.02923765E-08
 -4.58477920E-09  3.33676976E-08 -1.01453505E-08  5.24073316E-03  4.22356642E-03
  5.59362453E-08 -1.06557302E-07  2.84737982E-07 -1.20718667E-07  9.00282339E-02
 -4.54851062E-07  1.09244119E-07 -1.18638157E-07  6.46322063E-02 -1.44730063E-09
  2.51946648E-08 -1.31212062E-08 -3.06449803E-08  8.51624501E-03 -1.60720488E-02
 -9.63187838E-08  2.10350880E-07 -3.07298250E-07  4.58966001E-08 -2.38777220E-01
  4.79897953E-07 -2.93462564E-07 -1.05532090E-08 -1.71420263E-01  1.51326827E-08
 -2.99772286E-08  2.92798138E-09 -4.66526999E-08 -1.06979422E-02 -8.76062848E-03
  3.17072135E-08 -3.86020139E-08  2.27643666E-07 -8.17541463E-07 -3.28804618E-01
 -1.55548483E-07  1.02166095E-07 -5.41210998E-07 -2.36051482E-01  4.55671205E-08
 -2.46410473E-08 -9.00831781E-09 -7.94159699E-09  5.24091454E-03  4.22356645E-03
 -5.84258833E-08  1.21072169E-07  1.94149356E-08  2.75087132E-07 -9.00265757E-02
  4.03282699E-07  2.47035157E-08  3.49325993E-08 -6.46314018E-02  8.73996727E-09
 -3.18048911E-08  1.21425401E-08  2.09636966E-08  8.51621983E-03 -1.60719929E-02
  1.31891823E-08 -1.62847975E-08  9.75074400E-08  2.16246850E-07 -9.13554588E-08
 -1.02797992E-07  1.69542970E-07  1.35987126E-07 -2.12380432E-07 -2.30586392E-07
  7.12714235E-08  6.60709275E-08 -4.14708227E-08  1.62516069E-07  1.23077526E-07
  3.27720570E-07 -3.04555830E-01  1.41728892E-07  5.08087819E-07  5.64164435E-07
 -4.04983426E-01  3.18219220E-09  3.18245914E-08 -2.98676373E-08  4.31497396E-08
 -1.71009225E-02 -7.94481048E-03  7.92541261E-08 -1.26406567E-07  5.71714897E-08
 -3.64140815E-07  3.26034244E-01 -6.35183900E-07  4.28112169E-07 -3.42113948E-07
  4.33544621E-01  3.33806833E-08  8.01481844E-09 -2.09251643E-08  1.25516973E-08
 -1.44225951E-02 -8.24327504E-03 -9.76802940E-08  2.60871222E-07  5.62516233E-08
 -4.00442059E-08 -2.14796757E-02  6.07480180E-07 -4.28666078E-08 -5.42656706E-07
 -2.85623900E-02 -1.96560748E-08  4.11021553E-08 -3.09338692E-08 -5.44342023E-08
  1.26803600E-02 -2.71510072E-02 -1.16389863E-07  2.57685402E-07 -4.47992020E-07
 -1.01645348E-07 -3.04556182E-01  9.24406064E-07 -8.75032407E-07 -1.35075627E-07
 -4.04984483E-01 -2.74716844E-08  3.92196481E-08 -2.94246828E-08  5.11843199E-08
  1.71010170E-02  7.94492768E-03 -1.54844798E-09 -1.16644597E-08 -2.74857526E-08
  7.53713274E-07  3.26034558E-01  1.00173029E-07 -5.22318660E-07  9.81806277E-07
  4.33545494E-01  2.84076152E-08 -1.16505704E-08 -2.05689718E-08 -8.68823467E-09
  1.44227381E-02  8.24325138E-03 -9.70859486E-08  2.56470601E-07 -2.47201023E-08
 -6.42138617E-08 -2.14778598E-02  6.53365293E-07 -3.62504747E-08  5.88261155E-07
 -2.85590655E-02 -2.99014869E-08  5.25336767E-08 -3.15484649E-08 -4.22819095E-08
 -1.26803108E-02  2.71510220E-02 -4.02845589E-08 -3.80633933E-07  1.09609620E-07
  2.30069122E-07 -2.09510196E-07 -8.56179057E-07 -3.18016768E-07 -1.09215882E-06
 -1.71608459E-07 -5.18012212E-07 -2.03312735E-07 -8.27802114E-07  1.72077246E-07
 -4.56969401E-07  3.74955384E-07  2.83450372E-07 -2.00636925E-01 -5.38085870E-07
 -1.89510381E-07  1.11646952E-06 -2.66800129E-01  1.42829798E-08 -1.26365473E-08
  2.94310078E-08 -8.81655501E-08  9.95685452E-03  2.37689546E-02 -9.38115639E-09
  7.29541008E-08 -8.57170488E-08  2.55577715E-07 -1.63435370E-01 -9.20857417E-07
  4.62802630E-07 -4.63974360E-07 -2.17330410E-01 -7.58331707E-08  4.16613761E-08
  2.63136040E-08  1.61405230E-08 -2.61450381E-02  7.75472994E-03  8.26979538E-08
 -2.48621003E-07  9.51028389E-07  7.64974613E-08  3.64071323E-01  3.85637712E-07
  2.19094737E-06  2.22324342E-07  4.84126819E-01  1.94900375E-08 -1.74611763E-08
  1.97178001E-08  5.66202121E-09 -9.24939529E-03 -6.01221466E-03  6.87357693E-08
 -1.24235911E-07 -3.64464957E-07 -9.33401267E-08 -2.00635996E-01 -1.41958766E-06
 -9.94058346E-07  2.21742484E-09 -2.66798060E-01  1.69644817E-09 -3.34360590E-08
  3.30222616E-08 -1.01364134E-07 -9.95683240E-03 -2.37688475E-02  8.34092651E-08
 -2.46096229E-07  2.40021132E-07 -3.16380379E-07 -1.63434165E-01  6.36682501E-08
 -4.43420406E-07 -1.07507852E-06 -2.17327938E-01 -4.76496906E-08  4.33241932E-08
  2.29397590E-08  1.00470136E-08  2.61449704E-02 -7.75466944E-03  4.44544935E-08
 -3.30819506E-08 -8.19446889E-07 -2.22002744E-08  3.64071324E-01 -1.12172586E-06
 -7.60191583E-07  4.22505413E-07  4.84126899E-01  5.52568682E-09 -3.30289563E-08
  3.18586404E-08  9.03197437E-09  9.24934141E-03  6.01232639E-03  3.63155114E-07
  1.56684670E-06  1.23102909E-07  3.05750572E-07  2.64908674E-07  1.18346840E-06
  2.11705196E-07  6.86465448E-07  2.33547529E-07  1.07941838E-06  1.76361016E-07
  4.87796238E-07  3.92296130E-02 -6.77865778E-02 -1.02143177E-01  7.47434785E-02
 -1.71916284E-07 -5.12078701E-01 -2.26980912E-01  1.66098774E-01 -2.72770404E-08
  8.64380411E-03 -1.03426655E-03  1.33829322E-04 -1.76027453E-02 -3.45506154E-08
 -5.90860095E-08  3.92292977E-02 -6.77849455E-02  1.36565034E-02  1.25829881E-01
  7.97131186E-07 -5.12081220E-01  3.03508592E-02  2.79612169E-01  1.44964000E-06
 -1.18169738E-02  1.94257697E-02  1.33871324E-04  3.96232790E-03  3.46113340E-08
 -3.37456551E-08  3.92300278E-02 -6.77864801E-02  1.15801250E-01  5.10873889E-02
 -1.10274036E-06 -5.12087706E-01  2.57332336E-01  1.13520626E-01 -2.14573997E-06
  1.45870965E-02 -6.97788211E-03  1.33849965E-04  1.36401078E-02  2.04251459E-08
 -3.25879539E-08  3.92295674E-02 -6.77865187E-02  1.02143407E-01 -7.47426658E-02
  5.76679182E-08 -5.12077766E-01  2.26981931E-01 -1.66096771E-01 -2.22861920E-07
  8.64385737E-03 -1.03432096E-03  1.33823870E-04 -1.76027234E-02  2.39150715E-08
  7.64579612E-08  3.92292163E-02 -6.77847543E-02 -1.36573482E-02 -1.25829475E-01
  5.53372789E-07 -5.12080581E-01 -3.03526141E-02 -2.79610851E-01  1.61564904E-06
 -1.18169738E-02  1.94257536E-02  1.33874440E-04  3.96239597E-03 -2.86313756E-08
  1.44827698E-08  3.92300032E-02 -6.77864614E-02 -1.15800683E-01 -5.10882379E-02
 -4.74044988E-07 -5.12087176E-01 -2.57331648E-01 -1.13522016E-01 -1.50882980E-06
  1.45870467E-02 -6.97783085E-03  1.33845278E-04  1.36401644E-02 -1.17621662E-08
  3.60982408E-08  6.00987720E-02  7.31194277E-01  6.00986994E-02  7.31186666E-01
  6.00985975E-02  7.31194210E-01  6.00987580E-02  7.31193256E-01  6.00987018E-02
  7.31184919E-01  6.00985966E-02  7.31193775E-01 -3.17119077E-02  3.13397469E-02
  1.74031606E-01 -1.08573742E-01  1.13649149E-06  7.91303419E-01  3.26262469E-01
 -3.91235298E-01  1.22101168E-06  3.49839013E-03 -3.54951494E-03 -2.96108170E-03
  1.05002715E-02  5.64577587E-08 -1.92051044E-08  3.32979202E-03 -3.28963454E-03
  2.85177387E-02  1.85158126E-02 -1.11455872E-06 -8.30953725E-02 -2.07234288E-01
  7.47152378E-02 -1.42231981E-06 -3.05755238E-03  3.06307271E-03  3.11059585E-04
 -1.17895165E-02 -4.39564014E-09  3.84410626E-08  3.50430282E-02 -3.46309384E-02
  2.11336799E-01  8.09887548E-02  6.31012485E-07 -8.74429902E-01  4.63032880E-01
  3.03759539E-01  7.40866804E-07  2.35332512E-03 -2.29692761E-03  3.27222136E-03
  1.06809847E-02 -7.45123467E-08 -5.62398066E-08  3.17126046E-02 -3.13409529E-02
  1.74030553E-01 -1.08574397E-01 -1.46190564E-06 -7.91313608E-01  3.26261922E-01
 -3.91238220E-01 -2.37173381E-06 -3.49804310E-03  3.54925922E-03  2.96109846E-03
 -1.05000379E-02  5.09199876E-08 -1.21685743E-08 -3.33135234E-03  3.29236064E-03
  2.85177017E-02  1.85154695E-02  1.21077455E-06  8.31176696E-02 -2.07232204E-01
  7.47193733E-02  1.78713668E-06  3.05722114E-03 -3.06295069E-03 -3.11096605E-04
  1.17895849E-02  1.33808776E-08  7.81001276E-08 -3.50421479E-02  3.46293931E-02
  2.11337033E-01  8.09878137E-02 -7.15066708E-07  8.74417617E-01  4.63032140E-01
  3.03753354E-01 -7.67492089E-07 -2.35309210E-03  2.29681609E-03 -3.27220190E-03
 -1.06813597E-02 -5.24679372E-08 -2.84899266E-08 -3.71418516E-02 -1.00551620E+00
  3.90099053E-03  1.05600354E-01  4.10424778E-02  1.11112037E+00  3.71416960E-02
  1.00552089E+00 -3.90076825E-03 -1.05612680E-01 -4.10425140E-02 -1.11111247E+00
  2.21556691E-02 -2.18963682E-02 -1.02527755E-01  1.01891470E-01  1.62286023E-06
 -5.52842686E-01 -3.82740088E-01  6.17818742E-02  2.61247285E-06  9.96000568E-03
 -9.92432490E-03  2.06871018E-03 -2.78902190E-03  8.53974689E-08 -5.46472799E-08
  3.85407017E-02 -3.80861804E-02  2.45629292E-02  2.47406673E-01 -1.42576130E-06
 -9.61724289E-01  8.32272437E-02  5.95268214E-01 -2.53598789E-06 -8.79467877E-03
  8.85646903E-03  3.59901274E-03  3.32423545E-03  2.48644489E-08  9.89499387E-08
  1.63856786E-02 -1.61926870E-02  8.70363027E-02  6.45872327E-02  1.24058093E-06
 -4.08868055E-01  3.12272484E-01 -7.50003256E-02  1.59428673E-06  9.79886916E-03
 -9.77234333E-03  1.53010105E-03 -4.17359061E-03 -9.10434973E-08 -1.78404729E-08
 -2.21544693E-02  2.18942788E-02 -1.02527579E-01  1.01892420E-01 -1.23427033E-06
  5.52825308E-01 -3.82735646E-01  6.17826334E-02 -1.20642374E-06 -9.96025331E-03
  9.92472530E-03 -2.06867590E-03  2.78916744E-03  3.84256631E-08 -4.30710712E-08
 -3.85403772E-02  3.80855893E-02  2.45616396E-02  2.47406785E-01  9.47159582E-07
  9.61719800E-01  8.32222100E-02  5.95267517E-01  8.13071922E-07  8.79469053E-03
 -8.85643251E-03 -3.59900110E-03 -3.32472261E-03  8.31727348E-09  7.78676869E-08
 -1.63873783E-02  1.61956662E-02  8.70365786E-02  6.45869028E-02 -1.28526035E-06
  4.08892024E-01  3.12278345E-01 -7.49995552E-02 -1.62680564E-06 -9.79874526E-03
  9.77197976E-03 -1.53013579E-03  4.17365000E-03 -6.53749002E-08 -4.38736441E-08
  2.59482612E-02  7.02489124E-01  4.51388499E-02  1.22203698E+00  1.91913952E-02
  5.19561872E-01 -2.59485488E-02 -7.02480091E-01 -4.51389459E-02 -1.22203396E+00
 -1.91913569E-02 -5.19576898E-01  6.03528896E-08 -4.51866630E-07  1.14409133E-07
  4.73872554E-07  2.91769680E-01  2.51613908E-06  3.95313977E-09  5.33387863E-06
  5.40129108E-01 -1.06534053E-08  7.72371357E-09  4.39293247E-09 -2.02311392E-08
  1.36417757E-02 -9.98243923E-03 -5.27419070E-07  7.30773555E-07 -3.02533026E-07
 -1.20944642E-06 -2.91769845E-01  8.24803808E-06  4.13010099E-07 -6.69236222E-06
 -5.40127949E-01 -1.66143065E-07 -4.26754256E-08  8.25608637E-08  5.61965445E-08
  1.82395203E-03  1.68052023E-02  1.08853984E-07 -7.51528838E-07 -3.50568007E-07
  4.24930497E-08  2.91770297E-01  5.70882380E-06  1.67875258E-06  2.84519421E-06
  5.40130366E-01 -2.15809626E-08  3.06512564E-08  2.03446784E-08 -2.05200216E-08
 -1.54658553E-02 -6.82296352E-03 -2.43240501E-07  5.85633272E-07 -4.14559978E-07
  3.35251769E-07 -2.91769934E-01  2.88127586E-07 -1.84681618E-06  5.19591096E-06
 -5.40129747E-01  7.23864998E-09 -9.05575230E-08  1.60598984E-08 -2.28480604E-08
  1.36418693E-02 -9.98233296E-03  3.67726668E-07 -6.35433966E-07  1.67183739E-07
 -9.58159744E-07  2.91770179E-01 -5.77871519E-06  1.78621236E-06 -5.61045436E-06
  5.40128828E-01  8.72424978E-08  3.88561749E-08 -6.19283873E-08 -1.41164605E-08
  1.82405585E-03  1.68051825E-02  3.61366898E-07 -1.96851872E-07 -1.18786720E-06
 -3.09817906E-07 -2.91770413E-01 -1.23345322E-05 -1.89788477E-06  1.31585332E-06
 -5.40130657E-01  9.25524941E-10  3.19253253E-09  5.15712857E-09 -1.22779625E-08
 -1.54658556E-02 -6.82299250E-03  1.30021274E-08  2.53248312E-06 -2.66745880E-07
 -1.07487665E-05  4.19503443E-07 -8.22799455E-07 -3.78454494E-07 -4.35561903E-06
 -7.93534186E-08  9.24503622E-06 -2.40073266E-07  7.99140598E-06  6.82104200E-02
 -1.01748243E-01 -4.31951759E-02  9.75749672E-02  2.62386226E-08 -1.21264183E+00
 -1.71067550E-01  4.71085340E-01  5.98799360E-08  7.93962312E-03 -1.20495223E-03
  2.42268273E-03  1.09328916E-02 -3.71388384E-09 -1.53606444E-08 -8.37942169E-02
  1.24994095E-01  1.57684506E-02 -1.15988412E-01  3.80155245E-07  1.48968648E+00
  9.17879533E-02 -5.24312854E-01  8.99811709E-07 -1.41254083E-02  5.85203490E-03
 -2.97622099E-03 -1.98825442E-03  5.08015113E-09 -1.52468834E-08  1.55831361E-02
 -2.32449780E-02 -1.35357213E-02  8.30247181E-02 -1.88592041E-07 -2.77035129E-01
 -8.53367856E-02  4.29037164E-01 -4.59863521E-07  7.75189810E-03 -6.21326497E-03
  5.53490190E-04 -1.00888750E-02  6.94853974E-10 -1.88726889E-08  6.82100312E-02
 -1.01748097E-01  4.31946759E-02 -9.75725318E-02 -1.72530982E-07 -1.21262484E+00
  1.71073736E-01 -4.71075971E-01 -3.16322757E-07  7.93966264E-03 -1.20496357E-03
  2.42267038E-03  1.09329736E-02 -1.63965703E-08  1.50324568E-08 -8.37941299E-02
  1.24994313E-01 -1.57666504E-02  1.15987918E-01 -2.23739950E-07  1.48967746E+00
 -9.17744637E-02  5.24314724E-01 -5.11984827E-07 -1.41254694E-02  5.85205671E-03
 -2.97620744E-03 -1.98831651E-03  1.83347871E-09  4.22634290E-09  1.55838691E-02
 -2.32459860E-02  1.35333943E-02 -8.30261255E-02  9.20947708E-09 -2.77053766E-01
  8.53284702E-02 -4.29043219E-01  1.39795731E-08  7.75196549E-03 -6.21316972E-03
  5.53433524E-04 -1.00888330E-02  1.93393859E-08  4.92932694E-09  1.22691416E-02
  9.62976372E-01 -1.50729516E-02 -1.18298685E+00  2.80363105E-03  2.19998192E-01
  1.22692088E-02  9.62966698E-01 -1.50730193E-02 -1.18298569E+00  2.80387539E-03
  2.20017585E-01  5.73751763E-02 -8.55848665E-02 -1.00151480E-01 -5.13355859E-03
  7.42535164E-07 -1.02001511E+00 -4.78541644E-01 -6.10560546E-02  1.60263642E-06
 -7.29633271E-03  1.29610369E-02  2.03801878E-03  4.07398760E-03  1.44537275E-08
  4.42900301E-09  3.03838810E-02 -4.53231168E-02  8.17362842E-02  3.25631670E-02
 -6.91226714E-07 -5.40159495E-01  4.25303132E-01  1.40332179E-01 -1.95713686E-06
  2.56113143E-03  4.38630683E-04  1.07928243E-03 -1.27394083E-02  1.74200735E-08
  7.04419818E-08 -8.77592193E-02  1.30907825E-01 -1.14700133E-01 -3.47976328E-02
  9.19089797E-07  1.56019070E+00 -5.20589347E-01 -1.46784103E-01  2.59826521E-06
  3.74404766E-03 -1.24085971E-02 -3.11717956E-03  6.85738941E-03 -4.73145743E-08
 -2.03931429E-08  5.73757073E-02 -8.55852365E-02  1.00154731E-01  5.13302210E-03
 -7.43726854E-07 -1.02003450E+00  4.78550709E-01  6.10606710E-02 -2.14519076E-06
 -7.29623224E-03  1.29609146E-02  2.03802984E-03  4.07391212E-03  6.35786039E-08
 -4.89354570E-08  3.03847040E-02 -4.53242160E-02 -8.17372957E-02 -3.25665073E-02
  6.41018917E-07 -5.40180245E-01 -4.25308148E-01 -1.40342434E-01  1.45083618E-06
  2.56115409E-03  4.38721366E-04  1.07924715E-03 -1.27392810E-02  6.12900065E-09
  1.79500134E-08 -8.77592416E-02  1.30908099E-01  1.14699560E-01  3.47988888E-02
 -4.07386077E-07  1.56018665E+00  5.20586730E-01  1.46796379E-01 -6.23181876E-07
  3.74411468E-03 -1.24086939E-02 -3.11717093E-03  6.85732297E-03 -3.17403597E-08
 -1.86412392E-08  1.03207823E-02  8.10020656E-01  5.46449315E-03  4.28941980E-01
 -1.57854443E-02 -1.23897139E+00  1.03207848E-02  8.10036517E-01  5.46473164E-03
  4.28964338E-01 -1.57855321E-02 -1.23897250E+00 -5.50563169E-02  1.59994416E-01
  6.21448095E-02 -4.54793515E-02  5.04838309E-07 -2.09262276E-01  1.00388930E+00
 -7.34605889E-01  1.82824522E-06 -9.27152932E-03 -1.39342824E-02  7.57338794E-03
 -8.48052065E-03  3.87605642E-08 -3.83421896E-08  5.50570419E-02 -1.59995086E-01
  8.30919030E-03  7.65618788E-02 -7.74946113E-07  2.09246712E-01  1.34225809E-01
  1.23670071E+00 -8.53915531E-07  1.91292540E-02  4.07659350E-03 -7.57334115E-03
 -1.90884570E-03 -8.22109319E-09  8.74545640E-08 -5.50563107E-02  1.59994051E-01
 -7.04587147E-02 -3.10834190E-02  1.17667367E-06 -2.09260805E-01 -1.13813204E+00
 -5.02101857E-01  4.14374053E-06 -6.40833182E-03 -1.67973789E-02  7.57331851E-03
  6.57151641E-03 -3.59483578E-08 -2.42644394E-08  5.50563107E-02 -1.59994492E-01
  6.21454815E-02 -4.54780796E-02 -9.49543196E-07  2.09263319E-01  1.00389895E+00
 -7.34592674E-01 -2.63444742E-06  9.27158729E-03  1.39342223E-02 -7.57339591E-03
  8.48054838E-03  9.15713319E-09 -3.72916179E-08 -5.50568547E-02  1.59994858E-01
  8.31009232E-03  7.65612413E-02  3.54527916E-07 -2.09252564E-01  1.34239701E-01
  1.23669729E+00  1.26471545E-07 -1.91292633E-02 -4.07658642E-03  7.57335037E-03
  1.90876700E-03  1.17535553E-08  1.11650264E-07  5.50561153E-02 -1.59993845E-01
 -7.04580245E-02 -3.10839139E-02 -9.37515077E-07  2.09264781E-01 -1.13812557E+00
 -5.02113688E-01 -2.73207182E-06  6.40832072E-03  1.67973699E-02 -7.57333303E-03
 -6.57148678E-03  3.00257529E-08  5.51074949E-09 -4.76942609E-02 -1.21837787E+00
  4.76939488E-02  1.21838824E+00 -4.76949913E-02 -1.21838423E+00  4.76941714E-02
  1.21837721E+00 -4.76937842E-02 -1.21838354E+00  4.76948972E-02  1.21838118E+00
  5.84097817E-02 -6.56222914E-02  1.76356257E-01 -1.15842961E-01 -1.51610770E-08
 -1.55091593E+00  1.29214218E+00 -3.10918602E-01  8.96431792E-07  2.16848580E-02
 -1.61637811E-02  8.15432751E-04  7.16768019E-03  3.89698989E-08 -4.59971884E-08
 -6.71321038E-02  7.54241848E-02  3.30815423E-02  2.40039744E-01  4.07154917E-07
  1.78250861E+00  4.85629095E-01  1.36511620E+00  2.40670410E-06 -6.18545948E-03
 -1.59607366E-04 -9.36926199E-04 -1.46577115E-02 -1.51547752E-08 -2.57151853E-08
  8.72070323E-03 -9.79783806E-03 -3.59042075E-02  3.40908333E-03  1.22426689E-07
 -2.31517805E-01 -5.09634653E-01  7.01401646E-01  4.25433129E-07  2.47371587E-02
 -2.39119777E-02  1.21726661E-04 -2.56788622E-02 -4.23682595E-08  3.93434755E-09
  5.84063946E-02 -6.56189212E-02 -1.76339948E-01  1.15861478E-01  3.38605948E-07
 -1.55080332E+00 -1.29205222E+00  3.11031059E-01  4.12444644E-07  2.16836095E-02
 -1.61628192E-02  8.15465433E-04  7.16468396E-03  9.63143364E-09  2.05296454E-08
 -6.71298753E-02  7.54219465E-02 -3.30531287E-02 -2.40041323E-01  8.00903479E-07
  1.78243613E+00 -4.85463452E-01 -1.36512940E+00  2.06393690E-06 -6.18353761E-03
 -1.61317504E-04 -9.36961265E-04 -1.46556916E-02 -5.45643647E-10 -2.19479078E-08
  8.72592157E-03 -9.80280884E-03  3.59087550E-02 -3.41104959E-03  9.72730684E-08
 -2.31696424E-01  5.09652447E-01 -7.01418131E-01  3.05433369E-07  2.47352268E-02
 -2.39095593E-02  1.21668842E-04 -2.56820957E-02  3.24043074E-08  1.88674940E-08
 -1.55711175E-02 -7.71252900E-01  1.78946120E-02  8.86456114E-01 -2.31577136E-03
 -1.15222170E-01 -1.55619358E-02 -7.71270893E-01  1.78887843E-02  8.86466893E-01
 -2.33057952E-03 -1.15196898E-01  4.37927605E-02 -4.91996709E-02  1.19136857E-01
 -1.04753054E-01 -5.48004836E-08 -1.16280086E+00  3.38845866E-01 -1.09411599E+00
  1.43082752E-07 -2.32869580E-02  2.74261337E-02  6.11627650E-04 -9.12283365E-03
 -3.72817163E-08 -4.21179039E-09  2.86831271E-02 -3.22246394E-02  5.04439849E-03
 -1.04645463E-01 -1.56799893E-07 -7.61591950E-01  7.15314621E-01 -6.83473538E-01
 -4.07966886E-07 -5.10416704E-03  7.81529920E-03  4.00671537E-04 -3.44498697E-02
  1.83509838E-08 -2.00983024E-08 -7.24804110E-02  8.14321250E-02  2.38393266E-01
  1.07502636E-01 -8.95508790E-07  1.92454396E+00  1.35118040E+00  7.07668733E-01
 -3.16297659E-06 -3.35534198E-04 -6.51455000E-03 -1.01195972E-03 -2.88770021E-03
 -1.84894010E-08  1.51753881E-08  4.37964689E-02 -4.92033707E-02 -1.19128022E-01
  1.04768829E-01  2.53778674E-07 -1.16292602E+00 -3.38787655E-01  1.09420478E+00
  9.24340887E-07 -2.32888526E-02  2.74282810E-02  6.11615124E-04 -9.12063457E-03
  2.95940386E-08  1.92947147E-08  2.86876845E-02 -3.22290838E-02 -5.05279883E-03
  1.04649258E-01 -3.64204976E-07 -7.61746971E-01 -7.15366487E-01  6.83486706E-01
 -1.29382847E-06 -5.10116882E-03  7.81266907E-03  4.00639755E-04 -3.44513598E-02
 -1.67546980E-08 -9.61130944E-09 -7.24794580E-02  8.14312169E-02 -2.38403580E-01
 -1.07477514E-01 -6.75141060E-07  1.92451236E+00 -1.35124272E+00 -7.07522409E-01
 -1.88224650E-06 -3.37347862E-04 -6.51262721E-03 -1.01197779E-03 -2.88666861E-03
  2.90024914E-08 -6.80902966E-09 -1.16683102E-02 -5.78315906E-01 -7.64067693E-03
 -3.78783589E-01  1.93190047E-02  9.57081774E-01 -1.16790101E-02 -5.78294392E-01
 -7.65370460E-03 -3.78759226E-01  1.93165857E-02  9.57086016E-01 -2.50153752E-02
  2.08688918E-02 -1.69583368E-01 -1.93461841E-01  2.89218944E-07  9.41996967E-01
 -1.08749449E+00 -1.32349578E+00 -8.72350203E-07 -1.54747790E-02  1.34725612E-02
  2.38149316E-04 -2.54546081E-02 -4.34491354E-09 -7.03601086E-08  2.68291179E-02
 -2.23831380E-02 -2.51520716E-01  2.90392824E-03 -6.45520980E-07 -1.01029008E+00
 -1.67221669E+00  7.78608099E-02 -1.86856278E-06  2.27853328E-02 -2.06377180E-02
 -2.55689179E-04  1.81288814E-02  1.57870530E-08  3.41188046E-08  5.18501427E-02
 -4.32574457E-02 -4.05071201E-02 -2.43267356E-02  8.32150309E-07 -1.95248750E+00
 -1.66356960E-01 -1.16420472E-01  2.50588576E-06 -2.15104024E-02  2.56603510E-02
 -4.93364513E-04 -2.90313742E-02  3.13815762E-08  8.81461331E-08  2.50223777E-02
 -2.08760775E-02 -1.69600517E-01 -1.93448625E-01 -3.95089441E-07 -9.42209064E-01
 -1.08763769E+00 -1.32344156E+00 -4.21451280E-08  1.54763908E-02 -1.34736920E-02
 -2.37953006E-04  2.54551216E-02  1.61086776E-08 -1.06700389E-07 -2.68355900E-02
  2.23898048E-02 -2.51522454E-01  2.88404786E-03  5.37009180E-07  1.01048677E+00
 -1.67228358E+00  7.77315110E-02  9.13935645E-07 -2.27859494E-02  2.06379258E-02
  2.55483124E-04 -1.81309452E-02  2.73269419E-08 -5.79126331E-09 -5.18506800E-02
  4.32579984E-02 -4.05084347E-02 -2.43278704E-02 -7.18559784E-07  1.95250348E+00
 -1.66326345E-01 -1.16517985E-01 -1.51229916E-06  2.15128759E-02 -2.56628516E-02
  4.93343647E-04  2.90287691E-02  6.30049416E-09  7.75789502E-08  6.76868613E-02
 -7.84974981E-02 -7.25906103E-02  8.41721354E-02 -1.40281683E-01  1.62622825E-01
 -6.76880964E-02  7.84082927E-02  7.25920695E-02 -8.40906105E-02  1.40281869E-01
 -1.62616361E-01 -4.54288685E-02  3.78998099E-02  5.01935932E-02  1.38155542E-01
 -2.54783775E-07  1.71068330E+00  4.15381744E-01  8.63271546E-01 -7.35844604E-07
  1.80630501E-02 -2.16990486E-02  4.31978149E-04 -2.92991867E-02 -6.51179228E-08
 -4.81288598E-08 -4.43824694E-02  3.70284144E-02 -1.46152503E-01  5.62345422E-02
  5.06349478E-07  1.67126769E+00 -9.85943475E-01  2.78575933E-01  2.48732654E-06
 -2.79986439E-02  2.44465998E-02  4.22078070E-04  2.09437103E-02  4.89701652E-08
  2.72139751E-09  1.05079934E-03 -8.76337376E-04 -1.18940174E-01  2.67231859E-01
 -2.37374942E-07 -3.95339394E-02 -7.91703908E-01  1.78439726E+00  2.52911044E-07
  1.68256450E-02 -1.67411362E-02 -9.92503619E-06 -1.87775902E-02 -1.72939422E-09
  7.94847841E-08  4.54256932E-02 -3.78965534E-02  5.02018178E-02  1.38150142E-01
  3.99119309E-07 -1.71058623E+00  4.15390964E-01  8.63169929E-01  1.13519034E-07
 -1.80606814E-02  2.16964543E-02 -4.32062190E-04  2.93000972E-02 -3.96921487E-08
 -6.62967806E-08  4.43788211E-02 -3.70246982E-02 -1.46153809E-01  5.62232505E-02
 -6.52180769E-07 -1.67115572E+00 -9.85877233E-01  2.78490278E-01 -1.91166828E-06
  2.79990737E-02 -2.44472408E-02 -4.22193905E-04 -2.09408859E-02  5.17339627E-08
  2.97104164E-08 -1.04396027E-03  8.69327489E-04 -1.18920753E-01  2.67240280E-01
  2.33759622E-07  3.93236242E-02 -7.91569988E-01  1.78445115E+00 -2.51046291E-07
 -1.68253873E-02  1.67412220E-02  1.01894831E-05  1.87774746E-02  1.21944139E-08
  4.49004605E-08  1.22904628E-01 -1.42448927E-01  1.20072766E-01 -1.39153665E-01
 -2.83160175E-03  3.22975317E-03 -1.22904166E-01  1.42490239E-01 -1.20072023E-01
  1.39200476E-01  2.82964577E-03 -3.31537468E-03 -1.84222633E-06  5.60059824E-06
  1.93925956E-01  2.65023606E-01  4.21235602E-07  8.85873050E-05 -2.96620007E-01
 -4.05265048E-01 -3.04280155E-07 -4.03038615E-02  4.03044990E-02 -6.29648778E-08
 -1.47723727E-02 -6.32679977E-08  1.30127542E-08  1.87447340E-06  4.49286511E-06
 -3.26477961E-01  3.54380495E-02  1.25717402E-07 -7.82725412E-05  4.99285929E-01
 -5.42561547E-02 -7.72427705E-08 -9.07262378E-03  9.07240639E-03  6.43097053E-08
 -4.76904663E-02 -6.45995476E-08  1.70501466E-08 -2.04996204E-06  5.66909396E-06
  1.32551526E-01 -3.00455502E-01 -2.84330893E-07  8.15480481E-05 -2.02661000E-01
  4.59532383E-01  1.93533299E-07  3.12323306E-02 -3.12308130E-02 -9.42310446E-08
 -3.29177675E-02 -5.67679142E-08  3.71668853E-08  1.88890550E-06  3.89732217E-06
  1.93927377E-01  2.65022013E-01 -4.10432116E-07 -9.52412042E-05 -2.96624861E-01
 -4.05267963E-01  2.71987517E-07  4.03042440E-02 -4.03036015E-02  3.18606733E-08
  1.47730888E-02 -4.37947878E-08  2.03019176E-08 -1.84712486E-06  4.92546377E-06
 -3.26478600E-01  3.54353021E-02 -1.36869974E-07  7.14448735E-05  4.99280446E-01
 -5.42527973E-02  1.10650241E-07  9.07381652E-03 -9.07244137E-03 -7.55715938E-08
  4.76901474E-02 -4.63695035E-08  2.69630406E-08  2.09054071E-06  3.57480262E-06
  1.32548047E-01 -3.00456652E-01  2.84734926E-07 -8.90587475E-05 -2.02659713E-01
  4.59538701E-01 -1.94743167E-07 -3.12322316E-02  3.12317446E-02  9.14116327E-08
  3.29171754E-02 -5.38981806E-08  2.96138870E-08 -1.36076559E-06  1.74717622E-05
  1.21802063E-06 -1.63397458E-05  1.51092297E-06  1.62951305E-05  2.70456374E-06
 -1.92075695E-05 -2.69990630E-07  1.57798059E-05 -1.05648337E-06 -1.53465434E-05
 -4.73266381E-07  1.69531775E-07 -1.83338380E-07  2.50217939E-07  4.24977575E-01
  1.75681679E-05 -1.12097714E-05  7.31132320E-06 -3.05265111E-01 -1.48669719E-08
  5.23376710E-08  1.09265660E-08 -3.10390387E-08 -1.25214216E-02  9.16312592E-03
  4.57219113E-07 -1.08678992E-06 -2.83291581E-07 -1.39700676E-06  4.24981808E-01
 -1.68184956E-05 -1.13197772E-06 -1.21402802E-05 -3.05270334E-01 -2.97262097E-07
  3.58736648E-08  2.73367145E-08 -1.53641251E-08  1.67370047E-03  1.54256206E-02
 -4.05978539E-07  1.60855828E-07  1.23975157E-06  6.02974427E-07  4.24981081E-01
  1.70912974E-05  1.12028308E-05  4.55775362E-06 -3.05272444E-01  7.59199447E-08
  4.22586467E-08 -5.51577396E-08  5.45759421E-08  1.41966088E-02  6.26270597E-03
  4.84914390E-07 -7.15115658E-07 -5.44214741E-07  1.76472296E-07  4.24976954E-01
 -1.68876149E-05 -1.00110671E-05  7.99987851E-06 -3.05264529E-01 -3.15662894E-08
  2.92239072E-08 -8.25232622E-08 -1.45830753E-07  1.25217032E-02 -9.16269371E-03
 -4.98760222E-07 -2.11615578E-07  1.02796085E-07  5.52422681E-07  4.24980953E-01
  1.76272406E-05 -1.86991786E-06 -1.38303303E-05 -3.05269441E-01 -1.80882171E-07
 -4.09738592E-08  1.19570428E-07 -6.76761677E-09 -1.67422559E-03 -1.54255090E-02
  4.90235634E-07 -4.57706486E-07  4.22120333E-08 -3.39422491E-08  4.24980841E-01
 -1.70874939E-05  1.21113374E-05  5.73482322E-06 -3.05272248E-01  6.88657386E-08
  1.70436157E-08 -1.14288172E-07  6.43456098E-08 -1.41963678E-02 -6.26323982E-03
 -3.78198760E-07  4.82746725E-06  6.41773128E-07 -5.33885914E-06 -1.49781249E-08
  4.92660682E-06  9.30684480E-07 -5.05387096E-06 -6.58126603E-07  4.53900735E-06
  1.03997418E-06 -4.85922240E-06 -1.09667382E-01  1.05745370E-01 -1.44846383E-01
  1.05960960E-01 -7.29097525E-07  3.74349313E+00 -2.28603522E+00  1.67272096E+00
 -1.39017962E-06 -1.10336561E-02 -6.91296657E-03  1.97976423E-02  7.49435549E-03
 -1.29452428E-07  1.05424034E-07  1.09667370E-01 -1.05780454E-01 -1.93801807E-02
 -1.78445398E-01 -1.82458283E-06 -3.74343743E+00 -3.05755431E-01 -2.81606371E+00
 -2.97911953E-06  2.31368632E-03  1.56288091E-02 -1.97983172E-02  1.69050948E-03
  9.63548570E-08  1.61974946E-07 -1.09666827E-01  1.05750215E-01  1.64191808E-01
  7.24529468E-02 -3.56341261E-06  3.74351549E+00  2.59161452E+00  1.14346240E+00
 -8.78963372E-07 -1.35626773E-02 -4.38139235E-03  1.97968830E-02 -5.80706637E-03
  7.59645144E-08  2.32331053E-09  1.09667659E-01 -1.05781997E-01 -1.44853373E-01
  1.05997882E-01 -2.36746041E-06 -3.74346925E+00 -2.28589730E+00  1.67287363E+00
  2.53824267E-06  1.10320812E-02  6.90929508E-03 -1.97978915E-02 -7.50301805E-03
 -2.62247114E-08  7.90565044E-08 -1.09667098E-01  1.05743489E-01 -1.93518693E-02
 -1.78420391E-01 -1.32434507E-06  3.74347370E+00 -3.05553048E-01 -2.81611204E+00
  4.19275281E-06 -2.32302104E-03 -1.56242822E-02  1.97978879E-02 -1.68721721E-03
  4.48225828E-08  6.83837574E-08  1.09667143E-01 -1.05786961E-01  1.64226884E-01
  7.24419298E-02 -1.01060439E-06 -3.74348941E+00  2.59167916E+00  1.14326119E+00
  3.86425600E-06  1.35661195E-02  4.37285639E-03 -1.97971968E-02  5.81238054E-03
 -7.14600613E-09 -3.59308632E-08 -1.61072325E-01  1.15994508E+00  1.61098646E-01
 -1.15995458E+00 -1.61065725E-01  1.15994347E+00  1.61096477E-01 -1.15996863E+00
 -1.61073944E-01  1.15993146E+00  1.61090115E-01 -1.15996695E+00 -2.20300698E-03
  3.17944516E-01 -1.90164315E-01  1.39170960E-01  5.10246378E-07 -2.44404388E-01
  1.63129116E-01 -1.19128858E-01 -3.62871403E-07  3.22614229E-03  4.12244780E-02
  2.44853173E-03  6.91201883E-02  1.43065693E-07  1.69178461E-07 -2.19003852E-03
  3.17930982E-01  2.54447707E-02  2.34251975E-01 -6.44463383E-08 -2.44837364E-01
 -2.16500664E-02 -2.01162189E-01 -2.94690859E-07  8.35663415E-02 -3.91111137E-02
  2.44618737E-03 -1.55585761E-02 -6.24245309E-08  1.03442111E-07 -2.20180259E-03
  3.17941531E-01  2.15604008E-01  9.51009873E-02  8.91624207E-07 -2.44416320E-01
 -1.84741382E-01 -8.17096992E-02 -2.96709449E-07 -2.01134567E-02  6.45660162E-02
  2.44815030E-03 -5.35591002E-02  8.65410590E-09  1.58262427E-07 -2.19009074E-03
  3.17932116E-01  1.90144144E-01 -1.39162883E-01  4.91698133E-07 -2.44844550E-01
 -1.63395125E-01  1.19329860E-01 -2.46060199E-07  3.22666941E-03  4.12261317E-02
  2.44616242E-03  6.91189334E-02 -6.33668697E-08 -2.19748272E-07 -2.20292732E-03
  3.17943745E-01 -2.54415322E-02 -2.34273491E-01 -4.47722452E-08 -2.44395994E-01
  2.16077215E-02  2.00830796E-01 -4.07787818E-07  8.35658670E-02 -3.91126547E-02
  2.44850288E-03 -1.55597166E-02  7.86016181E-08 -1.44068989E-08 -2.18889347E-03
  3.17929093E-01 -2.15587131E-01 -9.50871510E-02  8.38904353E-07 -2.44856436E-01
  1.85049659E-01  8.18372065E-02 -2.67670266E-07 -2.01111971E-02  6.45659203E-02
  2.44578630E-03 -5.35590187E-02  7.04206107E-09 -1.51604137E-07 -2.04531913E-01
  1.92940214E-01 -2.04512203E-01  1.92805766E-01 -2.04530022E-01  1.92934037E-01
 -2.04512575E-01  1.92803524E-01 -2.04530798E-01  1.92942617E-01 -2.04510772E-01
  1.92797258E-01  1.42137243E-06  3.80679108E-05 -1.80115909E-01 -2.46114401E-01
 -1.31630986E-06 -2.44028477E-04 -1.95470677E+00 -2.67150480E+00 -3.13519402E-06
 -1.56281306E-02  1.56303848E-02  7.02007374E-07 -5.72746338E-03 -1.05352275E-07
 -4.13474736E-08 -2.59297444E-06  3.73485474E-05 -3.03220270E-01  3.29285275E-02
  4.50075292E-07  1.76931071E-04 -3.29090279E+00  3.57309321E-01  2.48992075E-07
  3.52649898E-03 -3.51630921E-03 -1.79331083E-06  1.84930774E-02  1.63738372E-07
 -2.49896662E-08  6.44369980E-06  2.94110328E-05 -1.23087172E-01  2.79017333E-01
  9.42806871E-07 -1.98902476E-04 -1.33626823E+00  3.02861609E+00  1.95530000E-06
  1.21141344E-02 -1.21031268E-02 -3.26866652E-06 -1.27667564E-02 -9.97744893E-08
  1.31913148E-07 -7.14970408E-06  4.48160564E-05  1.80124685E-01  2.46109369E-01
 -1.39003291E-06  9.18143026E-05  1.95489222E+00  2.67137287E+00 -2.23711226E-06
 -1.56290148E-02  1.56296553E-02  2.38291368E-06 -5.72699900E-03  1.52934344E-08
 -5.65793650E-08  5.82628738E-06  3.00541029E-05  3.03221861E-01 -3.29183132E-02
  3.73692229E-07 -1.54325132E-04  3.29093445E+00 -3.57085067E-01  1.17986520E-06
  3.52675717E-03 -3.51529212E-03 -3.35534292E-06  1.84933104E-02 -3.02592624E-08
  2.59964049E-08 -1.78290043E-06  3.72185324E-05  1.23077870E-01 -2.79022661E-01
  9.39998917E-07  1.24349750E-04  1.33606339E+00 -3.02870752E+00  1.98818865E-06
  1.21133307E-02 -1.21032663E-02 -1.83199922E-06 -1.27671025E-02  4.25945826E-08
 -9.76098616E-10 -4.13349085E-06 -2.80316592E-05  2.19696440E-06  5.23607477E-05
  1.46804635E-05 -4.46082579E-05 -1.89381161E-05  6.48288644E-05  1.61796544E-05
 -3.95233579E-05  1.46532469E-06  4.59838336E-05 -1.19572328E-02 -4.33369172E-01
  9.27922634E-03 -6.79631543E-03 -2.52395692E-06  5.35681154E-01  1.06851544E-01
 -7.83889909E-02  2.68100036E-06 -7.05118434E-02 -5.14455309E-02  3.12601942E-02
  3.46760792E-02 -9.11455949E-08 -1.85641767E-07 -1.19530403E-02 -4.33372575E-01
 -1.28281857E-03 -1.14409810E-02  2.54029019E-06  5.35688177E-01 -1.44241034E-02
 -1.31741585E-01 -3.26514238E-06 -3.01993777E-02 -9.17504726E-02  3.12567671E-02
 -7.80493432E-03 -1.83117872E-07 -1.56034785E-09 -1.19516924E-02 -4.33375356E-01
 -1.05362190E-02 -4.65516860E-03  2.21667496E-06  5.35688946E-01 -1.21316388E-01
 -5.33250006E-02 -1.23224931E-06 -8.22157066E-02 -3.97310457E-02  3.12556753E-02
 -2.68735343E-02  5.44340223E-07  1.71628236E-07 -1.19570089E-02 -4.33368331E-01
 -9.27605239E-03  6.80098618E-03  1.76207736E-06  5.35677658E-01 -1.06859499E-01
  7.83822785E-02 -1.52086258E-06 -7.05110158E-02 -5.14457994E-02  3.12600022E-02
  3.46762188E-02  1.14245685E-07 -2.17098367E-07 -1.19530367E-02 -4.33370756E-01
  1.27786496E-03  1.14410162E-02 -1.43020667E-06  5.35692112E-01  1.44311693E-02
  1.31737585E-01  6.39818837E-07 -3.01989670E-02 -9.17502026E-02  3.12566061E-02
 -7.80423429E-03 -1.13529902E-07  2.60044670E-07 -1.19515272E-02 -4.33375119E-01
  1.05377318E-02  4.65233273E-03 -2.39794328E-06  5.35685928E-01  1.21317415E-01
  5.33290959E-02  2.94443299E-06 -8.22160577E-02 -3.97304047E-02  3.12555608E-02
 -2.68729439E-02  2.91265703E-08  9.38904514E-08 -3.07072528E-01 -2.45755416E-02
 -3.07057144E-01 -2.45847162E-02 -3.07054072E-01 -2.45795939E-02 -3.07071313E-01
 -2.45767937E-02 -3.07055896E-01 -2.45834456E-02 -3.07053320E-01 -2.45809647E-02
  1.23412527E-05 -1.07464698E-05 -4.08976907E-05 -1.19647387E-04 -1.21480460E-01
  3.19979182E-05  7.01589563E-05  1.22404250E-04  1.21230299E-01  7.21714286E-06
  1.89183423E-05 -1.09423392E-05  4.42525043E-06 -1.10329448E-02 -3.13187596E-02
  8.04891785E-06 -7.26225009E-06  1.40156717E-04 -3.98586319E-05  4.53298024E-01
  1.23224540E-05 -1.65016672E-04  2.12158250E-05 -4.52359819E-01  1.01711191E-05
  6.16894406E-06 -6.84552000E-06 -6.90481193E-06 -1.75422897E-02  3.79012516E-02
 -2.01921403E-05  2.47475577E-05  5.14021855E-05  4.14149977E-05  5.74775376E-01
 -4.67745291E-05 -5.52641698E-06 -2.38917827E-05 -5.73584091E-01 -1.34842162E-05
 -2.67602107E-05  1.70672204E-05  7.22011665E-06  4.56582071E-02  8.92809782E-03
  1.21729469E-05 -1.58841584E-05  4.14290629E-05  1.21373787E-04  1.21476609E-01
  2.64700569E-05 -7.75125587E-05 -1.18999369E-04 -1.21223224E-01  6.12763941E-06
  1.78676840E-05 -1.03505514E-05  3.98536967E-06 -1.10332522E-02 -3.13184388E-02
  7.63446283E-06 -8.36676226E-06 -1.34958616E-04  3.76010317E-05 -4.53295642E-01
  2.21426426E-05  1.58098241E-04 -2.65074639E-05  4.52354908E-01  1.00481379E-05
  5.81189737E-06 -6.80594601E-06 -6.55849695E-06 -1.75420844E-02  3.79009520E-02
 -1.96302635E-05  2.87633287E-05 -4.66267721E-05 -4.41846643E-05 -5.74774906E-01
 -6.02976618E-05  6.18298123E-06  3.05978321E-05  5.73582632E-01 -1.27505202E-05
 -2.60010608E-05  1.68724526E-05  6.95162751E-06  4.56579656E-02  8.92836945E-03
  4.56794864E-05 -8.38188292E-06  2.93788083E-05 -9.01950992E-06 -7.00975015E-05
  1.96487441E-05  4.30149833E-05 -1.32594916E-05  2.81729180E-05 -5.49003437E-06
 -6.74970900E-05  1.73879912E-05  5.64741286E-06 -8.35664297E-06  6.08502450E-05
  5.20704271E-05  5.93558518E-01  1.45399237E-05 -5.70278203E-05 -6.92064510E-05
 -5.92328923E-01  7.63097830E-06  3.49080954E-06 -4.84321054E-06  3.83486344E-06
 -4.16585060E-02  2.24218751E-02 -1.19939439E-05  1.63844785E-05 -1.02896940E-06
  3.83891962E-05  4.01980779E-01 -3.01055374E-05  5.20853874E-06 -1.13230206E-05
 -4.01145530E-01 -1.69705262E-05 -6.87256405E-06  1.03394247E-05  1.46828187E-06
  2.75600972E-02  2.89304171E-02  6.74300883E-06 -6.83728090E-06 -4.98767917E-05
  6.14262458E-05 -1.91573253E-01  1.34702419E-05  3.98498219E-05 -7.94116583E-05
  1.91173740E-01  7.01033756E-06  6.74285548E-06 -5.77718514E-06 -4.87943329E-06
 -1.41198151E-03 -3.42699669E-02  5.42769636E-06 -6.88813054E-06 -6.41252137E-05
 -5.68797181E-05 -5.93559127E-01  1.79470374E-05  6.47483830E-05  7.28512510E-05
  5.92329645E-01  7.80398944E-06  3.32381049E-06 -4.67990885E-06  3.96495412E-06
 -4.16587528E-02  2.24216997E-02 -1.20597075E-05  1.21392308E-05 -1.67594311E-06
 -3.81861064E-05 -4.01982893E-01 -3.18798890E-05 -1.63106550E-06  1.55676468E-05
  4.01149391E-01 -1.77996054E-05 -7.26347048E-06  1.04857446E-05  1.29261805E-06
  2.75603382E-02  2.89307146E-02  6.09687830E-06 -1.06020717E-05  4.89676855E-05
 -6.33837693E-05  1.91574476E-01  2.12570755E-05 -4.20440253E-05  8.04405591E-05
 -1.91177266E-01  6.19893094E-06  5.47152770E-06 -5.15356210E-06 -4.74761396E-06
 -1.41225620E-03 -3.42702015E-02  1.92092247E-05 -5.41355316E-06 -4.20346938E-05
  1.14961791E-05  2.37637200E-05 -6.32978032E-06  1.89797360E-05 -3.32455466E-06
 -4.35994154E-05  8.90177380E-06  2.04826470E-05 -5.65784270E-06  5.15476986E-02
 -6.42782970E-02  3.36124604E-01  1.88155108E-01 -9.90976279E-05  1.32945056E-01
 -2.76049006E-01 -3.01429836E-01  9.86709273E-05  5.72635829E-02  4.61960805E-02
 -4.42650408E-02  2.96888117E-02  6.64326102E-06 -4.32699424E-06 -6.57503198E-02
  8.19700632E-02  1.84730476E-01  1.85417440E-01 -5.58987364E-05 -1.69532445E-01
 -1.94914487E-01 -3.62872380E-02  5.63466621E-05 -9.57355937E-02 -3.62334120E-02
  5.64619376E-02  3.37642830E-04 -4.88551720E-06 -4.06210086E-06  1.42005455E-02
 -1.77372041E-02 -2.47825545E-01  4.52438200E-01  4.48537953E-05  3.66403693E-02
  2.51707418E-01 -5.40012936E-01 -4.50780455E-05  2.41512372E-02  4.34366547E-03
 -1.21930830E-02 -2.02736325E-02  1.21350640E-06  5.74247618E-06  5.15459991E-02
 -6.42980194E-02 -3.36108161E-01 -1.88133151E-01  1.00084002E-04  1.32934132E-01
  2.76009307E-01  3.01396546E-01 -1.00247174E-04  5.72582177E-02  4.61928776E-02
 -4.42625881E-02  2.96878744E-02  6.39680798E-06 -4.39039684E-06 -6.57495187E-02
  8.19800167E-02 -1.84696682E-01 -1.85420865E-01  5.41945807E-05 -1.69522189E-01
  1.94849953E-01  3.62833482E-02 -5.37091439E-05 -9.57328168E-02 -3.62316894E-02
  5.64606370E-02  3.39360523E-04 -4.92980678E-06 -3.57947015E-06  1.42037187E-02
 -1.77076328E-02  2.47827396E-01 -4.52444255E-01 -4.39989101E-05  3.66261501E-02
 -2.51707676E-01  5.40027032E-01  4.36270170E-05  2.41573941E-02  4.35026198E-03
 -1.21967851E-02 -2.02744511E-02  1.36925830E-06  5.78888294E-06  1.81347158E-01
 -4.69985249E-02 -2.31324777E-01  5.99469792E-02  4.99441623E-02 -1.29510003E-02
  1.81332670E-01 -4.70037612E-02 -2.31317507E-01  5.99513090E-02  4.99662721E-02
 -1.29503531E-02  4.61594460E-02 -5.75864399E-02 -1.15290937E-01 -4.00403436E-01
  7.06023059E-05  1.19027781E-01  2.35394076E-01  3.89537091E-01 -6.99486120E-05
  2.62387967E-02  6.63997401E-02 -3.96362605E-02  1.74102336E-02  7.66429289E-07
  1.05821972E-05  2.15592833E-02 -2.69153123E-02  4.88848271E-01 -1.20439896E-01
 -1.07366618E-04  5.56207041E-02 -5.73148868E-01  8.10421887E-02  1.07115334E-04
  2.69721517E-02  1.62929381E-02 -1.85120142E-02 -2.33354092E-02  6.74433467E-06
 -9.11303423E-06 -6.77229686E-02  8.44260852E-02  1.48980437E-01  1.83565288E-01
 -1.76949530E-04 -1.74582949E-01 -3.40942518E-03 -1.37983169E-01  1.76397347E-04
 -4.47763063E-02 -9.11523187E-02  5.81558126E-02  2.24526038E-02 -1.30396167E-05
 -4.67382896E-06  4.61614653E-02 -5.75653308E-02  1.15304151E-01  4.00421940E-01
 -7.26332914E-05  1.19026926E-01 -2.35416487E-01 -3.89574435E-01  7.28191950E-05
  2.62421117E-02  6.64053879E-02 -3.96388203E-02  1.74103425E-02  5.84782874E-07
  1.03529375E-05  2.15619335E-02 -2.68878977E-02 -4.88857542E-01  1.20440654E-01
  1.07043389E-04  5.56185680E-02  5.73166149E-01 -8.10474789E-02 -1.06757248E-04
  2.69784783E-02  1.62982673E-02 -1.85153555E-02 -2.33361308E-02  6.83089230E-06
 -9.33036524E-06 -6.77223246E-02  8.44322577E-02 -1.48993688E-01 -1.83535322E-01
  1.79372505E-04 -1.74582159E-01  3.43344101E-03  1.37925570E-01 -1.79367267E-04
 -4.47761575E-02 -9.11496776E-02  5.81549892E-02  2.24536580E-02 -1.36038766E-05
 -4.68620477E-06  1.62376278E-01 -4.20981310E-02  7.58319527E-02 -1.96620570E-02
 -2.38266529E-01  6.17505994E-02  1.62391990E-01 -4.20958911E-02  7.58521545E-02
 -1.96590475E-02 -2.38261852E-01  6.17514865E-02 -3.58570087E-02 -3.32837905E-01
 -1.50842106E-01 -2.42348126E-01 -3.59851046E-06  2.38928849E-01  2.24327410E-01
  3.00076617E-01  3.75848385E-06 -9.16714594E-02 -6.27652287E-02  4.39715203E-02
 -1.14212756E-02 -3.45877424E-11 -3.59835457E-07  5.94270704E-03  5.51961288E-02
 -4.59902520E-01  5.34918322E-02  1.44846336E-06 -3.95902826E-02  6.05859493E-01
 -6.50951555E-02 -1.53716843E-06  1.94707599E-02  6.13291889E-03 -7.28948894E-03
  3.05509415E-02 -1.80419872E-07  7.60610395E-08  4.18089719E-02  3.88023243E-01
 -4.91888330E-02  1.73224689E-01  3.81841102E-06 -2.78641301E-01  9.87606283E-02
 -2.12971047E-01 -4.36329709E-06  9.38118544E-02  8.62420109E-02 -5.12666346E-02
 -1.32048587E-02 -4.11306024E-08  1.24767207E-07  3.58604644E-02  3.32833806E-01
 -1.50867499E-01 -2.42366972E-01  2.90487585E-06 -2.38923298E-01  2.24354631E-01
  3.00108496E-01 -3.14885026E-06  9.16757853E-02  6.27684096E-02 -4.39745018E-02
  1.14235333E-02 -4.87371585E-08 -2.51796466E-07 -5.94800190E-03 -5.51895482E-02
 -4.59909529E-01  5.34778593E-02 -8.73748160E-07  3.95784960E-02  6.05872851E-01
 -6.50898616E-02  7.67267562E-07 -1.94792778E-02 -6.13611030E-03  7.29412917E-03
 -3.05505140E-02 -1.27920935E-07  1.22126551E-07 -4.18071221E-02 -3.88025363E-01
 -4.91684741E-02  1.73191552E-01 -3.90680714E-06  2.78647122E-01  9.87429144E-02
 -2.12939899E-01  4.50150394E-06 -9.38092877E-02 -8.62402757E-02  5.12649525E-02
  1.32029198E-02  3.51138754E-08  2.48630985E-07 -2.44132247E-01 -2.65259252E-02
  4.04731875E-02  4.41193696E-03  2.84630728E-01  3.08942940E-02  2.44144601E-01
  2.65239743E-02 -4.04922793E-02 -4.40954783E-03 -2.84623714E-01 -3.08947539E-02
  2.75740244E-02  2.55890110E-01 -2.31915660E-01 -2.89117349E-01 -1.13445260E-06
 -1.83790414E-01  2.85446699E-01  3.94975908E-01  9.38173754E-07  3.74067727E-02
  8.13379150E-02 -3.38100931E-02 -3.33987165E-03  2.97622230E-07  8.85595386E-08
  4.48403043E-02  4.16189635E-01  6.39457881E-02  1.99441992E-02 -3.51450087E-06
 -2.98789980E-01 -7.98271811E-02  1.34781518E-02  4.06927932E-06  1.01959694E-01
  9.11609485E-02 -5.49861546E-02 -5.64603814E-03 -2.24802929E-08 -4.08679293E-08
  1.72693749E-02  1.60297039E-01  1.83653694E-01 -3.90774705E-01 -5.41252236E-07
 -1.15138035E-01 -2.27660850E-01  5.20481499E-01  2.98020327E-07  1.67665741E-02
  5.76087823E-02 -2.11762634E-02  1.77185657E-02 -2.70629343E-07  1.50736313E-07
 -2.75698816E-02 -2.55896646E-01 -2.31911578E-01 -2.89092623E-01  2.59674620E-06
  1.83801407E-01  2.85434345E-01  3.94951221E-01 -2.58197715E-06 -3.74038092E-02
 -8.13319910E-02  3.38065280E-02  3.34212052E-03  2.52363702E-07 -2.58741461E-08
 -4.48398957E-02 -4.16191514E-01  6.39076600E-02  1.99495061E-02  2.03976873E-06
  2.98794324E-01 -7.97852971E-02  1.34723527E-02 -2.52774879E-06 -1.01959209E-01
 -9.11606656E-02  5.49858101E-02  5.64431446E-03 -1.42993000E-07  5.92132415E-08
 -1.72740607E-02 -1.60292880E-01  1.83648061E-01 -3.90794520E-01  4.75561612E-07
  1.15128212E-01 -2.27661283E-01  5.20501969E-01 -2.04030613E-07 -1.67700957E-02
 -5.76161206E-02  2.11804975E-02 -1.77171810E-02 -1.50752628E-07 -2.25396933E-09
  1.87709604E-01  2.03697032E-02  3.05279750E-01  3.31684316E-02  1.17573998E-01
  1.27544623E-02 -1.87695805E-01 -2.03714469E-02 -3.05279187E-01 -3.31681837E-02
 -1.17592409E-01 -1.27526572E-02  1.01643797E-07  9.43458028E-07  6.33482391E-07
  1.48656332E-06 -5.81292711E-01  2.66582669E-07  1.44931438E-06  1.50541054E-06
  9.57999200E-01  2.80967907E-07  1.33752721E-07 -1.56477499E-07  4.83826942E-08
  4.69506432E-03 -1.60064402E-02  2.39187347E-08  1.05397717E-06  7.48725607E-07
  8.34882871E-08  5.00945106E-01 -9.59298855E-07  3.08536168E-06 -5.67467594E-07
 -8.25584978E-01  5.67381026E-08  1.28938085E-07 -4.36351417E-08 -3.18538895E-08
 -1.46344834E-02  1.30662422E-02  1.08619956E-07  4.11247917E-07  6.71202388E-07
 -7.48170447E-07  8.03398394E-02  1.55852044E-07  4.28629143E-07 -2.69778047E-06
 -1.32405778E-01  1.09432107E-07  1.97327448E-07 -1.30694459E-07 -5.35702726E-08
  1.22107484E-02 -2.31452588E-02 -3.95943333E-08  1.32897449E-07 -1.82196834E-06
 -1.33483322E-06 -5.81293792E-01 -3.80863192E-07  9.17798221E-07 -1.55622870E-06
  9.57999283E-01  1.95130125E-08 -8.93511629E-08  5.64032969E-08  1.07672330E-07
 -4.69476496E-03  1.60068236E-02 -1.58486127E-07  3.95404147E-07 -6.43206803E-08
  4.52207141E-07  5.00947372E-01 -2.31318796E-06 -4.67478138E-06 -1.82642786E-07
 -8.25586436E-01 -1.75609151E-07 -2.19952291E-07  2.13179690E-07 -5.78312061E-08
  1.46349242E-02 -1.30663016E-02  1.33365006E-07  3.23129804E-07  4.86128545E-08
 -4.15807475E-07  8.03452893E-02  6.38061704E-07 -2.07791159E-06  5.37300155E-06
 -1.32413123E-01  1.41637748E-07  2.17370101E-07 -1.58620548E-07 -5.72625348E-08
 -1.22108124E-02  2.31453131E-02  5.66368011E-07 -7.43653180E-08  8.50504642E-08
 -2.32581733E-07  6.09198645E-07 -1.78976409E-07 -4.19665012E-08  4.82758996E-07
 -7.12006127E-07  2.80911696E-07  6.90251492E-07 -1.84272818E-07  2.42730901E-07
  8.24730872E-08 -5.45857862E-07 -1.13543504E-06  2.42838430E-01  1.75636212E-06
 -7.12262670E-07 -9.46324620E-07 -4.00208169E-01  2.81712703E-07  2.68330910E-07
 -2.41892168E-07  1.53325341E-07 -1.88048973E-02 -1.63326737E-02 -3.57894078E-08
  7.59804987E-07  8.30424592E-07  7.75813581E-07  3.81997963E-01 -2.03771509E-06
 -4.61185127E-06 -2.23527257E-06 -6.29551053E-01  4.64135367E-08 -1.73424010E-07
  8.33260429E-08  1.53267231E-08  2.17457762E-02  6.39186114E-03 -5.63731113E-08
  4.05790090E-07 -1.91628376E-06  5.73996356E-07 -6.24831155E-01  1.24211418E-06
  3.49356686E-06  2.69510257E-06  1.02975484E+00 -1.65703689E-08  1.93014959E-08
  6.16595720E-08 -1.31009994E-07 -1.16668705E-02 -8.81597075E-03  8.68551074E-08
  4.05288512E-07  1.49204880E-06  3.20776318E-07  2.42835972E-01 -5.33080767E-07
 -1.44201776E-06  3.04572027E-06 -4.00205669E-01  4.16186865E-08  1.08362474E-07
 -6.48318376E-08  1.80301783E-07  1.88049207E-02  1.63324848E-02  8.36349199E-08
  2.76510607E-07 -6.43397863E-07  6.45135626E-07  3.81995294E-01  9.81104770E-09
  4.35780861E-06 -1.06400864E-06 -6.29547365E-01  1.72051773E-07 -1.74647572E-08
 -4.08474604E-08  5.29770656E-08 -2.17455827E-02 -6.39198984E-03 -1.91554837E-07
  1.09503065E-06  8.32684512E-07 -1.22245185E-06 -6.24830445E-01 -1.82626019E-06
 -1.11315800E-06 -1.25158773E-06  1.02975349E+00 -1.37945946E-07 -1.05196143E-07
  2.07976016E-07 -1.29907053E-07  1.16670401E-02  8.81559719E-03  9.79644561E-07
 -5.49543142E-07 -4.08482507E-07 -5.65056430E-07 -3.91438325E-07  9.41902795E-07
  2.46652185E-07 -6.04536212E-07  1.71290624E-07 -3.87369132E-07 -7.58837504E-07
  9.35465576E-07  9.86348823E-08  3.24049718E-07 -7.00825725E-08 -8.45082663E-07
 -4.47296666E-01  4.69427321E-06 -3.01327152E-06  2.43311831E-06  1.17420371E+00
  2.03897135E-07  2.47916756E-07 -2.06236817E-07 -5.21687989E-08 -4.73504478E-04
  3.47055899E-04  1.18257499E-07 -1.95548285E-08  4.01286794E-07  2.80663747E-07
  4.47298553E-01 -3.94515878E-06 -1.69575625E-06 -4.47551950E-06 -1.17420483E+00
  7.22442541E-08 -1.40700514E-07 -4.90761519E-08  5.84435999E-08 -6.29629246E-05
 -5.83516992E-04  6.66849420E-10 -2.09304904E-07 -1.35492504E-06 -1.12754418E-06
 -4.47299075E-01  5.34051546E-06  7.28561712E-06  3.89493065E-06  1.17420770E+00
 -2.08864975E-08  1.54267390E-07 -5.88916229E-08 -8.64830870E-09  5.37093564E-04
  2.36934450E-04  2.55940893E-08  6.65352556E-07  7.09523188E-07 -6.89771865E-07
  4.47297490E-01 -6.39381071E-06 -4.95988598E-06  2.94421687E-06 -1.17420520E+00
  1.17385350E-07 -1.74255614E-07  1.22338041E-08 -4.02017336E-08 -4.73671331E-04
  3.46762953E-04  2.03015298E-11  1.02060679E-06 -2.55969368E-07 -1.46815582E-07
 -4.47299730E-01  2.28863568E-06 -7.58557885E-07 -2.92187628E-06  1.17420686E+00
  3.29849774E-08  4.25834447E-07 -1.39998252E-07  7.93641874E-08 -6.32688067E-05
 -5.83514767E-04 -4.38822752E-08  1.52725800E-06 -7.68698945E-07 -8.92510528E-07
  4.47299410E-01 -5.83205790E-06  3.14225733E-06  2.09676075E-06 -1.17420835E+00
  2.23454529E-07 -9.08100963E-08  3.56295199E-09  1.02556424E-07  5.36969193E-04
  2.37129091E-04  7.10825157E-07  1.03453844E-06  3.73202745E-07 -1.98061858E-06
  6.95159147E-07  2.19402332E-06  6.07008026E-08 -1.57805844E-06  3.96136260E-07
  1.52545371E-06  1.55156719E-08 -2.52013989E-07  2.37638165E-02 -5.50833369E-02
 -3.46961603E-01  2.73247623E-01  4.14424456E-07 -5.79743877E-01  1.51316714E+00
 -9.45654643E-01  1.22753656E-07 -3.56871922E-02  2.68470558E-02 -1.96668930E-02
 -5.40027469E-02  2.34143482E-09 -1.08075573E-07 -3.27769391E-02  7.59692598E-02
 -6.02103051E-02 -6.05789547E-01  1.74466733E-08  7.99594441E-01  3.10630568E-01
  2.43517665E+00  1.52641840E-06  5.67291365E-02 -4.45393254E-02  2.71263567E-02
  5.49639615E-03  2.93695076E-08 -1.17742032E-07  9.01375077E-03 -2.08933542E-02
  1.44646008E-01  8.69238184E-02 -5.42149963E-07 -2.19988279E-01 -6.88882056E-01
 -1.11084486E-01  1.70462176E-06 -3.66185390E-02  3.32617535E-02 -7.45852154E-03
  5.76483517E-02 -1.10030547E-07 -1.60186903E-07  2.37625763E-02 -5.50876316E-02
  3.46903460E-01 -2.73206884E-01 -8.94017471E-07 -5.79415138E-01 -1.51282922E+00
  9.45414891E-01  1.47724438E-06 -3.56825090E-02  2.68524565E-02 -1.96687199E-02
 -5.40007385E-02 -1.70525051E-07  1.34972379E-07 -3.27760253E-02  7.59733250E-02
  6.02007602E-02  6.05723203E-01 -1.66550127E-06  7.99266838E-01 -3.10576234E-01
 -2.43477487E+00  4.12330853E-06  5.67229876E-02 -4.45439545E-02  2.71287144E-02
  5.49632823E-03  5.70464415E-08  2.77546662E-07  9.01353608E-03 -2.08932048E-02
 -1.44591471E-01 -8.68989956E-02 -3.93446623E-07 -2.19660823E-01  6.88528232E-01
  1.10923949E-01  1.09402260E-06 -3.66114433E-02  3.32677001E-02 -7.46210711E-03
  5.76492333E-02  1.49562342E-07  5.90847546E-08  2.65882984E-01 -1.21431001E+00
 -3.66726862E-01  1.67483394E+00  1.00851911E-01 -4.60635509E-01  2.65866590E-01
 -1.21411481E+00 -3.66713214E-01  1.67464875E+00  1.00842213E-01 -4.60470043E-01
  2.41270779E-02 -5.59255120E-02 -3.70700430E-01  2.52183416E-01  2.02772171E-07
 -5.88456157E-01  1.38212897E+00 -1.17050644E+00 -2.22161229E-07  4.75612275E-02
 -5.65301457E-02 -1.99690158E-02 -2.41151136E-02  3.04071609E-09  1.94459918E-08
  8.51548337E-03 -1.97394298E-02  3.81701074E-02  1.54939163E-01 -7.86839119E-08
 -2.07721538E-01  1.07302819E-01 -6.53061569E-01  7.44216261E-07 -1.06288237E-03
 -2.10421430E-03 -7.04737662E-03  7.04562861E-02  3.29136328E-08  1.92512191E-08
 -3.26430457E-02  7.56685710E-02 -5.57027765E-01 -2.39359426E-01  2.04818620E-06
  7.96174420E-01  2.21670055E+00  1.03117778E+00 -6.09621774E-06 -3.85786143E-02
  5.07148529E-02  2.70174553E-02 -2.83570930E-02  1.71377108E-07  7.27952397E-08
  2.41274418E-02 -5.59228922E-02  3.70705230E-01 -2.52188655E-01 -1.04531876E-06
 -5.88478281E-01 -1.38215029E+00  1.17053098E+00  2.97769781E-06  4.75618903E-02
 -5.65305413E-02 -1.99693549E-02 -2.41159690E-02 -7.13827724E-08  3.14908216E-08
  8.51598756E-03 -1.97369489E-02 -3.81702542E-02 -1.54940847E-01  2.98132846E-07
 -2.07702556E-01 -1.07304056E-01  6.53050005E-01 -1.30192294E-06 -1.06314530E-03
 -2.10167484E-03 -7.04846072E-03  7.04567414E-02  9.63377605E-09 -1.58772773E-08
 -3.26427588E-02  7.56689475E-02  5.57022298E-01  2.39354411E-01  1.51808509E-06
  7.96154307E-01 -2.21667561E+00 -1.03115560E+00 -3.71022369E-06 -3.85781506E-02
  5.07142859E-02  2.70171972E-02 -2.83565690E-02 -1.49152170E-07 -9.79731148E-08
  2.69947132E-01 -1.23279916E+00  9.52762973E-02 -4.35120435E-01 -3.65230121E-01
  1.66795359E+00  2.69949393E-01 -1.23281797E+00  9.52789307E-02 -4.35124485E-01
 -3.65227306E-01  1.66793450E+00  6.25526095E-03  2.19096740E-02 -4.30050425E-01
  3.14689016E-01  2.04250804E-07 -2.64603010E+00  2.62247094E+00 -1.91897644E+00
  2.06367728E-06 -4.46058136E-02 -4.70089717E-02  2.10002189E-02 -4.35810068E-03
  2.15662669E-07 -1.45299694E-07 -6.25418028E-03 -2.19172687E-02 -5.75040284E-02
 -5.29755197E-01  5.09078182E-07  2.64602840E+00  3.50665986E-01  3.23052580E+00
  9.22579213E-07  4.96730890E-02  4.19410193E-02 -2.10015199E-02 -9.82531798E-04
 -3.71748382E-09 -1.75349753E-07  6.25572177E-03  2.19058778E-02  4.87564749E-01
  2.15095988E-01 -2.18772781E-06 -2.64603981E+00 -2.97315582E+00 -1.31167838E+00
  8.49276036E-06 -4.31334271E-02 -4.84823093E-02  2.09998288E-02  3.37519919E-03
 -2.05262277E-07 -1.01371015E-07 -6.25798312E-03 -2.19027615E-02 -4.30090420E-01
  3.14721726E-01  1.08840586E-06  2.64609851E+00  2.62263802E+00 -1.91910060E+00
 -3.84848167E-06  4.46110677E-02  4.70050074E-02 -2.09979895E-02  4.36478478E-03
 -1.97047735E-07  1.51006092E-07  6.25820194E-03  2.19074362E-02 -5.75105161E-02
 -5.29831791E-01  7.02918843E-07 -2.64613356E+00  3.50683246E-01  3.23083534E+00
 -2.50856838E-06 -4.96804269E-02 -4.19356414E-02  2.09982378E-02  9.81974027E-04
  5.60483114E-08  3.31189406E-07 -6.25707769E-03 -2.19022464E-02  4.87588110E-01
  2.15106731E-01  1.20808645E-06  2.64607352E+00 -2.97326901E+00 -1.31167948E+00
 -4.67362529E-06  4.31374603E-02  4.84789566E-02 -2.09987236E-02 -3.38231055E-03
  3.10911534E-07  1.26527549E-07  1.07321495E-01 -1.46852897E+00 -1.07307901E-01
  1.46846030E+00  1.07328657E-01 -1.46856298E+00 -1.07352130E-01  1.46867055E+00
  1.07353473E-01 -1.46866988E+00 -1.07343841E-01  1.46863380E+00 -1.16529982E-02
  1.32737314E-01  2.33346224E-01 -5.16505867E-02  3.13284850E-07 -8.47232631E-02
 -8.39322608E-01 -3.05659708E-01 -4.78198526E-07  6.11359385E-03 -1.63769162E-02
  2.44099165E-02  6.40908784E-02 -3.26368360E-08  6.90762197E-08  1.53475976E-02
 -1.74811467E-01  1.18314908E-01  2.77037857E-01  9.85326523E-08  1.11567132E-01
 -7.44212455E-01 -5.77435624E-01 -1.16726373E-06 -6.23035123E-02  7.58212423E-02
 -3.21483464E-02 -1.21692109E-02  1.06804794E-07  7.77180400E-08  2.70003075E-02
 -3.07549044E-01  4.60480447E-01  2.12311907E-01 -1.59125180E-06  1.96282283E-01
 -1.02712423E+00 -5.23908055E-01  3.68064404E-06  9.09844813E-02 -6.72055219E-02
 -5.65575379E-02  9.59479132E-02 -2.57704259E-07 -1.05645360E-07  1.16529589E-02
 -1.32739918E-01  2.33354669E-01 -5.16546548E-02 -5.98258234E-07  8.47116003E-02
 -8.39346593E-01 -3.05644242E-01  5.47928083E-07 -6.11448955E-03  1.63759642E-02
 -2.44097716E-02 -6.40917749E-02 -1.67546506E-08  2.04821811E-08 -1.53474961E-02
  1.74813052E-01  1.18317578E-01  2.77044055E-01 -4.84078094E-07 -1.11557015E-01
 -7.44218177E-01 -5.77454560E-01  1.46469778E-06  6.23049589E-02 -7.58211421E-02
  3.21481322E-02  1.21697667E-02  1.25578688E-07  4.99980103E-08 -2.70003826E-02
  3.07549000E-01  4.60481172E-01  2.12314609E-01  1.22604768E-06 -1.96278241E-01
 -1.02712730E+00 -5.23919466E-01 -2.98328282E-06 -9.09850122E-02  6.72061901E-02
  5.65575747E-02 -9.59475435E-02 -3.00643883E-07 -1.33241602E-07 -1.80534697E-01
  5.77606227E-01  2.37766582E-01 -7.60726942E-01  4.18296695E-01 -1.33832328E+00
  1.80539434E-01 -5.77626619E-01 -2.37769799E-01  7.60740367E-01 -4.18297735E-01
  1.33832802E+00 -2.44492587E-02  2.78495076E-01  3.43451149E-01 -3.08082569E-01
 -2.19552187E-07 -1.77773672E-01 -6.32345078E-01  9.01103645E-01  3.54777381E-07
 -5.46863982E-02  3.31543498E-02  5.12142541E-02  1.09722806E-01 -3.20816641E-08
 -1.58440259E-08 -2.23168527E-02  2.54202134E-01  1.47597525E-02 -4.23128553E-01
 -3.04584181E-07 -1.62240203E-01 -3.60553931E-01  9.96284669E-01  1.00183452E-06
  7.90584198E-02 -9.87118186E-02  4.67469641E-02 -4.29624714E-02  1.65667849E-08
 -8.47634171E-08  2.13295128E-03 -2.42982882E-02  7.94917404E-02 -8.09411193E-02
 -3.02398132E-07  1.54856657E-02 -4.14107239E-01  7.13277422E-01  4.79284491E-07
 -1.53928684E-02  1.72697983E-02 -4.46784101E-03  3.13778710E-02 -7.16127315E-09
 -6.13751881E-09  2.44494021E-02 -2.78493397E-01  3.43450381E-01 -3.08078584E-01
 -6.24292947E-07  1.77774490E-01 -6.32343780E-01  9.01094685E-01  1.56358084E-06
  5.46862307E-02 -3.31532796E-02 -5.12143879E-02 -1.09722760E-01 -9.60117597E-08
  1.01700729E-07  2.23169266E-02 -2.54199638E-01  1.47585092E-02 -4.23122005E-01
  1.05886554E-06  1.62245145E-01 -3.60549560E-01  9.96265005E-01 -2.82942934E-06
 -7.90573409E-02  9.87120351E-02 -4.67470442E-02  4.29619743E-02  6.61282945E-08
 -2.17586995E-07 -2.13314368E-03  2.42961894E-02  7.94850572E-02 -8.09442166E-02
  2.77440172E-07 -1.54963986E-02 -4.14086288E-01  7.13284867E-01 -4.52287534E-07
  1.53922364E-02 -1.72710770E-02  4.46813949E-03 -3.13771924E-02 -6.15715528E-08
  9.91480998E-08 -3.78775106E-01  1.21188503E+00 -3.45738820E-01  1.10620002E+00
  3.30484281E-02 -1.05743490E-01  3.78773847E-01 -1.21187975E+00  3.45735995E-01
 -1.10618643E+00 -3.30453556E-02  1.05729099E-01  7.15008706E-03  4.17917218E-01
 -2.26428260E-01 -3.59385136E-01  1.12533953E-09 -1.71163990E+00  1.43915386E+00
  2.05305369E+00  1.38464916E-06 -1.30718252E-02  7.58298267E-02 -4.20081201E-03
 -5.66506909E-02 -1.13750888E-07  1.13318643E-07 -7.89002690E-03 -4.61167543E-01
 -4.04161149E-01  7.66145417E-02 -5.31638103E-07  1.88880942E+00  2.40557516E+00
 -3.17687870E-01  2.12233899E-06  1.31572505E-02 -8.24091704E-02  4.63470953E-03
  5.33330755E-02  1.06136576E-07  1.87123799E-08 -1.50386276E-02 -8.79078447E-01
  6.22859813E-02  1.25359269E-02  2.53141435E-07  3.60049733E+00 -1.30713701E-01
  3.07343017E-02 -2.08979218E-06 -1.14606188E-01 -1.73976865E-02  8.83307187E-03
 -5.83260981E-02  2.71774438E-07 -3.78976911E-08 -7.14946439E-03 -4.17912773E-01
 -2.26425406E-01 -3.59379865E-01 -2.91274393E-07  1.71163910E+00  1.43912294E+00
  2.05300492E+00  7.72613597E-09  1.30725222E-02 -7.58283344E-02  4.19995448E-03
  5.66505971E-02  9.75954287E-08  1.01877179E-07  7.88943158E-03  4.61157738E-01
 -4.04156368E-01  7.66067766E-02  2.23918074E-07 -1.88879454E+00  2.40551988E+00
 -3.17669407E-01 -6.35950090E-07 -1.31593228E-02  8.24088870E-02 -4.63448360E-03
 -5.33323623E-02 -2.22504521E-08 -1.47291567E-07  1.50385614E-02  8.79074788E-01
  6.22858332E-02  1.25273522E-02 -1.08666197E-07 -3.60048954E+00 -1.30730401E-01
  3.07855696E-02  9.12486442E-07  1.14607490E-01  1.73959952E-02 -8.83330947E-03
  5.83252631E-02  1.50990418E-07 -8.72522747E-08  3.34493015E-02  1.89907054E-01
 -3.69117811E-02 -2.09569950E-01 -7.03515495E-02 -3.99462733E-01 -3.34478787E-02
 -1.89901706E-01  3.69149286E-02  2.09551214E-01  7.03537532E-02  3.99455030E-01
 -1.32375182E-02 -7.73790927E-01 -1.79218774E-01 -1.52440384E-01  3.84373847E-07
  3.16927240E+00  8.75596616E-01  1.03683730E+00 -1.52228103E-06 -1.06210073E-01
 -9.98353975E-03  7.77493762E-03  5.70912405E-02 -2.00749206E-07 -1.34938891E-07
 -1.28105893E-02 -7.48820491E-01  2.56773380E-01  2.52921938E-02 -6.60518304E-07
  3.06697411E+00 -1.49508903E+00  7.04276554E-02  3.60510409E-06 -5.23690295E-03
 -1.07208708E-01  7.52465757E-03 -5.32439202E-02 -2.71551233E-08 -5.76800527E-08
  4.27034879E-04  2.49617167E-02  1.92703476E-01 -4.41151398E-01  1.42928448E-07
 -1.02255020E-01 -1.14668015E+00  2.60671969E+00  1.35420320E-07 -4.47884498E-02
  4.85370146E-02 -2.51416558E-04  5.22953072E-02  1.19512901E-07 -5.72098541E-08
  1.32377593E-02  7.73786150E-01 -1.79214419E-01 -1.52445703E-01  5.18245710E-09
 -3.16925628E+00  8.75603908E-01  1.03686135E+00 -3.74560339E-07  1.06210162E-01
  9.98398334E-03 -7.77592099E-03 -5.70924160E-02 -1.72644073E-07 -3.24933878E-08
  1.28108634E-02  7.48815855E-01  2.56769670E-01  2.52860808E-02  2.99589529E-07
 -3.06695776E+00 -1.49507051E+00  7.04331346E-02 -1.83153165E-06  5.23605675E-03
  1.07210164E-01 -7.52567213E-03  5.32429762E-02  7.73801539E-08 -8.66701904E-08
 -4.27656441E-04 -2.49757057E-02  1.92690870E-01 -4.41154452E-01 -1.44472305E-07
  1.02279378E-01 -1.14665313E+00  2.60670926E+00 -1.13825303E-07  4.47881412E-02
 -4.85393127E-02  2.51195646E-04 -5.22935083E-02  5.94930676E-08  1.00606265E-07
 -6.19252282E-02 -3.51612676E-01 -5.99292273E-02 -3.40270703E-01  2.00494162E-03
  1.13266860E-02  6.19304794E-02  3.51600269E-01  5.99347489E-02  3.40258259E-01
 -1.99815896E-03 -1.13566997E-02 -1.95921507E-03 -3.65567750E-01 -3.22584518E-01
  2.36067429E-01  1.25159281E-07  8.84237556E-01  4.62121955E-01 -3.38265676E-01
 -4.75446711E-07  3.52701013E-03 -2.92549515E-02 -3.27743740E-02 -5.96191506E-02
 -7.52159522E-08 -3.69218463E-08 -1.95891825E-03 -3.65569228E-01  4.31440335E-02
  3.97404017E-01  1.00587350E-07  8.84236217E-01 -6.18587549E-02 -5.69347264E-01
 -4.40125024E-07 -6.57735869E-02  4.00478910E-02 -3.27751315E-02  1.34197575E-02
  8.83806723E-08  1.80858175E-07 -1.95920185E-03 -3.65572149E-01  3.65723522E-01
  1.61339785E-01 -7.80521780E-07  8.84252638E-01 -5.23961442E-01 -2.31114419E-01
  1.65340943E-06  2.36564662E-02 -4.93830777E-02 -3.27745538E-02  4.61997707E-02
 -2.05236217E-07 -1.44819446E-07 -1.95938395E-03 -3.65581111E-01  3.22590790E-01
 -2.36061156E-01 -3.83722870E-07  8.84291043E-01 -4.62155835E-01  3.38225700E-01
  8.31242248E-07  3.52543527E-03 -2.92553051E-02 -3.27743150E-02 -5.96181894E-02
  2.62743812E-08  1.25076875E-07 -1.95920644E-03 -3.65589856E-01 -4.31465437E-02
 -3.97406479E-01  5.81493202E-07  8.84321387E-01  6.18731159E-02  5.69350480E-01
 -1.69352181E-06 -6.57734573E-02  4.00449168E-02 -3.27751283E-02  1.34199341E-02
 -5.39025767E-08 -2.69078398E-07 -1.95927468E-03 -3.65578922E-01 -3.65728366E-01
 -1.61330538E-01 -5.01712184E-07  8.84279577E-01  5.23988010E-01  2.31060331E-01
  1.46178143E-06  2.36540933E-02 -4.93816788E-02 -3.27745280E-02  4.62009808E-02
  9.44764381E-08  9.42629671E-08  2.65718424E-01 -8.49834741E-01  2.65723710E-01
 -8.49842924E-01  2.65718955E-01 -8.49821277E-01  2.65717446E-01 -8.49842255E-01
  2.65722802E-01 -8.49855152E-01  2.65718352E-01 -8.49825322E-01 -6.94872060E-07
  3.92509941E-06  3.07705700E-01  4.20504790E-01  9.03758505E-07 -5.05190637E-05
 -2.55027629E+00 -3.48520285E+00 -6.37671977E-06  6.25695155E-02 -6.25718439E-02
  1.36307257E-06  2.29345227E-02 -9.30958954E-08 -1.00236547E-07  7.79711827E-07
  1.41714190E-05  5.18019129E-01 -5.62373738E-02 -1.85251381E-07 -1.73426698E-07
 -4.29340682E+00  4.66030387E-01  1.15895621E-06 -1.40813255E-02  1.40845638E-02
  1.57958598E-07 -7.40368374E-02  1.16869699E-07 -3.02920165E-08 -5.48661830E-07
 -2.82867214E-06  2.10314752E-01 -4.76734195E-01 -6.00430663E-07  7.90967484E-06
 -1.74314279E+00  3.95121268E+00  4.19740968E-06 -4.84886928E-02  4.84867590E-02
  1.15463278E-06  5.11019761E-02 -7.58775686E-08  1.27849430E-07  2.05671628E-08
 -3.08087935E-06 -3.07710254E-01 -4.20506913E-01  7.89882594E-07  6.73056014E-06
  2.55029346E+00  3.48522401E+00 -5.39261121E-06  6.25703550E-02 -6.25715999E-02
  6.27564090E-07  2.29359363E-02 -5.75005146E-08 -1.37265005E-07 -9.34094164E-09
  1.49725898E-05 -5.18026217E-01  5.62347414E-02 -3.03340279E-07 -2.86148587E-05
  4.29344831E+00 -4.66031858E-01  2.17939343E-06 -1.40829853E-02  1.40843893E-02
  8.54652757E-07 -7.40376228E-02  1.61375805E-07 -1.94229388E-08  4.16564990E-07
  9.47355651E-06 -2.10311041E-01  4.76738065E-01 -6.04616633E-07 -2.31865098E-05
  1.74314302E+00 -3.95122671E+00  4.23362883E-06 -4.84868231E-02  4.84884069E-02
  4.72893018E-07  5.11026849E-02 -5.37722163E-08  1.64340795E-07 -6.42423527E-06
  6.08445426E-06 -2.43453310E-06  2.66720722E-05 -7.19386863E-06  6.46226664E-06
 -6.36967751E-06  6.44009115E-06 -3.00201632E-06  2.26952166E-05 -5.51241471E-06
  1.73258359E-05  2.95750252E-02  8.43384150E-01 -2.50823742E-02 -1.09526393E-01
 -3.83726562E-07 -3.17611128E+00  3.97112208E-01  6.26568336E-01  1.19404709E-06
  3.50916799E-02  7.35082046E-02 -4.23175824E-03 -7.30688964E-02  1.26267397E-08
 -2.44218583E-07 -3.79319076E-02 -1.08168968E+00 -4.08737491E-02  6.17673822E-02
 -4.94844361E-07  4.07359143E+00  3.30380546E-01 -9.97797435E-02  2.51154366E-06
  2.31714038E-03 -1.41603124E-01  5.42712074E-03  2.04387298E-03  7.35350920E-08
 -2.46306063E-07  8.35693553E-03  2.38305049E-01  4.92601457E-02 -1.42784701E-01
 -2.46872792E-08 -8.97499732E-01 -4.22937801E-01  9.93420696E-01  1.54475366E-07
 -1.46177825E-02  4.53028026E-02 -1.19477681E-03  5.56575989E-02 -3.44030482E-07
 -4.32476066E-07  2.95749544E-02  8.43379729E-01  2.50773373E-02  1.09533332E-01
  2.22429725E-07 -3.17615500E+00 -3.97113267E-01 -6.26620929E-01 -2.05293896E-07
  3.50920555E-02  7.35066850E-02 -4.23059671E-03 -7.30712450E-02 -5.90874861E-07
  5.17973721E-07 -3.79318311E-02 -1.08168831E+00  4.08769434E-02 -6.17711214E-02
  2.22317108E-07  4.07360729E+00 -3.30437602E-01  9.98006768E-02  2.73065533E-07
  2.31821295E-03 -1.41603881E-01  5.42659959E-03  2.04316229E-03  8.47183740E-08
  8.73860124E-07  8.35693270E-03  2.38309814E-01 -4.92716656E-02  1.42778832E-01
 -6.36524317E-08 -8.97429442E-01  4.22967357E-01 -9.93390964E-01  4.53576887E-07
 -1.46191954E-02  4.53057815E-02 -1.19645236E-03  5.56549647E-02  4.16675648E-07
  2.74946810E-07  2.16643088E-01  4.26316156E-01 -2.77867737E-01 -5.46781177E-01
  6.12265025E-02  1.20470582E-01  2.16653644E-01  4.26328848E-01 -2.77872437E-01
 -5.46786760E-01  6.12135903E-02  1.20450673E-01  2.67249796E-02  7.62101076E-01
  9.98548300E-02  6.84554692E-02 -8.83890946E-08 -2.87011028E+00 -5.19894203E-01
 -6.34671850E-01  7.23386350E-07  1.03474814E-01 -5.34247882E-03 -3.82252998E-03
 -3.97263959E-02 -3.01575357E-07  4.44515340E-07  1.22504524E-02  3.49338659E-01
 -1.47618751E-01 -2.49900462E-03  1.98324300E-07 -1.31563823E+00  1.04675572E+00
 -9.29606290E-02 -1.86178524E-06  1.18454058E-02  3.31375264E-02 -1.75175790E-03
  6.55500173E-02  1.12141635E-07  5.41912224E-07 -3.89753352E-02 -1.11144686E+00
  6.66065266E-02 -5.88966623E-03 -3.65902146E-07  4.18568368E+00 -1.53134099E-01
  1.85416956E-01  1.21024821E-06 -1.28631855E-01 -1.44841762E-02  5.57558930E-03
 -5.21397566E-02  7.46887867E-07  3.18548546E-07  2.67250060E-02  7.62107024E-01
 -9.98458027E-02 -6.84595223E-02  3.88887561E-07 -2.87006033E+00  5.19843529E-01
  6.34658434E-01 -2.02386771E-06  1.03475045E-01 -5.34120885E-03 -3.82383283E-03
 -3.97236532E-02  1.70728268E-07 -2.79845242E-07  1.22504797E-02  3.49345210E-01
  1.47617026E-01  2.48665766E-03  2.36830189E-08 -1.31557228E+00 -1.04673234E+00
  9.29983145E-02  5.97408868E-08  1.18493523E-02  3.31353884E-02 -1.75342336E-03
  6.55494461E-02 -1.84409797E-09 -4.65361828E-07 -3.89753152E-02 -1.11144642E+00
 -6.66101561E-02  5.89190819E-03 -1.93499232E-07  4.18569805E+00  1.53167593E-01
 -1.85470928E-01 -3.77452895E-07 -1.28631778E-01 -1.44840313E-02  5.57525140E-03
 -5.21408114E-02 -7.86994843E-07 -3.79083975E-07  1.95777822E-01  3.85237281E-01
  8.97429098E-02  1.76596856E-01 -2.85504605E-01 -5.61816501E-01  1.95766155E-01
  3.85223020E-01  8.97291316E-02  1.76578196E-01 -2.85507518E-01 -5.61820866E-01
  4.01459528E-04 -3.11519327E-01  3.46170158E-01 -2.50357943E-01 -2.66889160E-08
 -1.50578270E+00 -7.01833642E-01  1.40355946E+00  2.88198627E-06  6.70680486E-03
 -7.90949474E-02  4.42579194E-02 -8.13418797E-02  1.31890255E-06  1.71268573E-06
  3.46233012E-05 -2.73361803E-02  1.44366206E-03 -3.78287724E-02 -2.04745885E-08
 -1.31935267E-01  1.66895393E+00 -5.81414789E-02 -1.92670367E-06 -1.97755439E-02
  1.34261236E-02  3.87904364E-03 -4.94652793E-02 -2.72523078E-06  1.16764490E-06
 -3.65500326E-04  2.84242671E-01  3.57870917E-01  1.54443816E-01 -1.10794142E-06
  1.37372833E+00 -7.82248111E-01 -1.38042807E+00  1.57467317E-06 -3.53266858E-02
  1.01375717E-01 -4.03797644E-02 -4.22355410E-02  2.59229763E-06 -1.22673601E-06
 -4.00867492E-04  3.11534134E-01  3.46173355E-01 -2.50354595E-01 -6.22807545E-07
  1.50572756E+00 -7.01870376E-01  1.40352332E+00  6.31622605E-08 -6.70787546E-03
  7.90981963E-02 -4.42581067E-02  8.13399181E-02  2.29397922E-06  6.11143384E-07
 -3.60992632E-05  2.73001305E-02  1.44313636E-03 -3.78279942E-02  1.50520129E-07
  1.32077773E-01  1.66894845E+00 -5.81569316E-02  1.01040854E-06  1.97751753E-02
 -1.34310833E-02 -3.87853692E-03  4.94645423E-02 -2.71212342E-06  3.20050324E-07
  3.66383528E-04 -2.84221369E-01  3.57869748E-01  1.54446203E-01  9.83421338E-07
 -1.37381588E+00 -7.82232146E-01 -1.38044520E+00 -2.46597920E-06  3.53275533E-02
 -1.01373531E-01  4.03795073E-02  4.22383284E-02  1.55677820E-06 -1.95706622E-06
  4.05509599E-01  6.86230499E-01  3.55374662E-02  6.01374041E-02 -3.69941075E-01
 -6.26051558E-01 -4.05506200E-01 -6.86227136E-01 -3.55466992E-02 -6.01480868E-02
  3.69946731E-01  6.26059154E-01 -1.90642829E-04  1.48350184E-01 -1.61196935E-01
  1.24152754E-01  1.68326099E-07  7.16921483E-01  1.42685799E+00  8.25066742E-01
  2.28112201E-06  4.48900348E-02 -1.04188192E-02 -2.10724780E-02  5.63501879E-02
  2.51857332E-07 -5.80711154E-07 -4.42954898E-04  3.43957212E-01  5.13338462E-02
  4.68873629E-01  2.34758111E-07  1.66249610E+00 -3.47856216E-02 -1.54574009E+00
 -5.92742692E-07  1.25591779E-01 -4.56652659E-02 -4.88660424E-02 -2.59799159E-02
  1.89604997E-07  2.67492930E-07 -2.52096174E-04  1.95629104E-01  2.43605884E-01
  1.12454418E-01 -6.83124022E-07  9.45594215E-01 -1.35708091E+00  9.05553913E-01
  3.48115165E-06  1.65190565E-02  2.89408891E-02 -2.77942497E-02 -7.21137060E-02
  2.99975204E-07  8.41501884E-07  1.91971727E-04 -1.48317947E-01 -1.61197396E-01
  1.24150540E-01  2.19136841E-07 -7.17048084E-01  1.42685658E+00  8.25091357E-01
 -4.37109649E-06 -4.48858025E-02  1.04195068E-02  2.10719128E-02 -5.63523215E-02
  4.91691028E-07 -7.74537444E-07  4.42873459E-04 -3.43959344E-01  5.13381035E-02
  4.68873391E-01 -9.47489840E-07 -1.66249006E+00 -3.48297445E-02 -1.54573823E+00
  3.99991331E-06 -1.25591219E-01  4.56645772E-02  4.88659645E-02  2.59829870E-02
  3.60459254E-07 -8.99290680E-07  2.50855605E-04 -1.95659635E-01  2.43605354E-01
  1.12456287E-01  5.94263450E-07 -9.45472414E-01 -1.35708427E+00  9.05530757E-01
 -4.06690004E-06 -1.65235431E-02 -2.89407147E-02  2.77945384E-02  7.21134018E-02
 -5.85234279E-07  8.28726407E-07 -1.93061170E-01 -3.26709262E-01 -4.47718632E-01
 -7.57655361E-01 -2.54637046E-01 -4.30912535E-01  1.93069566E-01  3.26717837E-01
  4.47718683E-01  7.57655153E-01  2.54629584E-01  4.30902484E-01 -1.12911868E-02
 -5.80711268E-01  5.37754983E-02 -3.93537155E-02  4.60552808E-07  7.87623908E-01
  1.02210246E+00 -7.47851049E-01  9.99306382E-07 -6.26310773E-02 -3.84713211E-02
  2.33308837E-02  4.39415876E-02  1.43535535E-06 -7.77922681E-07  1.12909955E-02
  5.80710760E-01  7.18553069E-03  6.62488225E-02  5.99299211E-07 -7.87587966E-01
  1.36703873E-01  1.25907549E+00 -9.58736675E-07  1.15560922E-02  8.95465848E-02
 -2.33309029E-02  9.89077192E-03 -6.15191674E-07 -7.20671430E-07 -1.12915475E-02
 -5.80706421E-01 -6.09537183E-02 -2.68940574E-02 -5.59533505E-07  7.87713579E-01
 -1.15878817E+00 -5.11175161E-01  4.30409720E-06 -7.74699502E-02 -2.36314829E-02
  2.33297546E-02 -3.40536220E-02  1.50776824E-07  7.10579356E-10  1.12911318E-02
  5.80710649E-01  5.37769935E-02 -3.93518527E-02  4.50682238E-07 -7.87618963E-01
  1.02212166E+00 -7.47826918E-01 -2.38041755E-06  6.26310045E-02  3.84713092E-02
 -2.33308068E-02 -4.39415713E-02 -1.36392682E-06  2.98105312E-07 -1.12908902E-02
 -5.80709674E-01  7.18837696E-03  6.62485012E-02  2.74317043E-07  7.87577752E-01
  1.36731347E-01  1.25907441E+00 -2.98532003E-07 -1.15560940E-02 -8.95465409E-02
  2.33308438E-02 -9.89064275E-03  5.01520584E-07  2.02802979E-06  1.12914945E-02
  5.80705556E-01 -6.09524393E-02 -2.68972284E-02  4.12024098E-07 -7.87708654E-01
 -1.15877957E+00 -5.11197231E-01 -2.20069785E-06  7.74699631E-02  2.36313415E-02
 -2.33296964E-02  3.40534707E-02  1.72255354E-06  7.25715282E-07 -4.55497317E-01
 -5.81109423E-01  4.55492212E-01  5.81105806E-01 -4.55511711E-01 -5.81132688E-01
  4.55497321E-01  5.81109430E-01 -4.55491824E-01 -5.81105340E-01  4.55511664E-01
  5.81132656E-01  4.30605639E-08 -2.30791860E-06  2.67791285E-06 -2.35452088E-06
  1.90114851E-06 -1.69722321E-05 -4.25702160E-06  1.45184822E-05 -1.52252311E-06
  4.49589145E-07 -4.04670643E-07 -1.79503976E-07 -4.92953018E-07 -2.00107260E-01
 -2.73460441E-01  1.50176961E-08 -6.41968023E-07 -5.85487379E-07 -9.60456526E-07
  1.70098768E-06 -5.01639849E-06  2.19707355E-05  9.42663215E-07 -9.80616681E-07
 -4.15965876E-07  3.38268132E-07  3.78093258E-08 -9.23311254E-07  3.36878323E-01
 -3.65624146E-02 -3.17018712E-08  1.63040361E-06  2.14834368E-06  1.41269763E-06
  4.91577869E-07  1.22004994E-05 -6.63187498E-07 -1.95747268E-05 -1.85311477E-07
 -6.92404133E-07  7.08244358E-07  7.96188170E-08  1.01624311E-07 -1.36773353E-01
  3.10026249E-01 -4.65790641E-08  2.27398670E-06  2.97057758E-06 -1.95828091E-06
 -4.35515065E-07  1.72070460E-05 -1.00415045E-05  6.29690548E-06  3.85413835E-07
 -2.39623030E-07  3.28274321E-07  4.66894378E-08  6.24603438E-07 -2.00104947E-01
 -2.73461859E-01 -1.13745015E-08  6.77049855E-07 -9.59468972E-08 -1.01129534E-06
 -2.57054310E-07  4.77335959E-06  1.19967494E-05  2.22006635E-06 -3.07037029E-08
  2.45018732E-07 -3.05824430E-07  9.98966718E-08  7.53400988E-07  3.36877730E-01
 -3.65650573E-02  3.15773430E-08 -1.63155143E-06  2.34232536E-06  9.72772655E-07
  9.38640009E-07 -1.21922743E-05 -4.75990580E-06 -1.03054230E-05 -5.54600091E-07
  6.80173372E-07 -6.91071265E-07 -8.45185246E-08 -8.98722196E-08 -1.36775714E-01
  3.10025115E-01  3.62867152E-06  6.13777555E-06  1.02040946E-06  1.71866844E-06
 -2.57805113E-06 -4.36834120E-06 -3.59932051E-06 -6.08852755E-06 -1.05085777E-06
 -1.76974545E-06  2.57915070E-06  4.37016838E-06 -8.78006303E-07 -1.73041626E-05
  1.42736035E-06 -2.30092738E-06 -5.44690886E-02  9.05303089E-05 -5.62052854E-05
  3.98801963E-05 -1.20450143E-02  2.97792756E-07 -5.65912238E-07 -3.56277189E-07
 -4.90490560E-07 -2.98935577E-01  2.18744192E-01  6.08573880E-07  1.19095836E-05
 -2.89988878E-06  1.66404792E-06 -5.44673177E-02 -6.77310679E-05 -9.99094670E-06
 -5.04299682E-05 -1.20464306E-02 -8.98300237E-08 -3.80371315E-07  8.85081042E-07
 -1.03924797E-06  3.99726036E-02  3.68256486E-01 -9.55097708E-08 -1.88763251E-06
  1.37530174E-06 -3.57408309E-06 -5.44684589E-02  1.79268882E-05  3.46217028E-06
  3.40527007E-06 -1.20429477E-02  2.21620585E-06 -8.01685734E-07 -1.31618716E-06
 -2.09241366E-07  3.38903568E-01  1.49513866E-01 -1.02679664E-07 -2.84871301E-06
 -2.67846978E-06  2.91599532E-06 -5.44690672E-02 -6.48808719E-06  2.51911238E-05
 -2.58077081E-05 -1.20447920E-02  7.06679315E-07 -8.29290614E-07 -7.21791982E-08
 -1.32423511E-06  2.98936412E-01 -2.18742247E-01 -1.64465038E-07 -2.58389854E-06
  2.51581401E-06 -2.87330933E-06 -5.44671689E-02  2.87498111E-05 -8.22393538E-07
  1.76627113E-05 -1.20467195E-02  5.33320790E-07 -1.14641706E-06  6.06657233E-07
 -1.34035244E-06 -3.99746877E-02 -3.68255730E-01  6.15477873E-07  1.36403540E-05
 -3.45328311E-06  2.66713839E-06 -5.44684925E-02 -6.39636701E-05  3.73475531E-05
  1.48787134E-05 -1.20427021E-02  1.72816237E-06 -2.40751398E-07 -1.19224144E-06
 -8.66332727E-07 -3.38902425E-01 -1.49515965E-01  8.58173790E-06  1.50317437E-05
 -6.60766223E-06 -1.08758610E-05 -1.30510557E-06 -3.76800951E-07  9.10908145E-06
  1.54526502E-05 -7.04348248E-06 -1.10354306E-05 -3.35670699E-06 -7.32019496E-06
  3.21398333E-02  6.69889649E-01 -2.47451887E-01  3.36801285E-02 -8.86447364E-07
 -2.77691404E+00  2.86973582E+00 -2.08290721E+00 -2.60845564E-06  4.06861294E-02
 -2.58450417E-04 -2.07843627E-02  6.06352896E-02 -8.39566156E-06 -3.92948944E-06
 -3.29297433E-03 -6.86365939E-02  2.79799259E-01 -5.30031396E-02 -7.29805642E-07
  2.84479648E-01  6.68205395E-03  3.64734320E-01  5.65660839E-07  1.16659661E-02
 -1.58063638E-02  2.13012054E-03  9.63968171E-02  1.05738590E-05  2.47863927E-06
 -2.88466113E-02 -6.01249395E-01 -2.46893541E-01  7.13535099E-02  2.26629952E-06
  2.49238271E+00  2.91953546E+00  1.26713886E+00 -3.73188499E-06 -2.78565509E-02
 -8.42623001E-03  1.86544718E-02  7.17822958E-02 -2.32994744E-06  1.28242622E-06
  3.21398028E-02  6.69889350E-01  2.47451991E-01 -3.36793947E-02 -3.66742388E-06
 -2.77689889E+00 -2.86976079E+00  2.08286645E+00  2.52007611E-06  4.06846889E-02
 -2.57653943E-04 -2.07843277E-02  6.06352857E-02  1.50717255E-05  1.05679397E-08
 -3.29311823E-03 -6.86371145E-02 -2.79799498E-01  5.30028920E-02 -2.44145721E-06
  2.84531023E-01 -6.69349992E-03 -3.64739476E-01 -1.31585638E-06  1.16661984E-02
 -1.58081461E-02  2.13025920E-03  9.63968498E-02 -1.20384998E-05 -8.60912470E-06
 -2.88467474E-02 -6.01250020E-01  2.46893219E-01 -7.13544687E-02  2.26231446E-06
  2.49242018E+00 -2.91952512E+00 -1.26716937E+00 -5.87043386E-07 -2.78581981E-02
 -8.42552656E-03  1.86546017E-02  7.17825403E-02  2.42059965E-06  5.08149383E-07
 -5.92120127E-01 -1.06635662E+00  6.06701734E-02  1.09267865E-01  5.31445569E-01
  9.57088740E-01 -5.92120500E-01 -1.06635559E+00  6.06680748E-02  1.09268064E-01
  5.31443953E-01  9.57087887E-01  1.47543115E-02  3.07513467E-01  7.16759533E-02
  2.68642339E-01  2.02686556E-06 -1.27473259E+00  1.29595079E+00 -9.85329451E-01
  2.22250502E-06 -7.03135157E-02  8.88738556E-02 -9.54566305E-03 -4.78495654E-03
  3.87377847E-06 -2.93712293E-06 -3.52110666E-02 -7.33899248E-01 -5.23594710E-02
 -2.36297685E-01  2.53489888E-07  3.04226700E+00  4.22256437E-01  3.86171613E+00
  2.91066038E-07 -7.07678681E-02  2.64804726E-02  2.27685902E-02  2.99184399E-03
 -5.29672401E-06  3.69346011E-07  2.04574283E-02  4.26387189E-01  3.40046377E-02
  2.69198352E-01 -1.51698179E-06 -1.76752088E+00 -2.05418044E+00 -9.35550117E-01
  4.30101268E-06 -5.70736889E-02  8.28084694E-02 -1.32327234E-02  3.00749751E-02
  5.78239988E-06 -2.27034366E-06  1.47543884E-02  3.07513455E-01 -7.16757879E-02
 -2.68642138E-01 -7.22551406E-07 -1.27477384E+00 -1.29597047E+00  9.85312736E-01
  2.14165404E-06 -7.03131539E-02  8.88748599E-02 -9.54572046E-03 -4.78610828E-03
  4.12945990E-06 -1.63978604E-06 -3.52110911E-02 -7.33898871E-01  5.23594907E-02
  2.36297459E-01 -3.14433646E-06  3.04226876E+00 -4.22302055E-01 -3.86170937E+00
  4.81377928E-06 -7.07675384E-02  2.64802550E-02  2.27686773E-02  2.99318281E-03
  3.11955564E-06 -1.01199876E-05  2.04572400E-02  4.26385975E-01 -3.40052467E-02
 -2.69198071E-01 -1.45365541E-06 -1.76747254E+00  2.05416731E+00  9.35566311E-01
  2.17067162E-06 -5.70744713E-02  8.28078993E-02 -1.32325107E-02  3.00737803E-02
 -6.97612855E-06  4.13299932E-06 -2.71804043E-01 -4.89495183E-01  6.48687463E-01
  1.16823437E+00 -3.76891537E-01 -6.78752683E-01 -2.71802236E-01 -4.89496259E-01
  6.48687069E-01  1.16823327E+00 -3.76893218E-01 -6.78753426E-01 -3.57970435E-07
 -6.94629390E-06  4.57175719E-06  3.49480132E-06 -9.72254971E-02  3.25905672E-05
 -2.28807066E-05  2.48851554E-05 -1.03439160E-01 -1.52824811E-06  1.31128525E-06
 -3.54193938E-08 -4.00383307E-07 -1.84184326E-01  1.71110027E-01 -4.11559208E-07
 -7.96460969E-06 -4.98036519E-06 -2.00088787E-06  5.40625248E-02  3.18797692E-05
  1.04067410E-05  4.29248769E-05  5.75145008E-02 -5.75199083E-07  4.54499358E-07
 -1.81152905E-07 -2.27655021E-06  3.60617404E-01 -1.78793835E-01  6.52717602E-07
  1.31467322E-05  3.92711479E-06  2.85550868E-06  4.31661016E-02 -5.23799898E-05
 -6.69636269E-05 -3.42270000E-05  4.59234405E-02 -9.98729359E-07  1.21760004E-06
 -1.92602220E-08 -1.48838208E-07 -2.65754009E-01  3.27742646E-01 -1.74217226E-07
 -4.15803243E-06 -4.89178005E-06 -3.05637585E-06 -9.72255213E-02  1.27865639E-05
  1.89116950E-05 -1.98117258E-05 -1.03439301E-01 -1.14924090E-06  1.24331639E-06
 -1.16316237E-07 -1.48543952E-06  1.84185095E-01 -1.71109336E-01 -5.11750546E-07
 -1.05735107E-05  4.81122820E-06  2.84687617E-06  5.40607849E-02  4.51630208E-05
 -1.26688726E-05 -5.19565288E-05  5.75157340E-02 -1.02598636E-06  1.24520735E-06
 -3.31112083E-07 -1.87981272E-06 -3.60617153E-01  1.78792447E-01  7.80835318E-07
  1.53969690E-05 -4.05583099E-06 -2.42405290E-06  4.31643115E-02 -6.90958759E-05
  7.19349571E-05  3.95959200E-05  4.59244354E-02 -9.68599203E-07  1.24460941E-06
 -1.00384047E-07 -1.53869031E-07  2.65753026E-01 -3.27742729E-01  4.99843176E-06
  9.17629175E-06  7.80346594E-06  1.36479793E-05 -1.30757646E-05 -2.38796006E-05
  5.15256648E-06  9.33315499E-06  8.17018864E-06  1.57416033E-05 -1.29019115E-05
 -2.44382786E-05  8.14556201E-07  1.63161543E-05 -5.28733710E-06  9.96831076E-07
  6.28859566E-03 -7.42416611E-05  6.82349083E-05 -5.10490918E-05  6.69448627E-03
  5.22656418E-07  1.81413228E-07 -6.61783014E-07  6.16471602E-07  2.80654417E-01
  3.56183435E-01 -2.95594061E-07 -5.30182940E-06  6.05636135E-06 -1.27068022E-06
  8.10535188E-02  2.67311783E-05 -1.46511496E-06  1.64708202E-05  8.62356260E-02
  9.38395650E-07 -1.31788033E-07 -1.08323387E-06  2.54359568E-06 -2.72973402E-01
 -1.79753157E-01 -4.87295392E-07 -1.05148740E-05 -5.61434047E-06  1.74056334E-06
 -8.73455457E-02  3.54696855E-05  5.51052704E-05  2.72753296E-05 -9.29284564E-02
  1.47048443E-07  2.25045555E-07 -7.52406639E-07  2.12808694E-06  1.24019260E-01
  2.74619551E-01  5.68604129E-07  1.12807279E-05  4.88774403E-06 -4.74561665E-07
  6.28981161E-03 -4.48773712E-05 -5.58613578E-05  4.21293797E-05  6.69337288E-03
  9.68210226E-07 -7.12912852E-08 -7.90161183E-07  5.80058815E-07 -2.80652444E-01
 -3.56184117E-01 -9.37381239E-09 -1.60457058E-07 -6.07386219E-06  1.26734187E-06
  8.10535746E-02 -5.71520740E-06  1.65064697E-06 -2.54454516E-06  8.62354774E-02
  3.05927562E-07  6.13132712E-07 -1.05894261E-06  2.42313384E-06  2.72973452E-01
  1.79749321E-01 -7.27140473E-07 -1.46657395E-05  5.37300944E-06 -1.61263079E-06
 -8.73467776E-02  6.69669337E-05 -6.69619115E-05 -3.10159501E-05 -9.29278792E-02
  7.65490152E-08  1.62240024E-07 -5.77170002E-07  2.11334333E-06 -1.24020932E-01
 -2.74619737E-01 -1.31113835E-05 -2.53392060E-05  1.31178064E-06  2.89600751E-06
  1.14890806E-05  2.01995768E-05 -1.27675687E-05 -2.29429545E-05  1.20183933E-06
  1.54796073E-06  1.11079928E-05  2.11306236E-05 -1.22612524E-07 -1.66381252E-06
  3.96755398E-08 -1.29326747E-06  1.17475382E-01  8.86485194E-06 -1.76889562E-05
  8.67549692E-06 -5.20394788E-02 -1.96064529E-08 -1.90709707E-07 -5.47874782E-08
 -2.19198927E-07  3.42865345E-01 -3.16571157E-01  7.20938519E-08  1.42528229E-06
 -1.72583230E-06  1.07909443E-06  6.08374459E-03 -4.67737204E-06 -5.24926426E-06
 -1.67140914E-05 -2.69341178E-03  1.57538246E-07  2.81313132E-07 -3.05035130E-07
  5.00584253E-07 -1.17115993E-01 -1.14428195E-02  1.58665872E-07  1.89113611E-06
 -2.36162703E-07 -2.57733996E-06 -1.11390801E-01 -2.11440376E-05 -5.05465140E-06
 -3.72561352E-07  4.93423565E-02  1.97349106E-06 -6.55059160E-07 -1.03254466E-06
  8.64452361E-07  3.77120954E-01  2.34352194E-01 -3.28480624E-07 -7.64293481E-06
 -1.99794382E-06  2.30238765E-06 -1.17475200E-01  3.01264889E-05  2.74609407E-05
 -2.49851611E-05  5.20385414E-02  9.12689746E-07 -7.56528500E-07 -4.96980127E-08
 -1.33904405E-06  3.42864777E-01 -3.16571843E-01  2.89004586E-07  6.74050801E-06
  6.38844213E-07 -2.24422184E-06 -6.08450934E-03 -2.86179117E-05 -1.23399982E-06
  3.21173863E-05  2.69523139E-03  4.34331420E-07  5.16146715E-08 -5.63139509E-07
 -1.12452848E-06 -1.17116479E-01 -1.14435968E-02 -1.27798721E-07 -4.98030273E-07
 -2.52369486E-06  1.20762641E-06  1.11391296E-01  1.64799021E-05  3.35397677E-06
  1.50878561E-06 -4.93432352E-02 -5.85800879E-07 -5.77885645E-08  3.85040107E-07
 -1.40092863E-06  3.77121846E-01  2.34351130E-01  4.16741830E-06  6.67030850E-06
 -4.12793391E-06 -6.43481003E-06  4.25368384E-07  9.46895517E-07  5.23711050E-06
  1.12622970E-05 -4.54336023E-06 -9.38667202E-06 -2.15807443E-06 -3.86369130E-06
  2.20394995E-07  6.45464777E-06 -1.60893817E-06  3.26714654E-06 -6.07978629E-02
 -1.30384946E-05  2.54566134E-05 -1.97817141E-05  2.69315387E-02  1.77492841E-07
  8.69066707E-07 -1.06074202E-06  6.81520653E-07 -2.54126825E-01  5.90492366E-02
 -2.44850820E-07 -5.47735657E-06  1.19268351E-06 -2.34224474E-06 -1.32134958E-01
  1.71474081E-05  7.75834862E-07  2.94254065E-05  5.85327781E-02 -1.04257730E-06
 -3.71954670E-07  1.16387088E-06  6.81800292E-07  5.09999938E-02  5.19030789E-01
 -5.43962512E-08 -4.50963016E-07 -1.59873491E-06  3.05723905E-06 -7.13378514E-02
  9.38039343E-06  7.59434997E-06  3.68158443E-06  3.16019808E-02  8.18562181E-07
  3.87228564E-07 -1.09386047E-06  9.13177552E-07  2.96792585E-01  2.47928051E-02
  3.73084817E-07  6.54942077E-06  3.27819182E-07 -2.53795301E-06  6.07983763E-02
 -4.04714596E-05 -3.67520251E-05  2.76755553E-05 -2.69333958E-02 -6.42573398E-07
  6.03475731E-07  1.87100291E-07  1.56826359E-07 -2.54128789E-01  5.90472887E-02
 -3.89725143E-07 -7.95052604E-06 -1.34417645E-06  3.29133814E-06  1.32135812E-01
  3.86719404E-05 -6.82955922E-06 -5.12942679E-05 -5.85319369E-02 -7.48259456E-07
  1.68428195E-06 -8.79282816E-07  5.92224240E-07  5.09997107E-02  5.19033002E-01
  6.01967564E-08  1.02537500E-06  8.56063596E-07 -3.11145772E-06  7.13367819E-02
 -1.10729711E-05  9.78273483E-06  7.41466537E-06 -3.16009932E-02 -1.67775063E-06
  8.66250366E-07  7.15061845E-07  5.76238444E-07  2.96792583E-01  2.47892402E-02
 -6.13521049E-06 -1.16297405E-05  5.19000712E-06  9.72038216E-06  9.97628419E-07
  2.23123790E-06 -7.45133039E-06 -1.35194750E-05  8.57080003E-06  1.61998198E-05
 -1.76913741E-06 -3.48378753E-06  1.51119838E-02  2.25733188E-01 -6.45479604E-02
  4.72187172E-02 -1.50644224E-07 -3.19412088E-01 -5.01626050E-02  3.67421056E-02
  4.93995670E-07 -1.61229480E-01 -1.56096434E-01  4.27826297E-01  9.25248491E-03
 -4.11025873E-08  7.29629439E-07  1.51111910E-02  2.25720737E-01  8.64227591E-03
  7.95035960E-02  4.04967337E-07 -3.19337908E-01  6.71601154E-03  6.18984960E-02
  5.38335091E-08 -1.50449529E-01 -1.66877929E-01  4.27829559E-01 -2.10696092E-03
 -6.62825843E-07 -7.50388601E-07  1.51123066E-02  2.25730169E-01  7.31625177E-02
  3.22934074E-02 -4.85747930E-07 -3.19408900E-01  5.69003634E-02  2.50724765E-02
 -4.28706267E-07 -1.64323097E-01 -1.53002106E-01  4.27825969E-01 -7.18863022E-03
  1.32109691E-06  9.84877078E-07  1.51117600E-02  2.25729327E-01  6.45322270E-02
 -4.72397000E-02 -8.27237225E-08 -3.19381458E-01  5.01983821E-02 -3.67268531E-02
 -4.27951690E-07 -1.61194599E-01 -1.56130878E-01  4.27826124E-01  9.26517974E-03
 -8.44552563E-08 -1.09346840E-06  1.51114325E-02  2.25723926E-01 -8.61634748E-03
 -7.95062212E-02  3.29186383E-07 -3.19371248E-01 -6.74561884E-03 -6.18765900E-02
  9.64332498E-07 -1.50441440E-01 -1.66885892E-01  4.27829121E-01 -2.06608165E-03
  2.91407804E-07  8.61974164E-07  1.51120833E-02  2.25726442E-01 -7.31726996E-02
 -3.22697685E-02 -1.95916262E-07 -3.19378118E-01 -5.69063818E-02 -2.51075404E-02
 -1.02857136E-06 -1.64349614E-01 -1.52975260E-01  4.27825918E-01 -7.16040026E-03
 -3.30010892E-07 -5.32857442E-07  1.46625708E-01  1.17492850E-01  1.46637350E-01
  1.17519148E-01  1.46624743E-01  1.17492938E-01  1.46627061E-01  1.17497158E-01
  1.46636372E-01  1.17515469E-01  1.46626052E-01  1.17497168E-01 -9.29955094E-07
  3.14561687E-06 -1.30351017E-01 -1.78145293E-01 -8.17522061E-08 -6.25586296E-05
  1.57246742E-01  2.14808255E-01 -7.66098005E-08 -3.03577000E-01  3.03590022E-01
 -2.14949845E-05 -1.11280150E-01  2.88856300E-07 -1.99303855E-07 -1.96576303E-06
 -1.51294690E-05  2.19452744E-01 -2.38242609E-02  8.98519011E-09  9.06760479E-05
 -2.64646888E-01  2.87566144E-02 -5.72245293E-08 -6.83369342E-02  6.83548303E-02
 -2.45150806E-05 -3.59222552E-01 -7.38501598E-08 -1.14495487E-07 -7.09629857E-07
 -2.00465739E-06 -8.91033165E-02  2.01954486E-01  4.20122960E-08 -5.02200865E-05
  1.07404796E-01 -2.43584063E-01  7.80789006E-08  2.35263272E-01 -2.35242113E-01
 -2.85620222E-05 -2.47942473E-01  2.70639966E-07  6.76883191E-08 -1.66363796E-06
 -2.17733966E-05 -1.30359826E-01 -1.78138585E-01  3.47229578E-08  9.77772427E-05
  1.57238836E-01  2.14812986E-01  1.33104986E-07  3.03597659E-01 -3.03574066E-01
 -2.92044400E-05  1.11270098E-01  3.15083889E-07 -2.38656876E-07 -6.09975968E-07
 -3.92840948E-06  2.19453876E-01 -2.38132955E-02  3.97463344E-08 -5.49921787E-05
 -2.64646282E-01  2.87666722E-02 -1.43045173E-09  6.83463960E-02 -6.83274333E-02
 -2.64173431E-05  3.59224330E-01 -9.16982247E-08 -6.63130885E-08 -1.83222190E-06
 -1.78610298E-05 -8.90931225E-02  2.01958812E-01 -4.37066997E-08  8.67362520E-05
  1.07414793E-01 -2.43578806E-01 -7.58507035E-08 -2.35238291E-01  2.35254383E-01
 -2.27673348E-05  2.47950136E-01  1.88883093E-07  2.49225399E-07 -1.66978461E-05
 -1.31422259E-05 -1.31728838E-05 -9.48200094E-07 -2.26694313E-05 -1.25391179E-05
 -1.14897519E-05  3.97837987E-06 -1.48902019E-05 -9.18158652E-06 -5.27129994E-06
  1.04638898E-06  8.64542996E-03 -1.94384084E-01  4.13727272E-04 -3.04456068E-04
  1.34373450E-07 -5.37625220E-02 -1.72735212E-01  1.26431134E-01  7.41039912E-07
 -1.26009368E-01  7.14628220E-02  1.11494245E-02  3.59170324E-01 -1.09686225E-07
  6.84871414E-07  8.64539385E-03 -1.94393869E-01 -5.27515649E-05 -5.17013272E-04
 -3.72408724E-07 -5.37313234E-02  2.31244743E-02  2.12848651E-01  4.45404872E-07
  2.91469487E-01 -3.46018371E-01  1.11497976E-02 -8.08525023E-02 -5.95405024E-07
  1.59233031E-07  8.64506720E-03 -1.94382238E-01 -4.70779586E-04 -2.01911462E-04
 -5.29347009E-08 -5.37559193E-02  1.95876838E-01  8.63761793E-02 -8.19307539E-07
 -2.47279286E-01  1.92727136E-01  1.11532365E-02 -2.78327995E-01  1.14985000E-06
  6.44891964E-07  8.64523726E-03 -1.94387401E-01 -4.17992637E-04  2.99364491E-04
 -6.25259567E-08 -5.37363851E-02  1.72757271E-01 -1.26430678E-01 -6.97206925E-07
 -1.26000302E-01  7.14541130E-02  1.11493240E-02  3.59172984E-01 -2.14769805E-09
 -8.98366740E-07  8.64560184E-03 -1.94390889E-01  5.95594847E-05  5.16564811E-04
 -1.90851634E-07 -5.37630088E-02 -2.31329991E-02 -2.12830361E-01  1.87255628E-06
  2.91470840E-01 -3.46019581E-01  1.11492740E-02 -8.08422530E-02  3.46546921E-07
 -1.62134672E-07  8.64487333E-03 -1.94385589E-01  4.68204661E-04  2.08663866E-04
  1.82461801E-07 -5.37292286E-02 -1.95890372E-01 -8.63892054E-02 -1.94609872E-06
 -2.47285257E-01  1.92733448E-01  1.11531701E-02 -2.78321046E-01  5.03557215E-07
  9.41208002E-08  3.43420392E-01  2.32487389E-02  3.43424665E-01  2.32608128E-02
  3.43425385E-01  2.32536611E-02  3.43421225E-01  2.32526839E-02  3.43423172E-01
  2.32573555E-02  3.43426369E-01  2.32576046E-02 -7.48218404E-02 -1.21408927E+00
  6.17916163E-02 -4.52106352E-02  5.37296425E-07  1.08846319E+01 -5.58911342E+00
  4.08983067E+00 -4.24625865E-06  2.63167766E-02  1.55767145E-02  9.39116996E-02
 -1.95511831E-02  3.96641823E-06  2.89585427E-07  7.48218916E-02  1.21408980E+00
  8.26967181E-03  7.61221823E-02  2.98447109E-07 -1.08846540E+01 -7.47301762E-01
 -6.88519450E+00 -6.28827484E-06 -3.59087567E-03 -3.83082297E-02 -9.39072367E-02
 -4.40367963E-03 -1.21134765E-06 -1.67493045E-06 -7.48218589E-02 -1.21409413E+00
 -7.00582844E-02 -3.08957849E-02  8.78753162E-07  1.08846417E+01  6.33647926E+00
  2.79537557E+00 -1.30323062E-05  3.29237040E-02  8.97395122E-03  9.39066932E-02
  1.51454879E-02 -2.31976937E-06  3.11500152E-07  7.48220229E-02  1.21409072E+00
  6.17923635E-02 -4.52100182E-02 -1.57907210E-07 -1.08846439E+01 -5.58916889E+00
  4.08976295E+00  4.61129324E-06 -2.63196730E-02 -1.55746788E-02 -9.39106218E-02
  1.95513229E-02 -3.09322125E-07  5.76122308E-07 -7.48218976E-02 -1.21409082E+00
  8.26994558E-03  7.61218368E-02  9.26489739E-08  1.08846734E+01 -7.47384828E-01
 -6.88519067E+00  6.43325168E-06  3.59155027E-03  3.83061258E-02  9.39091075E-02
  4.40568336E-03  1.54739647E-06  1.70259108E-06  7.48220156E-02  1.21409532E+00
 -7.00587297E-02 -3.08954477E-02 -1.69591624E-07 -1.08846494E+01  6.33645137E+00
  2.79544730E+00  7.20607764E-06 -3.29237156E-02 -8.97484238E-03 -9.39055495E-02
 -1.51473722E-02  1.87792305E-06  2.25572192E-06  4.54608837E-01  1.54104010E+00
 -4.54590295E-01 -1.54102423E+00  4.54611468E-01  1.54104229E+00 -4.54607949E-01
 -1.54104087E+00  4.54591534E-01  1.54102369E+00 -4.54610516E-01 -1.54104312E+00
 -7.98755864E-03 -1.31957689E-01  1.84942070E-01  3.02848133E-02  2.24592599E-07
  6.99573575E-01 -1.01328185E-01 -4.22969540E-01 -2.15185205E-06  2.14386282E-01
  4.00376197E-02 -2.20911602E-01 -3.85920834E-01  9.19710475E-07 -9.95757867E-07
  9.71152386E-04  1.60386366E-02  2.28481781E-01 -8.73437400E-03 -1.40338439E-07
 -8.50593097E-02 -6.78414041E-01  9.41982557E-02  1.52502633E-06  3.21004022E-02
 -6.30379527E-02  2.68598995E-02  2.43100794E-02  8.34989154E-08  1.43052604E-06
  8.95899439E-03  1.48010516E-01  1.72922359E-01 -2.69261320E-02 -4.27959659E-07
 -7.84697152E-01  5.79768843E-02  3.35368483E-01 -9.41684443E-07 -3.94081137E-01
  1.08721576E-01  2.47771816E-01 -3.39862859E-01  9.83724953E-07  1.22369735E-06
  7.98749088E-03  1.31960114E-01  1.84942342E-01  3.02829154E-02 -4.34651155E-07
 -6.99573590E-01 -1.01320741E-01 -4.22956028E-01  3.88923881E-07 -2.14382061E-01
 -4.00409658E-02  2.20911865E-01  3.85922347E-01  4.12956355E-07 -1.02067712E-06
 -9.71024200E-04 -1.60429985E-02  2.28482378E-01 -8.73190219E-03  1.79428884E-07
  8.50565822E-02 -6.78407704E-01  9.41939270E-02 -7.75891159E-07 -3.21013223E-02
  6.30377595E-02 -2.68608736E-02 -2.43103270E-02 -9.30171448E-07  8.86069075E-08
 -8.95905747E-03 -1.48008597E-01  1.72921903E-01 -2.69279817E-02  3.24684882E-07
  7.84699928E-01  5.79782635E-02  3.35369382E-01  1.34074923E-06  3.94083825E-01
 -1.08724021E-01 -2.47771131E-01  3.39859778E-01  7.54360282E-07 -1.62775616E-07
 -4.57090375E-01  3.45951449E-03  5.55848898E-02 -4.18021277E-04  5.12671574E-01
 -3.88378213E-03  4.57089316E-01 -3.45957342E-03 -5.55830918E-02  4.18420152E-04
 -5.12672308E-01  3.88342398E-03  5.73418538E-03  9.47297613E-02  3.38707287E-02
  2.05954484E-01  3.29945862E-07 -5.02334515E-01 -4.27281013E-01 -3.79897820E-01
 -1.73067462E-07 -1.90155390E-01  7.54705542E-03  1.58552208E-01  2.63705300E-01
 -8.64319359E-07 -9.75838927E-08  9.78278152E-03  1.61617715E-01 -5.14882114E-03
  1.62412795E-01 -2.65096217E-08 -8.56788646E-01  8.98023197E-02  1.97351240E-01
 -4.98902418E-07  2.56194546E-01 -5.67833833E-01  2.70590575E-01 -1.08122741E-01
 -8.27682606E-07 -9.15816075E-07  4.05194182E-03  6.69395913E-02 -2.33482807E-02
  2.17980902E-01  1.92023680E-08 -3.54951654E-01  3.30885907E-01 -5.39221384E-01
 -1.36827815E-06 -2.03251146E-01  7.42221299E-02  1.12029485E-01 -1.27256628E-01
  6.61129491E-07 -8.59532835E-07 -5.73428159E-03 -9.47264876E-02  3.38729947E-02
  2.05954923E-01 -9.82553290E-08  5.02336737E-01 -4.27288160E-01 -3.79902766E-01
  2.66173145E-06  1.90151293E-01 -7.54193614E-03 -1.58551592E-01 -2.63707417E-01
  1.69911398E-06 -3.03187699E-07 -9.78284598E-03 -1.61615168E-01 -5.15087442E-03
  1.62411165E-01 -2.69639852E-07  8.56790082E-01  8.98122123E-02  1.97351906E-01
 -2.38514531E-06 -2.56195389E-01  5.67834626E-01 -2.70589645E-01  1.08116977E-01
  5.25940931E-07  6.68048728E-07 -4.05179418E-03 -6.69445709E-02 -2.33450320E-02
  2.17982114E-01 -6.85613577E-08  3.54947906E-01  3.30881774E-01 -5.39221157E-01
  1.50865851E-06  2.03251702E-01 -7.42234186E-02 -1.12030973E-01  1.27257624E-01
 -6.12030497E-07  1.31923456E-06  3.28076022E-01 -2.50352026E-03  5.59901962E-01
 -4.21328285E-03  2.31801130E-01 -1.78209557E-03 -3.28078140E-01  2.50334530E-03
 -5.59901913E-01  4.21293673E-03 -2.31800493E-01  1.78277622E-03  1.73196991E-03
 -4.56390682E-01  2.65582008E-01 -1.42042410E-01  1.13848533E-07  4.70543773E-01
 -3.82327781E-01  1.40364139E-01 -4.67527481E-07  2.54667112E-01 -1.85259665E-01
 -1.66414612E-01 -8.21871797E-02  7.10532084E-09 -8.98358112E-07 -1.97957390E-04
  5.21123307E-02 -9.88596470E-02  4.49846651E-02 -1.00790420E-08 -5.37277156E-02
  2.68574690E-01 -7.41068744E-02  6.29693401E-08  1.09685424E-01 -1.17604298E-01
  1.89975386E-02  5.14737025E-01  7.52891699E-07 -1.70683200E-07 -1.53418898E-03
  4.04257890E-01  2.66268744E-01  5.08735202E-02 -2.93146317E-07 -4.16794131E-01
 -3.82792739E-01  8.70064799E-03  2.73411046E-07 -3.11630580E-01  2.50157438E-01
  1.47402877E-01  1.09943933E-01  6.60686775E-07  4.23133685E-07  1.73232801E-03
 -4.56379833E-01 -2.65572911E-01  1.42050457E-01  5.47601525E-08  4.70534137E-01
  3.82321434E-01 -1.40353276E-01 -4.28706118E-08  2.54665057E-01 -1.85265208E-01
 -1.66405950E-01 -8.21943380E-02 -4.25605000E-08  8.55886158E-07 -1.97113422E-04
  5.21372038E-02  9.88596281E-02 -4.49908237E-02  6.28658359E-08 -5.37583420E-02
 -2.68571103E-01  7.41373614E-02 -3.96189278E-07  1.09663710E-01 -1.17599466E-01
  1.90167120E-02  5.14740854E-01 -5.81703028E-07  7.04390852E-07 -1.53375462E-03
  4.04270835E-01 -2.66276667E-01 -5.08641286E-02 -2.69363194E-07 -4.16806560E-01
  3.82803892E-01 -8.69149963E-03  7.85160140E-07 -3.11631006E-01  2.50148619E-01
  1.47413424E-01  1.09950873E-01 -1.16634112E-06 -6.98557184E-07 -1.36248693E-01
  1.05371813E-01  1.55634660E-02 -1.20304604E-02  1.20692323E-01 -9.33335431E-02
 -1.36253344E-01  1.05369787E-01  1.55536116E-02 -1.20362647E-02  1.20687630E-01
 -9.33363859E-02 -7.71530360E-04  2.03298631E-01 -5.12665520E-02  1.54894080E-01
 -9.16875651E-08 -2.09590635E-01 -8.44414376E-03 -3.06802074E-01 -6.37758911E-07
  3.68933134E-01 -3.99842425E-01  7.41259047E-02  2.13422267E-01  1.81365918E-06
  1.10962818E-07  1.88586158E-03 -4.96892873E-01 -4.57967176E-02 -3.21611579E-01
 -3.66206546E-07  5.12300115E-01  7.46558577E-02  4.20577218E-01  1.40720017E-06
 -9.47851413E-02  1.70347898E-01 -1.81179593E-01  9.06432713E-02  3.96792219E-07
  1.83703907E-06 -1.11326756E-03  2.93602141E-01  1.41644372E-01  1.54206724E-01
 -2.94285421E-07 -3.02709182E-01 -1.40090280E-01 -3.06334843E-01 -4.15519283E-07
  1.95674479E-01 -2.40329338E-01  1.07063014E-01 -3.64913761E-01 -1.25661931E-06
  9.48559459E-07 -7.70739722E-04  2.03322091E-01  5.12681912E-02 -1.54900650E-01
 -1.46315061E-07 -2.09625428E-01  8.41424083E-03  3.06818164E-01 -3.14566603E-07
  3.68930159E-01 -3.99854313E-01  7.41428098E-02  2.13407454E-01 -1.28306690E-06
 -3.29325742E-07  1.88581532E-03 -4.96892152E-01  4.57833551E-02  3.21613188E-01
 -3.26690772E-07  5.12312019E-01 -7.46613823E-02 -4.20579539E-01  1.13255890E-06
 -9.47893167E-02  1.70351607E-01 -1.81178642E-01  9.06436778E-02 -5.15596432E-07
 -2.01548223E-06 -1.11389170E-03  2.93583551E-01 -1.41643355E-01 -1.54196113E-01
 -2.73652111E-07 -3.02696197E-01  1.40075527E-01  3.06328661E-01 -6.52377179E-08
  1.95674510E-01 -2.40315299E-01  1.07047042E-01 -3.64921813E-01  8.72525381E-07
 -1.05309845E-06  6.06966921E-02 -4.69386311E-02 -1.48341886E-01  1.14724862E-01
  8.76389253E-02 -6.77844599E-02  6.06856529E-02 -4.69445541E-02 -1.48345203E-01
  1.14725815E-01  8.76445521E-02 -6.77810211E-02 -3.90079483E-07 -7.02810200E-06
  6.33452843E-06  3.78471892E-06 -2.97838931E-02  1.56339545E-06 -2.39114840E-06
  7.39265257E-06 -2.08393560E-01  1.09997500E-07  4.14356782E-06 -5.84792282E-06
  3.36426793E-06  4.56325873E-01 -2.70397319E-02 -9.76359244E-07 -1.20679144E-05
 -9.56492376E-07 -3.24507390E-06  4.47883157E-02  2.17657760E-05  3.43071866E-06
  2.03131169E-05  3.13378168E-01  1.15546363E-05 -3.59660140E-06 -1.03302881E-05
 -1.98247907E-06  1.23209529E-01  5.67817701E-01 -3.40884965E-07 -5.92159662E-06
 -5.45804210E-06  5.54840536E-06 -1.50036232E-02  1.79970921E-06  1.66600091E-06
  4.08569861E-06 -1.04985114E-01 -1.51724176E-07  4.10024979E-06 -5.37127355E-06
 -1.24132364E-06 -3.01763398E-01  2.04447958E-01  4.52517779E-07  5.25495971E-06
  4.67025215E-06  4.29276462E-06 -2.97827365E-02 -2.57996248E-06 -3.35435921E-06
  4.63122087E-06 -2.08392166E-01 -2.97078734E-06 -1.78739845E-06  6.30356225E-06
 -5.98823119E-06 -4.56319142E-01  2.70451179E-02  8.06276752E-07  1.39191118E-05
 -1.33064418E-06 -4.74023208E-06  4.47881132E-02 -1.92101368E-05  2.71627306E-06
  1.92319636E-05  3.13377500E-01 -1.04440112E-05  2.97905163E-07  1.29571647E-05
  1.53320884E-06 -1.23196658E-01 -5.67818094E-01  4.06588190E-07  4.47290727E-06
 -3.93781148E-06  6.02876140E-06 -1.50050557E-02 -3.95469517E-06  3.35610325E-06
  2.90611733E-06 -1.04985571E-01 -1.82367724E-06 -3.03012220E-06  6.07640616E-06
  4.19813745E-06  3.01766225E-01 -2.04451646E-01  1.58022497E-06  2.16256693E-06
  3.92175265E-06  5.75991518E-06 -3.28170552E-07  1.51107751E-06 -2.75288598E-06
 -1.25464664E-06 -2.94724251E-06 -5.08080921E-06 -1.16106285E-06 -1.16679414E-06
  9.21444496E-07  1.23786800E-05  1.36011959E-06  7.34075460E-06  3.45221433E-02
 -3.14076470E-05  2.20897167E-05 -1.05741144E-05  2.41541778E-01 -1.10623530E-06
 -7.23928396E-06  1.05345908E-05 -7.01518535E-06 -2.33233047E-01  4.35415168E-01
 -4.76128611E-07 -6.68419528E-06  9.19295272E-06 -2.95818974E-06  8.53225835E-03
  2.47573588E-05  8.19854492E-06  1.71201790E-05  5.97025336E-02  3.35604670E-06
  7.22582888E-07 -4.68459642E-06 -8.73013404E-07 -3.07545899E-01  1.44105249E-01
 -1.08867913E-06 -1.37015185E-05 -3.96065193E-06 -4.13991037E-06 -4.30562423E-02
  5.18425383E-06  5.89066800E-06  2.87506820E-06 -3.01245382E-01 -7.53109483E-07
  1.21296525E-05 -1.53639798E-05 -6.69983281E-06 -4.64722437E-01 -3.22674959E-01
 -8.77275336E-07 -1.39312573E-05  5.70450547E-07  8.59998201E-06  3.45229913E-02
  3.18731674E-05  2.56348973E-05 -1.11679624E-05  2.41542328E-01  2.70928136E-06
  6.40459695E-06 -1.11690326E-05  4.53886939E-06  2.33227872E-01 -4.35423982E-01
  4.28782032E-07  6.56962313E-06  9.26224938E-06 -2.74968530E-06  8.53371129E-03
 -2.33348313E-05  7.40604700E-06  1.49998221E-05  5.97035918E-02 -3.88497006E-06
 -3.05040015E-07  4.98434336E-06  2.22993903E-06  3.07547040E-01 -1.44107282E-01
  1.00140303E-06  1.53176989E-05 -4.16056061E-06 -4.84768995E-06 -4.30556426E-02
 -7.16563713E-06  1.17044848E-05  3.37868395E-06 -3.01244944E-01 -2.63520965E-06
 -1.07916566E-05  1.70015084E-05  5.94919206E-06  4.64726296E-01  3.22664266E-01
 -3.41779723E-06 -5.98095918E-06  7.34325946E-07  4.87430918E-06  4.29610104E-07
  2.89787703E-06  2.45400251E-06  7.52009335E-06 -1.15779734E-06 -3.76078381E-06
 -1.90823703E-06 -4.11787678E-06  3.67814471E-02  5.18494542E-01 -2.07136222E-01
  1.89915080E-02 -1.28586127E-06 -7.34677619E-01  4.76540450E-01 -4.44128893E-01
 -6.63600196E-06 -1.42720691E-01 -2.65068010E-01  5.16933092E-01 -2.65755962E-01
  9.00624912E-06 -8.60182891E-06  2.95730656E-02  4.16880556E-01  2.24706820E-01
  1.19872100E-01  5.52975832E-07 -5.90712695E-01  9.44268132E-02 -5.33384688E-01
  4.12372129E-06 -3.55515249E-01  2.76420093E-02  4.15626112E-01  2.22470831E-02
  5.07335425E-06  7.55124427E-06 -7.20811509E-03 -1.01599812E-01  9.61623181E-02
 -3.04558195E-01 -3.16929622E-07  1.43961596E-01  2.08175697E-01 -1.57818717E-01
  1.44490050E-06 -1.63210820E-02  9.62341216E-02 -1.01300203E-01 -1.35791583E-02
  1.96136266E-08  6.28875904E-06 -3.67816945E-02 -5.18503319E-01 -2.07142471E-01
  1.89919051E-02 -7.59080169E-07  7.34686291E-01  4.76556780E-01 -4.44120453E-01
 -7.18065902E-06  1.42740908E-01  2.65048660E-01 -5.16936725E-01  2.65760010E-01
 -1.28682320E-05  2.89585358E-06 -2.95734933E-02 -4.16896473E-01  2.24710791E-01
  1.19881302E-01  9.75564176E-07  5.90726943E-01  9.44141463E-02 -5.33398830E-01
  6.11023796E-06  3.55514500E-01 -2.76402232E-02 -4.15632149E-01 -2.22275062E-02
 -6.96092861E-06 -9.18372698E-06  7.20865307E-03  1.01624241E-01  9.61492014E-02
 -3.04564702E-01  8.49526891E-07 -1.43983508E-01  2.08196930E-01 -1.57807387E-01
  2.14548092E-06  1.63178660E-02 -9.62323912E-02  1.01308712E-01  1.35701089E-02
 -3.23695760E-07 -9.41752067E-06 -6.03447566E-02 -1.92236413E-01 -4.85135075E-02
 -1.54563706E-01  1.18371934E-02  3.76722281E-02  6.03421138E-02  1.92238743E-01
  4.85091755E-02  1.54568202E-01 -1.18309988E-02 -3.76793207E-02  1.29137587E-02
  1.82043892E-01  1.29449583E-01  2.82958778E-01  2.66099217E-07 -2.58028709E-01
  3.12813557E-01  4.28283132E-02 -3.63187757E-06 -1.55305130E-02 -1.27626262E-01
  1.81475906E-01 -8.06192058E-02 -1.16098864E-06 -1.16703350E-05 -2.53986419E-02
 -3.58045893E-01  2.30340721E-01 -1.48903485E-01 -1.01808185E-06  5.07391205E-01
  2.23498137E-01  4.25096569E-01 -5.02162613E-06  2.95638640E-01 -1.40617118E-02
 -3.56943688E-01 -6.99792698E-02  4.53636953E-06 -1.09608969E-05 -3.83099232E-02
 -5.40036906E-01 -1.94096448E-01 -2.03395714E-02  1.54838800E-06  7.65117811E-01
  5.99020180E-01  3.11221909E-01  8.37396855E-06  5.00204400E-02  3.74710920E-01
 -5.38416555E-01 -2.16232610E-01  1.55540092E-05  8.35092129E-06 -1.29131491E-02
 -1.82022132E-01  1.29459359E-01  2.82950258E-01 -1.32635496E-06  2.58008593E-01
  3.12802357E-01  4.28444261E-02 -3.76812181E-06  1.55345161E-02  1.27620772E-01
 -1.81467593E-01  8.06281506E-02 -8.99580239E-07  1.17766627E-05  2.53981924E-02
  3.58028121E-01  2.30339872E-01 -1.48892862E-01 -7.33201582E-07 -5.07374505E-01
  2.23507446E-01  4.25079980E-01 -7.03504376E-06 -2.95645400E-01  1.40697340E-02
  3.56937165E-01  6.99660380E-02 -9.40798525E-06  1.25652947E-05  3.83098475E-02
  5.40033009E-01 -1.94092909E-01 -2.03418587E-02  1.33651771E-06 -7.65114993E-01
  5.99012199E-01  3.11231706E-01  1.11175396E-05 -5.00054388E-02 -3.74725948E-01
  5.38415448E-01  2.16218433E-01 -1.86699377E-05 -3.71909716E-06 -2.11853684E-02
 -6.75028882E-02  4.16725394E-02  1.32761003E-01  6.28483666E-02  2.00213622E-01
  2.11916958E-02  6.74979106E-02 -4.16774081E-02 -1.32756802E-01 -6.28492284E-02
 -2.00212707E-01  2.28332746E-07  3.85007356E-06  6.53201169E-08  1.28888251E-06
 -4.61793051E-02 -2.12503998E-05  1.19225190E-05 -8.53508558E-06 -3.95772993E-02
 -8.17386150E-07 -1.58704883E-06  2.21920755E-06 -1.98449588E-06  4.29635328E-01
  4.38069945E-01 -1.16370777E-07 -2.13161480E-06  8.07887989E-07 -9.99627844E-08
  5.27465324E-02  2.12761272E-05  1.64087856E-06  1.38113125E-05  4.52000378E-02
 -2.07437015E-07 -1.87020230E-07  1.12989247E-06 -8.59960930E-07  5.88405314E-01
  3.72655577E-02  1.00595441E-07  1.62593857E-06  3.70338085E-07 -1.25609931E-06
  9.89209230E-02 -2.21498130E-05 -1.25149416E-05 -5.87936398E-06  8.46424238E-02
 -5.73066352E-08  9.50631168E-07 -1.78524111E-06 -1.57585240E-07  1.61755311E-01
  1.00093882E-01 -2.92950646E-07 -4.37948831E-06 -4.44651183E-07  5.69502422E-07
  4.61820437E-02  2.42562683E-05  1.31941063E-05 -1.02840715E-05  3.95842139E-02
  4.80670336E-07  1.99671655E-06 -2.27177887E-06  2.11291144E-06  4.29646538E-01
  4.38065709E-01  4.15350738E-08  1.53187873E-06  1.64215081E-06 -2.08008681E-07
 -5.27490579E-02 -1.78174422E-05  1.98124610E-06  1.13794367E-05 -4.52063121E-02
  4.61081846E-07  6.32389538E-08 -1.23553625E-06  4.63901788E-07  5.88410904E-01
  3.72753276E-02  4.94805386E-08 -5.92276025E-07  4.00544199E-07 -1.28328764E-06
 -9.89211604E-02  1.56791607E-05 -8.47624760E-06 -4.11352901E-06 -8.46430509E-02
 -4.70228612E-08 -1.72627943E-06  2.65775276E-06  5.94845082E-07  1.61752506E-01
  1.00103118E-01 -1.30773600E-06 -3.48132181E-06  1.08881375E-06  3.22572885E-06
 -6.06650696E-07 -3.30323451E-06  1.59225520E-06  3.94931233E-06 -7.72397058E-07
 -2.67681613E-06  3.67243089E-07  2.15468539E-06  2.26235813E-07  3.16165178E-06
 -1.08427408E-06 -1.04751775E-06  8.75638186E-02 -2.35477522E-05  1.25231994E-05
 -9.48711531E-06  7.49193938E-02 -8.02641728E-07 -4.38909422E-07  7.31878711E-07
 -1.24944427E-06  5.45316781E-02  3.56912799E-01 -4.13972635E-08 -9.27395716E-07
  1.77601872E-07  3.65340674E-07  8.37789318E-02  1.99714383E-05  1.54391179E-06
  1.26584837E-05  7.17720815E-02 -1.49593069E-06 -1.22711747E-07  2.62509776E-06
  6.91102361E-07 -3.46412278E-01  1.98202259E-01  2.18759331E-07  3.54404794E-06
  6.43375232E-07 -5.67020605E-08 -3.79609039E-03 -2.13184727E-05 -1.30898360E-05
 -6.22911805E-06 -3.29833725E-03 -4.14706654E-07 -1.44734663E-06  1.59824942E-06
  1.63793287E-06 -2.83567145E-01  6.24697694E-01 -8.58631268E-08 -2.22641637E-06
 -1.43557232E-06 -1.39133740E-06 -8.75625884E-02  1.72983016E-05  8.49924653E-06
 -7.28175452E-06 -7.49162493E-02  2.83933866E-07  9.37287775E-08  5.68025344E-08
  5.22066713E-07  5.45315261E-02  3.56903940E-01 -9.36640011E-08  3.69785128E-08
 -3.78680881E-07  3.47348219E-07 -8.37774502E-02 -1.39783387E-05  4.29537923E-07
  8.38561141E-06 -7.17680372E-02  2.53334721E-06 -4.97918428E-08 -3.41821760E-06
 -4.93098144E-07 -3.46405929E-01  1.98194731E-01 -2.24799596E-07 -3.58245936E-06
  1.03925241E-06 -9.57890196E-07  3.79331785E-03  2.15752476E-05 -1.30173165E-05
 -6.83803902E-06  3.29118044E-03  2.15078197E-07  1.69299386E-06 -1.64336724E-06
 -1.43815868E-06 -2.83556085E-01  6.24701689E-01 -1.24507316E-06 -3.73743112E-06
  8.06351340E-07  2.96842669E-06 -1.23994611E-06 -3.42652746E-06  7.39578159E-07
  2.59344236E-06 -3.34372788E-07 -1.86355673E-06  1.24858053E-06  3.47475651E-06
  4.39997389E-08  2.21739959E-07 -1.83771927E-07 -3.12734834E-07 -2.79716773E-02
 -8.12219479E-06  4.72767475E-06 -1.35552382E-06 -3.76731561E-01 -2.38298571E-07
 -1.22450916E-07  3.25249973E-07  5.03737903E-07  3.96597739E-01 -2.90355037E-01
 -1.24136917E-07 -2.64059184E-06 -4.96859890E-07 -7.00569190E-07  2.79482326E-02
  1.21376411E-05  1.31941032E-06  7.82933214E-06  3.76711403E-01 -4.81258724E-07
  1.83631738E-07  4.98731282E-07 -7.62177705E-07  5.30082630E-02  4.88611301E-01
  7.51498228E-08  7.52705319E-08 -7.66020850E-07 -5.04742587E-07 -2.79787223E-02
 -1.02871188E-05 -7.45729800E-06 -2.88149222E-06 -3.76737820E-01 -6.33182393E-07
 -5.57961576E-07  6.96621297E-07 -5.87930064E-07 -4.49679327E-01 -1.98487011E-01
 -6.44703744E-08 -1.15311337E-06 -1.66471648E-07 -5.76232905E-07  2.79717296E-02
  1.09020138E-05  6.26349316E-06 -3.50385070E-06  3.76731970E-01 -5.99347454E-07
  1.14208071E-06 -1.06213929E-07 -6.39706273E-07  3.96597354E-01 -2.90356812E-01
  1.09178428E-07  1.74224183E-06 -3.04275624E-07 -8.72789359E-07 -2.79483994E-02
 -9.64588219E-06  1.92583968E-06  5.47011353E-06 -3.76711939E-01  5.40341193E-07
 -1.10689696E-07 -2.49812395E-07 -3.64782357E-07  5.30065108E-02  4.88612423E-01
  5.84311414E-08 -8.40739973E-08 -4.32241688E-07 -3.49169703E-07  2.79787286E-02
  5.00678711E-06 -3.92171257E-06 -1.28835652E-06  3.76738018E-01 -7.11075797E-07
  6.84838159E-07  3.57092831E-07 -4.00751046E-07 -4.49680600E-01 -1.98485012E-01
  2.79197834E-07 -1.09791189E-06  1.88673107E-07  2.12665000E-06 -1.42921039E-06
 -1.48454723E-06  8.18571141E-07  1.45120195E-06  8.85328215E-07 -1.83173005E-06
  1.86179181E-06  2.03206505E-07  6.74405101E-02  2.12038973E-01  1.87333257E-01
  6.01818242E-02  2.46687878E-07 -2.39825291E+00  1.14172680E+00 -3.71948350E-01
  9.53403192E-07 -4.74503227E-01 -8.76430581E-02  5.50734035E-01  1.64902657E-03
 -1.56582186E-06 -7.66810890E-07 -7.93091130E-02 -2.49358969E-01  1.11135866E-01
  1.24727226E-01  3.56625857E-07  2.82033481E+00  3.71444042E-01  1.30942239E+00
  2.13912852E-06  2.85804241E-01  3.75275660E-01 -6.47657476E-01  1.43881386E-01
  7.76312198E-08  1.60463712E-06  1.18690488E-02  3.73226881E-02 -1.22036406E-01
  2.26211961E-01  7.52101396E-08 -4.22076778E-01 -4.26744964E-01  4.69752557E-01
  6.53273828E-07 -2.75218652E-01  1.76284795E-01  9.69268103E-02  2.21447177E-01
  7.85652013E-07 -1.91405264E-07  6.74399208E-02  2.12038588E-01 -1.87329459E-01
 -6.01813800E-02 -7.02106685E-08 -2.39823516E+00 -1.14171514E+00  3.71962536E-01
  5.79977854E-07 -4.74492393E-01 -8.76506845E-02  5.50731760E-01  1.65387313E-03
  9.37088308E-07  2.68041768E-07 -7.93086531E-02 -2.49358647E-01 -1.11132719E-01
 -1.24725678E-01  4.38730516E-08  2.82032019E+00 -3.71423439E-01 -1.30942257E+00
  1.88325748E-06  2.85800158E-01  3.75277342E-01 -6.47655499E-01  1.43868347E-01
  5.42495564E-07 -1.63388692E-06  1.18695344E-02  3.73209462E-02  1.22040161E-01
 -2.26210821E-01  7.24842004E-08 -4.22085002E-01  4.26740393E-01 -4.69756796E-01
  5.60624216E-07 -2.75219623E-01  1.76283328E-01  9.69273467E-02  2.21449986E-01
 -3.80673811E-07 -4.93397859E-07  2.04101146E-01 -3.30547509E-01 -2.40025062E-01
  3.88726059E-01  3.59249620E-02 -5.81839997E-02  2.04100478E-01 -3.30548456E-01
 -2.40024097E-01  3.88726125E-01  3.59251530E-02 -5.81824092E-02  5.26418212E-02
  1.65505822E-01 -4.75916049E-02 -2.17897346E-01 -6.58924083E-09 -1.87201143E+00
  4.35799427E-01 -9.12683546E-01 -1.08647275E-07 -8.95345671E-03 -4.29842372E-01
  4.29889308E-01  1.33762451E-01 -1.21972911E-07 -6.27946159E-07  3.20833800E-02
  1.00871276E-01  2.32509347E-01 -8.05739546E-02 -6.97587865E-08 -1.14092748E+00
  5.01676656E-01 -6.00464543E-01 -5.56338709E-07 -4.64352192E-02 -2.20995906E-01
  2.62003305E-01  3.05458679E-01  2.23131400E-07 -2.56033921E-07 -8.47255272E-02
 -2.66379453E-01  1.18433818E-01  9.14875232E-02 -8.51528753E-08  3.01295033E+00
  1.27748244E+00  6.55775524E-01 -2.47121502E-06  3.73198925E-01  3.33032348E-01
 -6.91892517E-01  9.64468088E-02 -2.47731120E-06  1.18409421E-08  5.26422999E-02
  1.65505656E-01  4.75904402E-02  2.17900856E-01 -5.40533431E-08 -1.87202370E+00
 -4.35789590E-01  9.12692339E-01  4.00828745E-07 -8.94729781E-03 -4.29851100E-01
  4.29890571E-01  1.33763691E-01  1.04612364E-06  5.56567808E-07  3.20839037E-02
  1.00870640E-01 -2.32509545E-01  8.05775666E-02 -1.19488814E-07 -1.14093983E+00
 -5.01683190E-01  6.00461686E-01 -1.15901938E-06 -4.64377013E-02 -2.20996201E-01
  2.62004381E-01  3.05462812E-01  5.37721398E-07  1.00421123E-06 -8.47253527E-02
 -2.66379492E-01 -1.18434024E-01 -9.14850443E-02 -2.38274727E-08  3.01294576E+00
 -1.27749004E+00 -6.55757623E-01 -1.64216816E-06  3.73206960E-01  3.33023303E-01
 -6.91891743E-01  9.64386083E-02  1.72922799E-06 -4.75441147E-07  1.59316447E-01
 -2.58016595E-01  9.71000480E-02 -1.57248888E-01 -2.56414867E-01  4.15266604E-01
  1.59316884E-01 -2.58014570E-01  9.71002112E-02 -1.57247030E-01 -2.56414724E-01
  4.15266650E-01  4.00397672E-07  2.88365136E-07 -2.15198179E-07 -1.48331648E-06
 -2.76956071E-06 -1.07186456E-05  6.93484143E-06 -5.02131852E-06 -2.45223960E-06
  1.88676616E-06 -2.58002234E-06  1.44594092E-06 -8.26983235E-06 -3.26826996E-01
 -4.46646755E-01 -1.07331144E-07 -1.43381508E-07  4.96032578E-06 -4.25031658E-07
  2.34457839E-06  2.64360547E-06  3.17353465E-07  2.44242304E-06  2.34871164E-06
  2.19188852E-06 -1.94141837E-06 -5.19820788E-07 -1.07187351E-06 -5.50219643E-01
  5.97241495E-02 -2.75011301E-07 -2.47611767E-07 -1.03015812E-06  3.39842483E-06
 -5.77929463E-07  7.23254897E-06  5.88426116E-06  1.60551742E-06 -1.19772353E-06
 -2.75454655E-06  3.22938598E-06 -1.03911395E-06 -5.23138530E-06 -2.23394223E-01
  5.06367228E-01  3.82973136E-07  3.87313097E-07  1.33868377E-07  1.11037033E-06
 -5.91106873E-07 -9.90635851E-06 -7.13603749E-06  4.63592096E-06  2.53264188E-07
  1.54613199E-06 -2.27044918E-06  1.55491078E-06 -8.48130696E-06  3.26830105E-01
  4.46645338E-01 -1.25393964E-07 -4.07286622E-08 -4.64719075E-06  2.29741891E-07
  2.94122282E-07  3.48604838E-06  4.81155576E-08 -2.55008741E-06 -2.97057472E-07
  2.02812520E-06 -1.80977766E-06 -4.06840603E-07 -1.42329221E-06  5.50221004E-01
 -5.97211045E-02 -2.75654276E-07 -2.43922060E-07  1.07000108E-06 -3.50303992E-06
  1.21251482E-06  7.26293301E-06 -5.44450610E-06 -2.60843430E-06  1.32293542E-06
 -3.23222998E-06  3.70603964E-06 -1.03513457E-06 -4.72414096E-06  2.23391781E-01
 -5.06368667E-01 -4.41257413E-06 -6.24169171E-07  1.30549941E-06  1.69173440E-07
  3.17058571E-06  4.21844575E-07 -4.47383490E-06 -5.92243402E-07  1.24199001E-06
  2.02279087E-07  3.16833092E-06  4.23030310E-07 -3.97133410E-02  6.30412703E-02
 -1.14864741E-01  7.51366986E-03 -1.18013319E-07  8.63463585E-01 -4.43766806E-01
  3.16966391E-01 -1.36177819E-07 -1.27502143E-01  2.80911730E-01 -2.46277302E-01
  7.16112705E-01 -2.85838392E-06 -4.03322269E-06  2.54605626E-02 -4.04122202E-02
 -3.02506266E-01 -2.98015108E-02 -4.46614321E-08 -5.53559581E-01 -6.77992662E-02
 -3.44294978E-01 -2.61356793E-07 -4.50760382E-01  3.52414385E-01  1.57888519E-01
  1.41657296E-01 -7.08890841E-06  1.21700192E-06  1.42527367E-02 -2.26233617E-02
  1.13145890E-01 -3.42821694E-01 -2.52141898E-07 -3.09859253E-01 -1.64296257E-01
 -1.12424950E-01  6.12242363E-08  1.00447452E-01 -1.55496182E-01  8.83865751E-02
  2.31470766E-01 -3.60462125E-06  6.09693664E-06 -3.97140872E-02  6.30476363E-02
  1.14889732E-01 -7.49470735E-03 -1.38579906E-07  8.63507468E-01  4.43822337E-01
 -3.16897600E-01 -3.49686595E-07 -1.27453396E-01  2.80873661E-01 -2.46282349E-01
  7.16130587E-01  3.51287336E-06  4.07875924E-06  2.54608768E-02 -4.04191619E-02
  3.02535373E-01  2.98075147E-02 -7.45361324E-08 -5.53607227E-01  6.78845476E-02
  3.44290579E-01 -2.34548779E-07 -4.50779361E-01  3.52421303E-01  1.57892115E-01
  1.41606340E-01  6.12894786E-06 -1.20276313E-06  1.42540011E-02 -2.26366000E-02
 -1.13129786E-01  3.42830972E-01 -2.07941757E-07 -3.09953661E-01  1.64302408E-01
  1.12430350E-01 -3.81687722E-08  1.00439702E-01 -1.55511942E-01  8.83965585E-02
  2.31475841E-01  2.98822298E-06 -5.30136351E-06  3.18019944E-01 -4.74900359E-03
 -2.03879555E-01  3.04079632E-03 -1.14141841E-01  1.71308891E-03  3.18016934E-01
 -4.74662729E-03 -2.03877352E-01  3.03822474E-03 -1.14136245E-01  1.70920982E-03
  6.46824203E-03 -1.02805959E-02 -2.11181277E-01 -3.15404921E-01 -4.55713014E-07
 -1.40654028E-01  4.88876829E-02 -8.36006422E-02 -3.63450677E-07 -2.11712389E-02
 -3.82438092E-03  4.01145325E-02 -1.32040121E-01  2.19886432E-06  2.26906812E-06
  3.11594503E-02 -4.94670235E-02  2.33490497E-01 -1.02010863E-01 -3.13620354E-07
 -6.77526199E-01 -2.15463838E-02 -4.28018679E-01 -2.09486419E-07 -5.66394839E-01
  4.46015316E-01  1.93233898E-01  9.59194805E-02  3.61410903E-06 -4.17222304E-07
 -3.76282465E-02  5.97412323E-02  1.39157262E-01 -8.73988723E-02 -2.55095588E-07
  8.18133417E-01  4.78318013E-01  1.95817938E-01 -7.96894737E-07 -3.55706391E-01
  5.01065713E-01 -2.33347958E-01 -5.15613093E-01  1.65090438E-06 -9.53685514E-07
  6.46811248E-03 -1.02726941E-02  2.11183579E-01  3.15390806E-01 -4.73055002E-07
 -1.40604665E-01 -4.89009698E-02  8.35720833E-02 -1.08242858E-07 -2.11825999E-02
 -3.79962743E-03  4.01117149E-02 -1.32042279E-01 -1.94064727E-06 -1.27616511E-06
  3.11589179E-02 -4.94591837E-02 -2.33479030E-01  1.01998908E-01 -3.16641532E-07
 -6.77476803E-01  2.15784232E-02  4.28011025E-01 -5.33032241E-07 -5.66388285E-01
  4.46022160E-01  1.93229168E-01  9.58999338E-02 -3.25296427E-06 -2.14167923E-07
 -3.76284628E-02  5.97410127E-02 -1.39148043E-01  8.73778389E-02 -3.69536300E-07
  8.18132468E-01 -4.78293067E-01 -1.95875747E-01 -5.56849444E-07 -3.55731118E-01
  5.01089698E-01 -2.33348523E-01 -5.15585529E-01 -1.23757531E-06  1.52908803E-06
 -5.18106454E-02  7.75839255E-04 -2.49501595E-01  3.72123190E-03  3.01316738E-01
 -4.50132173E-03 -5.18121464E-02  7.79198037E-04 -2.49504083E-01  3.72359965E-03
  3.01316306E-01 -4.50095521E-03  1.50363423E-02 -1.04524474E-01  3.13515310E-01
  1.79509421E-01  3.08544854E-07 -6.96872007E-01  6.67801088E-01  8.13045768E-01
  8.45734037E-07 -6.63279597E-01  4.93992275E-01  9.42068875E-02 -2.42674636E-01
 -7.54169100E-07 -3.08769097E-07 -1.09163895E-02  7.58870909E-02  3.76261939E-01
  6.65132713E-02  2.41515219E-07  5.05909294E-01  1.16565921E+00 -8.35977099E-02
  6.56683909E-07  2.26071416E-01 -1.03169430E-01 -6.83937991E-02  7.66687825E-01
  1.59473907E-06  4.46011921E-07 -2.59560348E-02  1.80395825E-01  2.47039417E-01
  6.86947726E-02 -3.40114126E-07  1.20311889E+00  1.40370475E-01 -6.63694995E-02
 -1.21989389E-06  1.67529292E-01  1.24701628E-01 -1.62628634E-01 -9.06391170E-02
 -1.18625525E-06 -1.93780414E-07 -1.50348258E-02  1.04522327E-01  3.13514160E-01
  1.79508610E-01 -1.02049438E-07  6.96866052E-01  6.67791430E-01  8.13056180E-01
 -2.70582651E-07  6.63298964E-01 -4.94008518E-01 -9.42017246E-02  2.42624900E-01
 -2.46554752E-07 -1.42554995E-07  1.09157790E-02 -7.58866464E-02  3.76245657E-01
  6.65171982E-02 -5.73103714E-08 -5.05924490E-01  1.16566002E+00 -8.35989347E-02
 -1.36884094E-07 -2.26045275E-01  1.03136021E-01  6.83945211E-02 -7.66701155E-01
  1.05964954E-06  1.85149299E-07  2.59550909E-02 -1.80393864E-01  2.47043903E-01
  6.86783147E-02  2.91746406E-07 -1.20309783E+00  1.40353356E-01 -6.63627545E-02
  6.80593575E-07 -1.67528889E-01 -1.24697990E-01  1.62622566E-01  9.06178612E-02
 -8.74434593E-07 -4.18036323E-08  5.31296858E-02 -3.25143050E-02 -3.85742735E-02
  2.36045724E-02 -9.17306494E-02  5.61662000E-02 -5.31579967E-02  3.25237709E-02
  3.85953798E-02 -2.36140592E-02  9.17374664E-02 -5.61658936E-02 -2.12875970E-02
  1.47973897E-01 -3.03032265E-02  3.11025455E-01 -2.39031713E-08  9.86679780E-01
  3.70977639E-01  6.48022525E-01 -1.28338878E-07 -3.05094849E-01  5.44774496E-01
 -1.33380968E-01 -1.12497394E-01 -5.04201660E-08 -2.77402935E-07 -2.36668497E-02
  1.64491858E-01 -1.43283722E-01  2.48285876E-01  5.00693484E-07  1.09700044E+00
 -5.25604934E-01  1.50241598E-01  1.36719789E-06  1.04312913E-01  1.62149408E-01
 -1.48285283E-01 -3.65604041E-01 -8.45557196E-07  1.14389810E-06 -2.37827331E-03
  1.65388474E-02 -1.41126265E-01  3.77506907E-01  1.08112611E-07  1.10191830E-01
 -5.08470540E-01  1.17555971E+00  2.24247790E-07 -5.43211175E-01  5.69986331E-01
 -1.49005500E-02  5.80375982E-01  3.85499627E-07 -8.02585401E-07  2.12873353E-02
 -1.47972736E-01 -3.02947995E-02  3.11032489E-01 -8.60286270E-08 -9.86658642E-01
  3.70979990E-01  6.48013494E-01 -1.74568492E-07  3.05094153E-01 -5.44767397E-01
  1.33376718E-01  1.12484517E-01  3.09227522E-07  2.15753442E-07  2.36675208E-02
 -1.64492469E-01 -1.43289501E-01  2.48286795E-01 -3.61867341E-07 -1.09700464E+00
 -5.25595065E-01  1.50247168E-01 -9.70534525E-07 -1.04334698E-01 -1.62126759E-01
  1.48287687E-01  3.65600411E-01 -3.39492261E-07  1.02950136E-06  2.37773162E-03
 -1.65385907E-02 -1.41125809E-01  3.77512086E-01 -1.16447835E-07 -1.10208968E-01
 -5.08470687E-01  1.17556048E+00 -2.84551642E-07  5.43187386E-01 -5.69970173E-01
  1.49017698E-02 -5.80401545E-01  5.20140733E-07 -1.00601881E-06 -7.52423924E-02
  4.60527283E-02 -8.36500981E-02  5.12116912E-02 -8.39155765E-03  5.13358194E-03
  7.52340271E-02 -4.60468609E-02  8.36375029E-02 -5.12076841E-02  8.41137588E-03
 -5.14265782E-03  9.86742103E-02  6.20260429E-01  1.02362611E-01 -7.49009944E-02
  1.99761346E-07 -7.36329704E+00  3.31542730E+00 -2.42604609E+00  2.51515592E-06
 -3.36504739E-01 -2.48086187E-01  5.28852460E-01  1.60793182E-01 -1.20612453E-06
  6.74094770E-07 -9.86736021E-02 -6.20262855E-01  1.36893622E-02  1.26093863E-01
  5.21933156E-07  7.36327177E+00  4.43322726E-01  4.08424511E+00  5.25221683E-06
  1.49601286E-01  4.34984612E-01 -5.28848253E-01  3.62102691E-02  5.14093415E-07
  2.39594603E-06  9.86731261E-02  6.20264843E-01 -1.16039491E-01 -5.11987091E-02
 -9.16537165E-08 -7.36327680E+00 -3.75872565E+00 -1.65822735E+00  6.55626662E-06
 -3.90783187E-01 -1.93800129E-01  5.28847228E-01 -1.24606082E-01  1.92217918E-06
  8.47627870E-07 -9.86743896E-02 -6.20261195E-01  1.02363990E-01 -7.48995168E-02
  5.88202940E-08  7.36330573E+00  3.31544255E+00 -2.42603331E+00 -1.64256026E-06
  3.36505561E-01  2.48086681E-01 -5.28853731E-01 -1.60793148E-01  7.08449847E-08
  2.42114259E-07  9.86737906E-02  6.20263412E-01  1.36910157E-02  1.26094407E-01
 -2.82019440E-07 -7.36328726E+00  4.43340052E-01  4.08424823E+00 -4.33516301E-06
 -1.49602482E-01 -4.34985169E-01  5.28849637E-01 -3.62096668E-02 -4.16798208E-08
  1.17175737E-06 -9.86732603E-02 -6.20265439E-01 -1.16039219E-01 -5.11995675E-02
 -1.75219410E-07  7.36328214E+00 -3.75872341E+00 -1.65824106E+00 -4.43273583E-06
  3.90784652E-01  1.93799543E-01 -5.28848134E-01  1.24605056E-01  9.74103851E-07
  4.13056126E-07  1.15654739E-01 -9.49540814E-01 -1.15652601E-01  9.49531118E-01
  1.15652546E-01 -9.49537570E-01 -1.15654951E-01  9.49542046E-01  1.15652823E-01
 -9.49531347E-01 -1.15652684E-01  9.49538649E-01 -4.13407443E-07 -9.49683858E-06
 -2.39783238E-01 -3.27699849E-01 -2.51917478E-07 -1.85367617E-05 -1.04749626E+00
 -1.43150680E+00 -2.42327785E-06  5.90943777E-01 -5.90951466E-01  1.87378183E-06
  2.16595548E-01  1.02503971E-06 -7.82182409E-08  5.41321118E-07  4.34154859E-06
 -4.03681317E-01  4.38209851E-02  1.36582934E-08  2.06016548E-05 -1.76347294E+00
  1.91408144E-01  4.18047148E-07 -1.33019206E-01  1.33025387E-01 -2.47993856E-07
 -6.99244478E-01 -1.40247282E-06  2.97728585E-07  3.95207197E-08 -2.96183461E-07
 -1.63899315E-01  3.71512736E-01  1.47034959E-07 -1.09101225E-05 -7.15980493E-01
  1.62291571E+00  1.58633565E-06 -4.57929809E-01  4.57929105E-01  8.62531279E-07
  4.82642159E-01  8.80231023E-07 -5.93593718E-07 -3.89761489E-07 -2.72230049E-06
  2.39788248E-01  3.27696778E-01 -1.63924856E-07  5.51416092E-06  1.04750047E+00
  1.43150613E+00 -2.01923882E-06  5.90947128E-01 -5.90947827E-01 -1.48714428E-06
  2.16599407E-01 -5.56111817E-07  4.52789320E-07  4.94469053E-07 -2.08314815E-06
  4.03682756E-01 -4.38155275E-02  1.04884877E-07 -1.53864478E-06  1.76347668E+00
 -1.91404978E-01  8.36954251E-07 -1.33026149E-01  1.33025626E-01  2.91221004E-06
 -6.99244914E-01  8.21825616E-07 -3.98688008E-07  1.23395336E-07  5.49193022E-06
  1.63894827E-01 -3.71514936E-01  1.50269290E-07  7.69499928E-06  7.15978086E-01
 -1.62291787E+00  1.60120672E-06 -4.57929617E-01  4.57935037E-01 -1.95710561E-06
  4.82639331E-01 -7.97763686E-07  3.92338193E-07 -4.09948314E-07 -3.86310836E-07
 -1.58158358E-07 -5.36939024E-08  4.33932958E-06 -3.10692822E-06 -2.13149150E-06
  1.47525155E-06  1.07742632E-06 -1.60767690E-06  3.83755694E-06 -2.01440382E-06
 -7.59075025E-02 -7.47772388E-02 -8.50761631E-02  6.22602092E-02 -1.63888060E-07
  4.16241544E+00 -1.88286170E+00  1.37777638E+00 -1.50875997E-06 -7.00538690E-02
  2.81474615E-01 -3.15481166E-01  6.39388880E-01  1.15361740E-06  7.62676896E-07
  7.59085430E-02  7.47740603E-02 -1.13692762E-02 -1.04808567E-01 -6.46497077E-07
 -4.16242654E+00 -2.51754030E-01 -2.31948462E+00 -2.73387940E-06 -6.73134127E-01
  4.61717143E-01  3.15485554E-01  1.43926477E-01  4.24677983E-08 -6.74244466E-07
 -7.59075728E-02 -7.47724641E-02  9.64551940E-02  4.25525624E-02 -2.34931773E-07
  4.16242011E+00  2.13462478E+00  9.41708198E-01 -3.99095754E-06 -2.85947022E-01
  4.97367446E-01 -3.15482741E-01 -4.95464429E-01 -2.18246326E-07  7.90595195E-07
  7.59075656E-02  7.47774799E-02 -8.50781430E-02  6.22578210E-02 -3.84262970E-08
 -4.16241999E+00 -1.88287529E+00  1.37776156E+00  1.15363107E-06  7.00573869E-02
 -2.81478701E-01  3.15481528E-01 -6.39388174E-01  1.92433877E-07  1.02340914E-06
 -7.59086770E-02 -7.47740076E-02 -1.13719525E-02 -1.04808358E-01  4.53047717E-07
  4.16243524E+00 -2.51772638E-01 -2.31948471E+00  2.34188464E-06  6.73134541E-01
 -4.61717146E-01 -3.15486298E-01 -1.43931150E-01  5.08223184E-07  1.84705949E-07
  7.59076083E-02  7.47727605E-02  9.64545411E-02  4.25543927E-02  2.82295734E-07
 -4.16242289E+00  2.13461972E+00  9.41723909E-01  2.59896455E-06  2.85943979E-01
 -4.97364835E-01  3.15482926E-01  4.95467894E-01 -2.89950259E-08  8.88465261E-07
  2.63166372E-01  3.96678459E-01 -2.63164635E-01 -3.96672565E-01  2.63166526E-01
  3.96677148E-01 -2.63166549E-01 -3.96678903E-01  2.63164699E-01  3.96672251E-01
 -2.63166678E-01 -3.96677630E-01 -1.90063927E-01  1.30343748E+00 -4.41519005E-02
  3.23075946E-02  5.35098840E-09  3.66249548E-01  4.94984357E-02 -3.62182248E-02
 -2.58318661E-07 -7.17726916E-01 -6.94111234E-01 -7.35634234E-01  4.29631892E-02
  1.64853079E-07  1.71035811E-08 -1.90065055E-01  1.30344359E+00  5.90268561E-03
  5.43894624E-02  2.72124833E-08  3.66256079E-01 -6.61664438E-03 -6.09741031E-02
  3.13508004E-07 -6.67796446E-01 -7.44050560E-01 -7.35638738E-01 -9.66963676E-03
  7.51584411E-09  1.45609186E-07 -1.90062648E-01  1.30343068E+00  5.00564710E-02
  2.20818875E-02 -9.96544613E-08  3.66243063E-01 -5.61166117E-02 -2.47569780E-02
 -7.61565484E-08 -7.32229604E-01 -6.79598539E-01 -7.35629276E-01 -3.32907952E-02
 -8.18872197E-08  4.65485777E-08 -1.90062186E-01  1.30342677E+00  4.41519448E-02
 -3.23080399E-02 -4.93478749E-08  3.66245554E-01 -4.94984899E-02  3.62180201E-02
  1.84649315E-07 -7.17722198E-01 -6.94102764E-01 -7.35627438E-01  4.29624906E-02
 -2.58398448E-09 -1.03253013E-07 -1.90062485E-01  1.30342819E+00 -5.90331989E-03
 -5.43897548E-02  7.88227593E-08  3.66247514E-01  6.61755158E-03  6.09755071E-02
 -1.22047548E-07 -6.67787303E-01 -7.44040590E-01 -7.35628759E-01 -9.67097082E-03
  3.89281110E-08  2.95583098E-08 -1.90061876E-01  1.30342586E+00 -5.00555437E-02
 -2.20843869E-02 -6.73680276E-08  3.66241884E-01  5.61154379E-02  2.47586375E-02
  1.58031962E-07 -7.32226939E-01 -6.79595281E-01 -7.35626248E-01 -3.32905242E-02
 -1.53585414E-08 -9.05089462E-08  8.79346059E-02 -1.73189849E-01  8.79349067E-02
 -1.73190396E-01  8.79333083E-02 -1.73188439E-01  8.79339343E-02 -1.73188610E-01
  8.79337800E-02 -1.73188911E-01  8.79330518E-02 -1.73187822E-01  2.08797294E-01
 -1.28291211E+00  5.28015030E-02  1.16642748E-01  5.38343784E-09 -6.06435421E-01
  5.81143337E-03 -1.09372498E-01  3.70578305E-07  7.05846331E-01  8.64239858E-01
  8.11910884E-01 -3.37027440E-02 -2.37772981E-07  1.54426282E-09  2.66904832E-01
 -1.63994717E+00 -5.41375751E-02  3.96516918E-02  8.74509145E-08 -7.75177855E-01
  2.95481856E-02 -9.22717962E-02 -4.40349737E-07  9.90315446E-01  1.01672111E+00
  1.03786376E+00 -4.28674457E-02 -1.25792558E-07 -1.36291575E-08  5.81067631E-02
 -3.57025282E-01 -6.73442218E-02  1.70759294E-01  3.10406170E-08 -1.68768229E-01
  3.24747750E-02 -1.21383819E-01  2.67128850E-07  1.28050096E-01  3.08891101E-01
  2.25949045E-01  9.69806792E-02  2.29443351E-07 -2.18349950E-07 -2.08797350E-01
  1.28291702E+00  5.28030931E-02  1.16640355E-01 -3.65344746E-08  6.06426159E-01
  5.80961395E-03 -1.09369693E-01 -1.86820168E-07 -7.05848132E-01 -8.64237066E-01
 -8.11911554E-01  3.37024070E-02 -6.54231732E-08  1.12112532E-08 -2.66905648E-01
  1.63995496E+00 -5.41365106E-02  3.96499934E-02 -2.47970895E-08  7.75174526E-01
  2.95472028E-02 -9.22698928E-02  2.13223962E-07 -9.90318388E-01 -1.01672336E+00
 -1.03786711E+00  4.28642602E-02 -4.98044521E-08  1.07212441E-07 -5.81111562E-02
  3.57048867E-01 -6.73418689E-02  1.70760668E-01 -2.91228304E-08  1.68790872E-01
  3.24720278E-02 -1.21385452E-01 -2.66165271E-07 -1.28067388E-01 -3.08908810E-01
 -2.25965388E-01 -9.69813375E-02  2.02183505E-07 -1.28095598E-07 -8.52670147E-02
  1.32403949E-01 -1.08995154E-01  1.69253203E-01 -2.37290622E-02  3.68454589E-02
  8.52670363E-02 -1.32404403E-01  1.08995442E-01 -1.69254075E-01  2.37310763E-02
 -3.68488385E-02  1.87645923E-01 -1.15296170E+00 -1.01389872E-01 -9.85880650E-02
 -6.88862266E-08 -5.44979220E-01  1.05976982E-01  3.94184835E-02 -1.07531092E-07
  7.95985020E-01  6.15050648E-01  7.29664885E-01  2.89583957E-02  1.59683594E-07
 -9.20916167E-09 -8.69985214E-02  5.34551406E-01 -1.78381523E-01  8.35489454E-03
 -5.37434758E-08  2.52661457E-01  1.23075189E-01  1.56690274E-02  2.40075147E-07
 -3.51259733E-01 -3.02939619E-01 -3.38295928E-01 -1.35650867E-01 -3.72363874E-07
  5.80782090E-08 -2.74647329E-01  1.68752011E+00 -4.72755139E-02  2.15584443E-02
 -1.33805829E-08  7.97679926E-01  9.39713764E-02  1.27425700E-02 -1.18785497E-07
 -1.05533457E+00 -1.00992328E+00 -1.06797010E+00  1.59988796E-02  1.46227484E-07
  2.65195480E-08 -1.87647423E-01  1.15296719E+00 -1.01392359E-01 -9.85874772E-02
 -2.55540440E-08  5.44991807E-01  1.05980010E-01  3.94181369E-02  2.73791209E-07
 -7.95993125E-01 -6.15054955E-01 -7.29670188E-01 -2.89590649E-02  1.26508383E-07
 -1.00699912E-07  8.70009977E-02 -5.34562143E-01 -1.78382338E-01  8.35198590E-03
 -2.05671527E-08 -2.52679109E-01  1.23076636E-01  1.56723145E-02 -1.65143614E-07
  3.51270055E-01  3.02949569E-01  3.38304870E-01  1.35651724E-01 -2.41521858E-07
  7.73558969E-08  2.74646876E-01 -1.68751848E+00 -4.72743345E-02  2.15577180E-02
 -4.46121646E-09 -7.97675862E-01  9.39702183E-02  1.27428427E-02  1.14373859E-07
  1.05533081E+00  1.00992309E+00  1.06796849E+00 -1.59967815E-02  9.94581709E-08
  2.83166966E-08 -7.66284542E-02  1.18993549E-01  3.55272876E-02 -5.51691106E-02
  1.12156966E-01 -1.74162030E-01  7.66291954E-02 -1.18994562E-01 -3.55284195E-02
  5.51708041E-02 -1.12156811E-01  1.74161819E-01  2.26366260E-01 -1.32652556E+00
 -3.56101145E-02  1.66418343E-01  1.09582359E-08 -1.43681729E+00  1.66541610E-01
 -2.63437630E-01  1.18310037E-07  8.92420225E-01  1.09377927E+00  8.44468824E-01
  7.64673618E-02  2.98666725E-08 -4.61675019E-08  3.15690784E-02 -1.84993712E-01
 -1.86465618E-01  3.80583597E-02  7.84970687E-08 -2.00384984E-01  1.85645115E-01
 -6.08273194E-02 -1.54607907E-07  1.23996750E-01  1.53001254E-01  1.17768902E-01
 -1.46476734E-01 -6.71833922E-07  3.59374066E-08 -2.57938578E-01  1.51154506E+00
 -1.01650158E-01 -1.28146232E-01  1.57537333E-07  1.63720620E+00  2.71267358E-01
  2.03697139E-01 -2.29934077E-07 -1.02199346E+00 -1.24122879E+00 -9.62250953E-01
  5.11728825E-02  1.58558449E-07  1.97022203E-07  2.26367721E-01 -1.32653685E+00
  3.56106348E-02 -1.66416220E-01  1.15238569E-07 -1.43681908E+00 -1.66541591E-01
  2.63436768E-01 -1.85454081E-07  8.92426605E-01  1.09378396E+00  8.44474900E-01
  7.64675209E-02 -1.11631544E-07  7.88877725E-09  3.15712711E-02 -1.85011180E-01
  1.86465843E-01 -3.80569209E-02  1.22864743E-07 -2.00387349E-01 -1.85645583E-01
  6.08268096E-02 -1.34211935E-07  1.24004952E-01  1.53009768E-01  1.17778124E-01
 -1.46476616E-01  4.33199332E-07 -7.70922907E-08 -2.57937893E-01  1.51153914E+00
  1.01649838E-01  1.28148517E-01  1.24813352E-07  1.63720645E+00 -2.71267467E-01
 -2.03697917E-01 -2.47487553E-07 -1.02199028E+00 -1.24122674E+00 -9.62247978E-01
  5.11723839E-02 -1.05659364E-07 -8.72324695E-08 -7.32709235E-02  1.38159989E-01
 -1.02182730E-02  1.92680304E-02  8.34896956E-02 -1.57430958E-01 -7.32713335E-02
  1.38161237E-01 -1.02189064E-02  1.92698357E-02  8.34895125E-02 -1.57430367E-01
  1.67149029E-01 -9.79513679E-01 -1.66270330E-01 -6.84137174E-02 -3.05948043E-07
 -1.06093060E+00  2.64160225E-01 -1.57185224E-03  3.82187458E-07  8.10402281E-01
  6.56205541E-01  6.23557883E-01  1.11970250E-01  2.13984809E-07  2.46469994E-07
 -2.79613137E-01  1.63856289E+00 -3.81946710E-02 -1.53661491E-01 -4.32281184E-07
  1.77478152E+00  6.00996626E-02  3.53754537E-01  8.01058514E-07 -1.34267873E+00
 -1.11072292E+00 -1.04310954E+00  1.24649138E-02 -9.97252050E-08 -1.48899986E-07
  1.12465674E-01 -6.59057432E-01  1.28288586E-01 -1.34453859E-01 -2.42450677E-07
 -7.13853681E-01 -2.02974259E-01  1.03158352E-01  2.65188586E-07  5.48592365E-01
  4.38211857E-01  4.19557602E-01 -1.30858534E-01 -2.75452114E-07  4.38852168E-07
  1.67147156E-01 -9.79498784E-01  1.66272375E-01  6.84144764E-02 -1.52384179E-07
 -1.06092815E+00 -2.64161060E-01  1.57164509E-03  1.31224964E-07  8.10395665E-01
  6.56197622E-01  6.23550024E-01  1.11970566E-01 -2.91653099E-08 -7.52711912E-08
 -2.79612955E-01  1.63856102E+00  3.81973028E-02  1.53661402E-01 -2.56068345E-07
  1.77478119E+00 -6.01006000E-02 -3.53754505E-01  4.22179424E-07 -1.34267818E+00
 -1.11072173E+00 -1.04310871E+00  1.24638438E-02 -1.32484576E-08  1.56192394E-07
  1.12467329E-01 -6.59071275E-01 -1.28287009E-01  1.34453664E-01 -2.30652162E-07
 -7.13853885E-01  2.02973523E-01 -1.03158372E-01  2.73699597E-07  5.48598581E-01
  4.38218047E-01  4.19564709E-01 -1.30858068E-01  1.70705403E-07 -2.95162655E-07
 -5.41028406E-02  1.02017134E-01  9.05052277E-02 -1.70658382E-01 -3.64030890E-02
  6.86408506E-02 -5.41023251E-02  1.02015497E-01  9.05050927E-02 -1.70658045E-01
 -3.64036153E-02  6.86422325E-02  2.15506170E-01 -1.01175771E+00 -1.30738581E-01
  9.56744332E-02 -1.97057705E-07 -3.54143704E+00  1.19416519E+00 -8.73834283E-01
  9.96949795E-07  9.15327440E-01  1.01550765E+00  7.35972518E-01  1.82208260E-01
  2.65203081E-07  5.93817120E-07 -2.15506360E-01  1.01176124E+00 -1.74767870E-02
 -1.61060181E-01 -3.86852124E-07  3.54143373E+00  1.59665827E-01  1.47108884E+00
  2.13662735E-06 -1.12711956E+00 -8.03717386E-01 -7.35973784E-01  4.10163000E-02
  1.51351239E-07  1.36595440E-07  2.15506189E-01 -1.01175585E+00  1.48224762E-01
  6.53900993E-02 -3.59332742E-07 -3.54144344E+00 -1.35384390E+00 -5.97264599E-01
  2.15672584E-06  8.53805621E-01  1.07703065E+00  7.35971737E-01 -1.41194975E-01
 -1.96560714E-07  3.76786670E-07 -2.15506347E-01  1.01175818E+00 -1.30741457E-01
  9.56709032E-02 -7.19887843E-09  3.54143963E+00  1.19417465E+00 -8.73823322E-01
 -4.00419031E-07 -9.15328741E-01 -1.01550767E+00 -7.35973094E-01 -1.82208640E-01
  4.34927571E-07  3.78741378E-07  2.15506592E-01 -1.01176218E+00 -1.74811496E-02
 -1.61059922E-01  1.82701671E-07 -3.54143821E+00  1.59679760E-01  1.47108813E+00
 -1.53847504E-06  1.12712091E+00  8.03718059E-01  7.35974533E-01 -4.10156813E-02
  1.99108457E-07 -1.28096234E-07 -2.15506280E-01  1.01175596E+00  1.48223282E-01
  6.53938085E-02  1.58223307E-07  3.54144483E+00 -1.35383936E+00 -5.97277007E-01
 -1.51532859E-06 -8.53805617E-01 -1.07703124E+00 -7.35972029E-01  1.41194723E-01
 -2.84938976E-07  3.40746125E-07 -8.50491894E-02 -1.26407498E-01  8.50487348E-02
  1.26404496E-01 -8.50490664E-02 -1.26407128E-01  8.50492505E-02  1.26407676E-01
 -8.50487234E-02 -1.26404238E-01  8.50491221E-02  1.26407344E-01
Orthonormal basis                          R   N=       10404
  1.06103936E-02  5.79371044E-02 -1.91674966E-02  1.40260182E-02 -1.41360293E-08
  8.13289086E-02 -4.82878261E-02  3.53320177E-02 -2.77389008E-08  4.87645806E-02
  4.90363725E-02  3.91991378E-02  7.94405399E-04  1.37385819E-08  5.64378999E-09
  1.06149619E-02  5.79589641E-02  2.56328202E-03  2.36175080E-02  3.89757422E-08
  8.13390974E-02  6.45390325E-03  5.94755306E-02  8.15066816E-08  4.93682498E-02
  4.84691097E-02  3.92126516E-02 -1.83314001E-04  6.99642521E-10  2.35445172E-08
  1.06123664E-02  5.79465229E-02  2.17324658E-02  9.58774242E-03 -1.76654575E-08
  8.13333303E-02  5.47409091E-02  2.41461941E-02 -3.56997977E-08  4.86024320E-02
  4.92141890E-02  3.92049767E-02 -6.21972254E-04 -2.05621573E-08 -6.57424504E-10
  1.06103963E-02  5.79371176E-02  1.91675325E-02 -1.40259771E-02  2.48933799E-09
  8.13289208E-02  4.82878069E-02 -3.53320473E-02  4.73151932E-09  4.87646168E-02
  4.90363580E-02  3.91991468E-02  7.94419938E-04 -8.21332470E-09 -5.94713935E-09
  1.06149673E-02  5.79589899E-02 -2.56333512E-03 -2.36175060E-02  2.29650030E-08
  8.13391247E-02 -6.45386569E-03 -5.94755349E-02  5.04287287E-08  4.93682790E-02
  4.84691224E-02  3.92126696E-02 -1.83273328E-04  2.91370935E-09 -1.93474030E-08
  1.06123671E-02  5.79465259E-02 -2.17324492E-02 -9.58778575E-03 -1.87600976E-08
  8.13333322E-02 -5.47409309E-02 -2.41461487E-02 -4.26630440E-08  4.86024215E-02
  4.92142044E-02  3.92049787E-02 -6.21948390E-04  1.84060174E-08 -4.16564153E-10
  1.22110181E-02  3.27636326E-02  1.22279499E-02  3.27751672E-02  1.22181353E-02
  3.27685671E-02  1.22110216E-02  3.27636397E-02  1.22279545E-02  3.27751784E-02
  1.22181374E-02  3.27685699E-02  1.75484915E-02  8.70837326E-02  6.50093118E-03
  1.22921740E-02 -1.32147857E-08  9.64362304E-02  3.13182506E-02  1.87039788E-02
 -1.52778682E-08  6.61604264E-02  7.58411729E-02  6.11926614E-02  5.88832935E-03
  1.07121396E-08  1.24040637E-08  3.00199888E-03  1.48887868E-02  3.83509386E-02
 -3.88155472E-03  2.86279802E-09  1.64311278E-02  9.20600039E-02 -1.25190576E-02
  4.95434743E-10  1.52068764E-02  9.07131376E-03  1.04556709E-02  1.85920705E-02
  4.03003527E-08 -1.93253099E-09 -1.46015513E-02 -7.24461426E-02  8.43756319E-03
 -2.29914181E-02  2.06056702E-09 -8.01404183E-02  3.49487655E-02 -4.95669283E-02
 -2.65444620E-09 -5.16316155E-02 -6.65011494E-02 -5.08973083E-02 -2.87635681E-03
  1.58801173E-08  1.25182912E-08 -1.75484749E-02 -8.70836476E-02  6.50088236E-03
  1.22920476E-02 -1.44100227E-08 -9.64361458E-02  3.13182439E-02  1.87039019E-02
 -2.60527128E-08 -6.61604123E-02 -7.58410468E-02 -6.11926040E-02 -5.88834927E-03
  1.51463586E-08  8.40576338E-09 -3.00204973E-03 -1.48890275E-02  3.83509872E-02
 -3.88147371E-03  3.16485391E-09 -1.64313391E-02  9.20600468E-02 -1.25189967E-02
  7.80357255E-09 -1.52070863E-02 -9.07149124E-03 -1.04558361E-02 -1.85920845E-02
  2.80336394E-08 -2.62583268E-09  1.46015870E-02  7.24463125E-02  8.43755861E-03
 -2.29915400E-02 -3.61897805E-09  8.01405724E-02  3.49487465E-02 -4.95669957E-02
 -2.81399244E-09  5.16317200E-02  6.65013191E-02  5.08974257E-02  2.87639283E-03
  1.19638888E-08  9.84413890E-09  3.87084890E-02  6.93424419E-02  6.72347129E-03
  1.18725909E-02 -3.23495115E-02 -5.77139049E-02 -3.87085074E-02 -6.93424679E-02
 -6.72344885E-03 -1.18725513E-02  3.23495196E-02  5.77139198E-02  6.67028313E-03
  3.31065963E-02 -2.21595406E-02 -2.89525174E-02 -2.23005668E-08  3.67309278E-02
 -4.76717804E-02 -7.42314080E-02 -4.06868574E-08  3.58194533E-02  1.81612208E-02
  2.32742507E-02  8.40486542E-03  1.93461843E-08  9.88611861E-09  1.85899579E-02
  9.22257237E-02 -6.05521572E-03  2.50769765E-03  4.83099846E-08  1.02054420E-01
 -1.64793377E-02 -1.36476716E-02  7.44995615E-08  7.96940897E-02  7.06801766E-02
  6.48053582E-02 -5.12328968E-03 -8.18140990E-09  2.09460375E-08  1.18370209E-02
  5.87419632E-02  1.34693872E-02 -2.72795324E-02 -1.44879272E-08  6.51199574E-02
  2.06894751E-02 -7.06948749E-02 -2.35746923E-08  5.19367550E-02  4.38422046E-02
  4.12903556E-02 -1.44212384E-02 -3.21205986E-08  1.67814990E-08 -6.67033065E-03
 -3.31068217E-02 -2.21596431E-02 -2.89525061E-02  1.05100071E-08 -3.67311231E-02
 -4.76718526E-02 -7.42313813E-02  2.35188986E-08 -3.58196536E-02 -1.81613837E-02
 -2.32744052E-02 -8.40490043E-03  1.13895472E-08  2.86108077E-11 -1.85899474E-02
 -9.22256702E-02 -6.05507756E-03  2.50765763E-03 -1.99556315E-08 -1.02054358E-01
 -1.64792727E-02 -1.36477198E-02 -3.22365050E-08 -7.96940587E-02 -7.06801198E-02
 -6.48053216E-02  5.12319234E-03 -1.08063466E-08  2.69350600E-08 -1.18369782E-02
 -5.87417589E-02  1.34692908E-02 -2.72794699E-02  1.58782477E-08 -6.51197687E-02
  2.06894068E-02 -7.06948405E-02  2.81342264E-08 -5.19365758E-02 -4.38420543E-02
 -4.12902151E-02  1.44211832E-02 -2.84023865E-08  1.73486148E-08  1.46073037E-02
  2.63655293E-02  4.11510537E-02  7.35292454E-02  2.59973567E-02  4.67975958E-02
 -1.46072608E-02 -2.63654554E-02 -4.11510494E-02 -7.35292373E-02 -2.59973531E-02
 -4.67975801E-02  2.30330224E-02  9.36202240E-02  1.59452363E-02 -3.13987883E-02
 -2.84590789E-08  7.28820801E-02  4.30241515E-02 -6.37840498E-02 -3.67367882E-08
  7.40684687E-02  6.56774105E-02  7.20626983E-02 -8.24554812E-03  1.68118682E-10
  2.99422774E-09 -7.40329495E-03 -3.01477200E-02  7.38888611E-02  2.59019491E-03
 -1.56013050E-08 -2.34155400E-02  1.23225376E-01  1.08015766E-02 -2.18440611E-08
 -1.86856177E-02 -2.63746569E-02 -2.31535520E-02  2.10360288E-02  7.40371500E-08
 -1.01171531E-08 -1.57209574E-02 -6.39714826E-02 -3.19979902E-03  6.16558711E-02
 -2.16804829E-09 -4.97220064E-02  7.58641670E-03  1.07528589E-01 -1.24663732E-08
 -5.69289335E-02 -3.86368827E-02 -4.91733899E-02  7.47728879E-03  4.17717590E-08
 -2.26920639E-08  2.30330256E-02  9.36202264E-02 -1.59453633E-02  3.13985523E-02
  1.00478499E-08  7.28820531E-02 -4.30244392E-02  6.37835956E-02  8.51756640E-09
  7.40684702E-02  6.56774082E-02  7.20626985E-02 -8.24553653E-03 -1.66445410E-08
  1.62787939E-08 -7.40327810E-03 -3.01476658E-02 -7.38889420E-02 -2.59033050E-03
 -1.20131604E-08 -2.34155897E-02 -1.23225510E-01 -1.08017011E-02 -1.56717481E-08
 -1.86855453E-02 -2.63746471E-02 -2.31535250E-02  2.10360126E-02 -5.34428784E-08
  2.07030718E-08 -1.57209429E-02 -6.39714354E-02  3.19977228E-03 -6.16560326E-02
 -3.98016671E-09 -4.97220380E-02 -7.58636279E-03 -1.07528909E-01 -1.82694700E-08
 -5.69289222E-02 -3.86368228E-02 -4.91733656E-02  7.47727473E-03 -3.43152567E-08
  2.31594828E-08  6.79666108E-02  8.50154688E-02 -2.18088473E-02 -2.75546727E-02
 -4.62619840E-02 -5.82743795E-02  6.79665313E-02  8.50153529E-02 -2.18091296E-02
 -2.75550856E-02 -4.62621506E-02 -5.82746208E-02  4.76413856E-03  1.93231099E-02
  4.96386872E-02  5.71404828E-02  1.06594455E-07  1.51049338E-02  8.56428861E-02
  9.23876373E-02  2.17345244E-07  3.15344447E-03  2.56451648E-02  1.49140150E-02
 -9.39848403E-03 -4.29182510E-08 -4.46933196E-11 -2.23968364E-02 -9.11001240E-02
 -2.04342505E-02  3.39357507E-02  6.13907188E-08 -7.09234991E-02 -3.20304746E-02
  7.56759002E-02  1.75469150E-07 -6.42971532E-02 -7.17519367E-02 -7.00682866E-02
 -8.80236801E-03 -2.42578041E-08  2.24732359E-08  1.75358342E-02  7.12469919E-02
 -4.26056495E-02  3.69866819E-02  1.04618294E-07  5.55465349E-02 -8.47609739E-02
  5.56010917E-02  2.19303498E-07  4.99867216E-02  5.63287334E-02  5.48735586E-02
  1.61416553E-02  1.14464337E-08 -3.23830971E-08  4.76411961E-03  1.93230499E-02
 -4.96388574E-02 -5.71404311E-02  1.06183401E-07  1.51049840E-02 -8.56430792E-02
 -9.23876274E-02  2.18974006E-07  3.15340749E-03  2.56451130E-02  1.49139835E-02
 -9.39855370E-03  2.22443476E-08 -1.09148272E-08 -2.23968441E-02 -9.11001471E-02
  2.04340288E-02 -3.39356889E-02  9.86556329E-08 -7.09234787E-02  3.20299842E-02
 -7.56758175E-02  2.19255599E-07 -6.42971793E-02 -7.17519437E-02 -7.00683006E-02
 -8.80235362E-03  1.90233281E-08  1.11339780E-09  1.75358455E-02  7.12470277E-02
  4.26055151E-02 -3.69865703E-02  1.06907411E-07  5.55464981E-02  8.47607648E-02
 -5.56007967E-02  2.26115736E-07  4.99867404E-02  5.63287694E-02  5.48735759E-02
  1.61416218E-02 -1.79846176E-08  2.72162978E-08  1.42161534E-02  1.75186048E-02
 -6.63283738E-02 -8.32275902E-02  5.20012769E-02  6.48447290E-02  1.42165074E-02
  1.75191048E-02 -6.63282829E-02 -8.32274585E-02  5.20011318E-02  6.48445093E-02
 -3.74511762E-03 -2.24296370E-02 -7.46390444E-02  5.36300905E-02 -7.96597666E-08
 -3.51498566E-02 -1.14043361E-01  8.20870927E-02 -1.48078605E-07 -1.53544572E-02
 -2.36205722E-02 -1.35083808E-02 -2.62969941E-02  1.91434046E-08 -4.81811242E-08
 -3.46872707E-03 -2.15341473E-02  9.20903593E-03  9.00464887E-02 -5.81115954E-08
 -3.38188464E-02  1.42029605E-02  1.38350822E-01 -1.52044323E-07 -3.30407135E-02
 -4.85837348E-03 -1.25528240E-02  6.25254188E-03  1.68813847E-08  1.91677202E-09
 -3.62788839E-03 -2.20502995E-02  8.40733830E-02  3.56070890E-02 -1.64073665E-07
 -3.45807621E-02  1.28753953E-01  5.47154838E-02 -2.50324543E-07 -9.84018195E-03
 -2.86800089E-02 -1.31025268E-02  2.08462411E-02  1.80235989E-08 -1.40792419E-08
 -3.74512823E-03 -2.24296779E-02  7.46388666E-02 -5.36303499E-02 -1.18174631E-07
 -3.51498843E-02  1.14043147E-01 -8.20874102E-02 -2.03319710E-07 -1.53545647E-02
 -2.36205241E-02 -1.35084124E-02 -2.62970294E-02  2.61139344E-08  2.70127704E-08
 -3.46872044E-03 -2.15341272E-02 -9.20872498E-03 -9.00465164E-02 -2.18689075E-08
 -3.38188362E-02 -1.42025990E-02 -1.38350849E-01 -1.01282603E-07 -3.30407253E-02
 -4.85833617E-03 -1.25528060E-02  6.25242672E-03 -3.24198819E-09  4.26329347E-08
 -3.62790050E-03 -2.20503455E-02 -8.40735236E-02 -3.56068260E-02 -1.26506565E-07
 -3.45807959E-02 -1.28754106E-01 -5.47151926E-02 -1.89940908E-07 -9.84018250E-03
 -2.86800744E-02 -1.31025635E-02  2.08461810E-02 -6.55203277E-09  1.89060704E-08
 -7.56236109E-02 -9.47581098E-02 -7.50279865E-02 -9.31664916E-02 -7.53428602E-02
 -9.40659453E-02 -7.56236449E-02 -9.47581409E-02 -7.50279627E-02 -9.31664747E-02
 -7.53428910E-02 -9.40659752E-02 -5.59722847E-09 -2.76956852E-08 -3.30016349E-07
 -6.71805024E-08  1.10816091E-01 -3.48743642E-08 -4.54633399E-07 -8.63795891E-08
  1.95974720E-01  9.01622039E-09 -3.16315721E-08 -4.09861514E-08  1.96543485E-08
 -2.66372391E-02  1.94920824E-02  1.68132189E-08  4.03465207E-08  1.05870383E-07
 -1.08243090E-07  1.10816085E-01 -2.74933508E-08  1.09014262E-07 -2.02520365E-07
  1.95974845E-01 -4.53122279E-08  2.50129364E-08  1.03530886E-07  7.12684976E-08
  3.56140208E-03  3.28145313E-02 -4.89773344E-08 -1.90748941E-07  2.06148557E-07
 -8.12893859E-08  1.10816313E-01 -1.18493452E-07  3.65420131E-07 -7.12423585E-08
  1.95974948E-01 -9.42206563E-08 -1.44313843E-07 -1.87143011E-07  7.59514958E-09
  3.01991242E-02  1.33228234E-02 -3.95288765E-09 -2.93031680E-08  1.96034931E-07
  1.95189516E-07  1.10816115E-01 -4.21957886E-08  2.73371819E-07  2.26362191E-07
  1.95974746E-01  2.88055700E-08 -7.89824001E-08 -1.91608414E-08 -5.17654228E-08
  2.66373925E-02 -1.94918889E-02  1.36978108E-08  3.58102257E-08 -9.50889193E-08
 -6.15140131E-08  1.10816130E-01 -2.05705305E-08 -1.27471983E-07 -8.47161411E-09
  1.95974905E-01 -1.08673958E-09 -1.89083536E-09  7.83447500E-08  6.80132840E-09
 -3.56163996E-03 -3.28145130E-02 -1.09850863E-08 -4.33009481E-08 -2.57191843E-07
  5.86331656E-08  1.10816323E-01 -4.35463635E-08 -4.07827082E-07  5.32486037E-08
  1.95974958E-01  1.92967813E-08 -4.71246074E-08 -6.88710145E-08  2.30602421E-08
 -3.01990401E-02 -1.33230296E-02 -2.13774351E-07 -2.23334652E-07  6.46554097E-08
  3.69059810E-08 -4.36476275E-09  8.62176013E-09  6.86245435E-08  5.79877246E-08
 -1.98330663E-07 -2.25793545E-07 -2.35144314E-08 -2.78473816E-08  2.49355793E-02
  8.36989026E-02  5.92546273E-02 -4.26192470E-02  1.10555350E-07  4.85032256E-02
  7.43013876E-02 -5.49162696E-02  1.86004294E-07  6.45576043E-02  4.85880330E-02
  6.94165974E-02 -5.01390575E-02 -1.20674394E-07 -7.65450789E-08 -2.52552282E-02
 -8.50723693E-02  6.53269122E-03  6.48352846E-02  3.31759902E-07 -4.65736309E-02
  9.43810748E-03  8.42356733E-02  5.46264949E-07 -3.39332633E-02 -8.17034834E-02
 -6.98327788E-02 -1.04439573E-02 -4.11468615E-08  6.31134614E-08  2.50670908E-02
  8.42629266E-02 -6.42862998E-02 -2.71615853E-02  3.62836814E-07  4.77031909E-02
 -8.13553069E-02 -3.66919864E-02  5.39807056E-07  7.43037683E-02  3.98649392E-02
  6.95867971E-02  3.75738955E-02  3.99021772E-09 -8.92433232E-08 -2.49355722E-02
 -8.36988723E-02  5.92548431E-02 -4.26188589E-02  3.49123492E-09 -4.85032002E-02
  7.43015893E-02 -5.49158800E-02  4.20024993E-08 -6.45576430E-02 -4.85879478E-02
 -6.94165760E-02  5.01390173E-02 -1.85529595E-08 -1.46274858E-07  2.52552122E-02
  8.50723054E-02  6.53311316E-03  6.48352565E-02 -2.14412264E-07  4.65736022E-02
  9.43855923E-03  8.42356332E-02 -3.12923254E-07  3.39332424E-02  8.17034110E-02
  6.98327295E-02  1.04440047E-02 -5.34787244E-08 -4.92223393E-08 -2.50670815E-02
 -8.42628872E-02 -6.42861073E-02 -2.71619036E-02 -1.83342710E-07 -4.77031537E-02
 -8.13550778E-02 -3.66923146E-02 -2.52552850E-07 -7.43037281E-02 -3.98649215E-02
 -6.95867661E-02 -3.75738893E-02 -2.31717106E-08 -9.98360190E-08  1.08814652E-01
  9.33594156E-02 -9.99892906E-02 -8.61664520E-02  1.05087010E-01  9.03662426E-02
 -1.08814584E-01 -9.33593543E-02  9.99892650E-02  8.61664437E-02 -1.05086957E-01
 -9.03661784E-02 -1.28534512E-02 -4.52896697E-02  1.02420356E-01 -1.08551859E-01
  4.97062066E-07  1.92508109E-03  1.08358188E-01 -8.26528121E-02  6.72245204E-07
 -5.86273007E-03 -6.00703460E-02 -3.29672419E-02 -1.84611838E-02 -1.85383048E-08
  1.90072158E-07  3.77404669E-03  1.31284424E-02 -5.48184147E-02  4.60492345E-02
  3.30844953E-10 -1.87325741E-04 -6.35368613E-03  3.80634703E-02 -3.34669972E-08
  4.97621193E-03  1.39532386E-02  9.70911628E-03 -9.15440584E-02  1.34681750E-07
  1.93164100E-08  1.57768090E-02  5.60238425E-02  1.69938135E-01  8.23658951E-02
 -6.83254581E-07 -3.48081619E-03  1.61195735E-01  7.05501580E-02 -7.54899051E-07
  1.86101830E-02  6.34040471E-02  4.04246011E-02 -2.41056133E-02  9.89821180E-08
  3.79607792E-09  1.28534440E-02  4.52896375E-02  1.02420207E-01 -1.08551339E-01
 -3.48219238E-07 -1.92501210E-03  1.08357783E-01 -8.26526972E-02 -4.50118961E-07
  5.86269382E-03  6.00703175E-02  3.29672325E-02  1.84611454E-02  1.41810219E-07
  7.65430715E-08 -3.77401048E-03 -1.31284114E-02 -5.48185030E-02  4.60484423E-02
  1.83651758E-07  1.87133292E-04 -6.35385647E-03  3.80628428E-02  3.01002645E-07
 -4.97618632E-03 -1.39532444E-02 -9.70911065E-03  9.15440682E-02  1.62769145E-07
 -7.39753220E-08 -1.57767904E-02 -5.60238053E-02  1.69938243E-01  8.23663163E-02
  8.35203265E-07  3.48086168E-03  1.61196043E-01  7.05500654E-02  9.98238779E-07
 -1.86101108E-02 -6.34040900E-02 -4.04245627E-02  2.41056167E-02 -2.85432159E-09
 -2.70009126E-08  1.17982317E-01  1.03434947E-01 -3.31731575E-02 -2.83313355E-02
 -1.53766603E-01 -1.34389269E-01 -1.17982050E-01 -1.03434789E-01  3.31726439E-02
  2.83309312E-02  1.53766836E-01  1.34389415E-01  1.27554159E-02  4.40694471E-02
 -1.27760864E-01  4.54588062E-02  1.55834753E-07  2.30234925E-04 -1.00407011E-01
  6.61489134E-02  2.67193268E-07  5.57561351E-02  7.45065119E-03  3.28709336E-02
  4.46439457E-02  2.87920610E-08 -2.66833168E-08  1.53410450E-02  5.50731066E-02
  2.94699370E-02  1.94849939E-01  4.27270268E-07 -4.84969427E-03  2.07975576E-02
  1.83414326E-01  4.42776014E-07  6.92838248E-02  1.19177181E-02  3.93283499E-02
  3.51323728E-03  5.38435373E-08  1.11588959E-07  6.54631334E-03  2.21242276E-02
  7.38253560E-02 -2.57158829E-02 -1.00779381E-09  1.27759424E-03  5.17590022E-02
  1.31462892E-02  7.88722545E-08  4.16588557E-02 -1.04601166E-02  1.69337622E-02
 -6.48127565E-02  3.91669294E-08  4.16766218E-09 -1.27554338E-02 -4.40694572E-02
 -1.27761526E-01  4.54589829E-02 -4.46283101E-08 -2.30086889E-04 -1.00407333E-01
  6.61493684E-02 -1.23122178E-07 -5.57561165E-02 -7.45067634E-03 -3.28709266E-02
 -4.46439700E-02 -8.75454312E-08 -7.99594953E-09 -1.53410415E-02 -5.50730806E-02
  2.94704439E-02  1.94850029E-01 -4.40632501E-07  4.84974679E-03  2.07974059E-02
  1.83414472E-01 -4.42636187E-07 -6.92838253E-02 -1.19176809E-02 -3.93283252E-02
 -3.51324246E-03 -1.13420851E-08 -7.70063087E-08 -6.54629080E-03 -2.21242144E-02
  7.38245962E-02 -2.57160638E-02  4.69182412E-08 -1.27775569E-03  5.17584295E-02
  1.31459816E-02 -6.43039540E-09 -4.16588812E-02  1.04601497E-02 -1.69337701E-02
  6.48125665E-02  3.00967461E-08 -5.48923168E-08 -1.03998106E-01 -9.03366856E-02
 -1.62679523E-01 -1.41890183E-01 -4.65734408E-02 -3.93639554E-02  1.03998544E-01
  9.03369902E-02  1.62679652E-01  1.41890284E-01  4.65728161E-02  3.93634951E-02
 -5.37362913E-04 -1.73732538E-03 -1.27641149E-01 -1.83849390E-01 -1.44059946E-06
 -2.52964898E-04 -9.35188992E-02 -1.36243152E-01 -1.63699556E-06  1.52103012E-02
 -1.75494327E-02 -1.45584055E-03  1.13477735E-02  1.99772951E-07 -2.06531516E-07
  4.10552971E-04  1.31780766E-03  2.19127501E-01 -1.96485115E-02 -3.97852335E-07
  2.05610293E-04  1.63155975E-01 -1.38970388E-02 -4.68181018E-07  3.77114065E-03
 -2.01118414E-03  1.11989960E-03  2.55410240E-02 -3.55108183E-07 -4.01503394E-08
  9.59265001E-04  3.08396720E-03 -8.06617640E-02  2.06731662E-01  9.80656449E-07
  4.75586476E-04 -5.83717839E-02  1.53971910E-01  1.12561034E-06 -9.19166364E-03
  1.33221452E-02  2.60497709E-03  2.16072077E-02  7.70941212E-08  3.31518422E-07
  5.37074788E-04  1.73667207E-03 -1.27641645E-01 -1.83849210E-01  1.39613837E-06
  2.53259093E-04 -9.35188863E-02 -1.36243214E-01  1.60814788E-06 -1.52105892E-02
  1.75489191E-02  1.45534209E-03 -1.13491949E-02  1.59504258E-07 -2.60205448E-07
 -4.10793061E-04 -1.31834970E-03  2.19128027E-01 -1.96483867E-02  4.56374631E-07
 -2.05273869E-04  1.63156165E-01 -1.38973259E-02  5.15845457E-07 -3.77206011E-03
  2.01141108E-03 -1.12027390E-03 -2.55409281E-02 -4.21280367E-07 -4.52711716E-08
 -9.59438186E-04 -3.08431641E-03 -8.06619697E-02  2.06731967E-01 -9.76026117E-07
 -4.75226213E-04 -5.83722291E-02  1.53971941E-01 -1.11814138E-06  9.19178949E-03
 -1.33227162E-02 -2.60519659E-03 -2.16064879E-02  5.19125702E-08  3.77046152E-07
  3.32760884E-03  3.39297886E-03 -2.91457408E-03 -2.67865998E-03 -6.21090165E-03
 -6.03714460E-03 -3.32590224E-03 -3.39163002E-03  2.91570464E-03  2.67969021E-03
  6.21166442E-03  6.03786554E-03 -1.15663356E-07 -3.71170460E-07  9.84279619E-07
  6.17861819E-07 -1.88409444E-01 -6.86401346E-08  7.63934051E-07  5.22752028E-07
 -2.12392624E-01 -2.28007533E-07 -2.82287496E-07 -2.85504299E-07 -1.06030476E-07
 -1.55963301E-02 -8.29771606E-02  5.06436120E-08  1.26161801E-07 -1.17052934E-06
  2.45383618E-07  5.31867258E-02  1.80837186E-10 -5.71591825E-07  1.46405287E-07
  5.99567908E-02 -3.18270967E-08  1.45631190E-07  1.46693766E-07 -3.89437150E-07
 -1.09357400E-01  2.22093629E-02  1.22040254E-08  7.40339537E-08  1.36078008E-06
 -8.61000767E-07  2.41594479E-01 -8.69592295E-08  1.11627266E-06 -5.34664606E-07
  2.72347786E-01  1.27561996E-07  1.02828157E-07 -6.24611234E-08 -2.24536793E-07
  2.86164374E-02  5.08158442E-02  5.75144852E-08  1.80609347E-07  1.04775142E-06
  8.14669504E-07  1.88408562E-01 -1.81226637E-08  8.45044498E-07  6.05475077E-07
  2.12391874E-01  1.69237939E-07  6.37259226E-08  1.53321384E-07 -1.57007179E-07
 -1.55958036E-02 -8.29759606E-02 -4.50311247E-08 -1.42565947E-07 -1.18265605E-06
 -5.48004248E-09 -5.31854065E-02 -3.65267631E-08 -6.30497802E-07 -7.40957459E-08
 -5.99556770E-02 -2.29122777E-09 -1.49495505E-07 -1.52118196E-07  3.73072344E-07
 -1.09357172E-01  2.22089021E-02 -1.26731341E-08 -9.45331250E-08  1.23776668E-06
 -6.52069370E-07 -2.41594915E-01  7.35814795E-08  1.01858183E-06 -4.55091724E-07
 -2.72348144E-01 -2.08355734E-08 -2.27419352E-07  3.11434681E-08  3.09234015E-07
  2.86159351E-02  5.08173558E-02  3.27633276E-07  2.79693203E-07 -7.24507076E-08
 -8.10347898E-08 -3.09518420E-07 -2.12943802E-07 -2.26986312E-09 -5.62627443E-08
 -9.25409227E-08 -3.75779505E-08  4.69860429E-07  3.15247812E-07 -1.52369863E-08
 -6.63405470E-08 -6.86893367E-07 -3.63887183E-07  1.70191502E-01 -2.98790481E-08
 -5.47435964E-07 -3.27061875E-07  1.91855598E-01 -5.70870227E-08  2.89207278E-08
 -1.20485581E-07  3.79889236E-07 -7.63415210E-02 -4.86281702E-02 -5.00801574E-08
 -1.84914822E-07  8.54002447E-07 -8.94679523E-07  2.48263433E-01 -3.34604293E-08
  4.90086789E-07 -7.11105993E-07  2.79865229E-01 -3.98833973E-07 -8.57103162E-09
  4.25061328E-09  3.25774728E-07  2.88415933E-02  4.51324128E-02 -6.19216760E-08
 -1.89781117E-07 -3.10867021E-07  9.37514701E-07  7.80718364E-02 -5.35449311E-08
 -5.56988813E-08  4.77610404E-07  8.80094331E-02 -2.68770720E-07  8.14383491E-08
 -2.16503953E-07  2.45150977E-07  5.74507898E-02 -9.28422447E-02  1.23764957E-07
  3.65400206E-07 -1.41860089E-07 -8.53751415E-07 -1.70192486E-01  6.77538851E-08
 -1.59280736E-07 -6.16979838E-07 -1.91856391E-01  1.71992292E-07  2.67454124E-07
  3.35544807E-07  3.93968279E-08 -7.63424826E-02 -4.86288977E-02 -5.40997312E-08
 -1.15898490E-07  3.01626899E-07 -3.93724962E-07 -2.48263687E-01 -5.29321308E-08
  3.26034665E-07 -4.26538565E-07 -2.79865389E-01  3.67711732E-08 -5.44873364E-08
 -2.14236120E-07  1.76671875E-07  2.88432766E-02  4.51323029E-02  4.22146486E-08
  1.25638184E-07  2.13992750E-07  3.15082804E-07 -7.80705211E-02  6.27597414E-08
  1.91115880E-07  2.46864816E-07 -8.80083050E-02  1.00737635E-07  3.87808360E-09
  1.62540288E-07  2.74650596E-07  5.74502136E-02 -9.28419203E-02 -4.88470368E-07
 -2.88444125E-07  6.52505528E-07  4.44570385E-07  1.16572200E-08  3.21256579E-08
 -4.21521977E-07 -3.51376929E-07  4.69901498E-08  6.37723662E-08  2.92132042E-07
  1.59516961E-07  1.42092356E-02  3.90554120E-02 -1.67486590E-01  4.54175389E-02
 -6.65100465E-07 -7.37407683E-03 -9.44448556E-02  4.33334283E-02 -6.38747800E-07
  2.77830701E-02  2.15447031E-02  3.21601958E-02  1.18134069E-01  4.28910177E-07
  1.76719655E-07 -3.33210828E-03 -9.34432540E-03  1.93507976E-01 -5.78560896E-02
 -7.31946303E-07  2.00307104E-03  6.33246948E-02 -2.96953457E-02 -7.24783085E-07
 -5.29858597E-03 -6.73450460E-03 -7.49174334E-03  1.38686152E-01  7.15119041E-08
 -1.84687987E-07 -1.11611427E-02 -3.08678973E-02 -1.70382828E-01  7.48841102E-02
  2.93282063E-07  6.13520395E-03 -9.02325647E-02  9.85972862E-03  1.52520032E-07
 -2.35859803E-02 -1.56433474E-02 -2.52148785E-02  1.30939742E-01 -2.40016025E-07
 -3.06609504E-08  1.42092548E-02  3.90553106E-02  1.67486047E-01 -4.54178616E-02
  1.72381198E-07 -7.37420480E-03  9.44442526E-02 -4.33337922E-02  2.51299832E-07
  2.77824353E-02  2.15451308E-02  3.21601174E-02  1.18133554E-01  1.78152105E-07
 -1.26194177E-07 -3.33200841E-03 -9.34451369E-03 -1.93507278E-01  5.78566875E-02
  3.26723448E-07  2.00271243E-03 -6.33242687E-02  2.96960551E-02  4.05256897E-07
 -5.29894579E-03 -6.73463137E-03 -7.49186479E-03  1.38686290E-01 -1.94196515E-07
 -8.34152477E-08 -1.11610930E-02 -3.08680660E-02  1.70382960E-01 -7.48834780E-02
  4.22378533E-07  6.13493054E-03  9.02328807E-02 -9.85941638E-03  3.15255198E-07
 -2.35864134E-02 -1.56432850E-02 -2.52150050E-02  1.30940146E-01 -3.55627496E-08
  4.59957301E-07 -1.75195678E-01 -1.09008946E-01  4.08492757E-02  2.52909882E-02
  1.38223520E-01  8.55944000E-02 -1.75195479E-01 -1.09008845E-01  4.08496929E-02
  2.52912267E-02  1.38223664E-01  8.55944602E-02  5.11915381E-03  1.29260020E-02
  8.47135029E-02  2.06985444E-01  5.91041227E-08 -2.40686468E-03  2.18502351E-02
  8.68747902E-02 -3.40096185E-08 -5.38090916E-02  6.91822137E-02  1.13982979E-02
  1.34300836E-02 -1.14816173E-07  6.88422303E-08 -1.57493155E-02 -3.86675403E-02
 -6.69506288E-02 -1.67266857E-01 -3.94690887E-07  5.75565596E-03 -2.99951271E-02
 -1.08058240E-01 -3.24208062E-07 -8.96386983E-02  4.50854961E-02 -3.52951346E-02
  2.68213458E-03 -4.55637822E-08  1.29959044E-07  1.12675310E-02  2.82868083E-02
  4.14538172E-02  2.03452526E-01 -2.18103999E-08 -4.89694701E-03  4.28797761E-02
  8.98854737E-02  2.17650681E-08 -4.96382757E-02  8.30511516E-02  2.51093545E-02
 -1.65976814E-02  3.76866185E-07  3.69409865E-07  5.11905885E-03  1.29261527E-02
 -8.47127361E-02 -2.06985755E-01  7.28679471E-07 -2.40655491E-03 -2.18496163E-02
 -8.68752987E-02  6.37657376E-07 -5.38090167E-02  6.91825427E-02  1.13983783E-02
  1.34297262E-02  3.46394271E-07 -1.96857551E-07 -1.57493363E-02 -3.86675051E-02
  6.69508728E-02  1.67266595E-01  9.42375026E-08  5.75573808E-03  2.99949857E-02
  1.08058035E-01  1.73969996E-07 -8.96385167E-02  4.50853966E-02 -3.52951027E-02
  2.68372178E-03 -2.84824710E-07 -5.26517282E-07  1.12675598E-02  2.82865766E-02
 -4.14531835E-02 -2.03452497E-01 -9.18317275E-08 -4.89720632E-03 -4.28793236E-02
 -8.98850743E-02 -7.18115387E-08 -4.96383368E-02  8.30507584E-02  2.51091987E-02
 -1.65983725E-02 -4.29260670E-07 -3.81866157E-08 -6.42288058E-02 -3.86168280E-02
  1.94811097E-01  1.19157316E-01 -1.38641884E-01 -8.43261287E-02 -6.42288374E-02
 -3.86169601E-02  1.94811055E-01  1.19157276E-01 -1.38641846E-01 -8.43260102E-02
  1.08310064E-03  1.00544414E-02  3.28267319E-02 -2.74706244E-03 -3.77578633E-08
 -1.45725935E-02  4.39330228E-02 -1.31846166E-03 -2.05788640E-08 -5.12893543E-05
  2.18207820E-02  1.67898145E-03  3.38101538E-01 -7.57464858E-09 -2.92754384E-09
  2.09359822E-02  6.89346070E-02  4.03990876E-02  3.23231201E-02  5.23691012E-07
 -2.49540968E-02  2.90754533E-02 -1.63429847E-02  2.64064575E-07  1.59292147E-01
 -5.39425238E-02  3.82477581E-02 -1.09604104E-01 -1.59742931E-08  3.27674628E-08
  8.27065239E-03  3.32517344E-02 -3.50341849E-02  4.22371291E-02 -1.44026611E-07
 -1.88867263E-02 -5.53823396E-02  3.61788098E-02 -3.17014568E-08 -1.07002790E-02
  6.71056225E-02  1.45140326E-02 -2.96367093E-01  3.18612516E-07  2.51867605E-07
  1.08311346E-03  1.00544859E-02 -3.28262328E-02  2.74561633E-03  2.24353652E-08
 -1.45726665E-02 -4.39326866E-02  1.31786766E-03  3.97805120E-08 -5.27384543E-05
  2.18223390E-02  1.67896354E-03  3.38097017E-01  1.02782346E-07 -2.40349025E-07
  2.09360141E-02  6.89346384E-02 -4.03961067E-02 -3.23229045E-02  3.87076568E-07
 -2.49541162E-02 -2.90746007E-02  1.63432067E-02  1.85137221E-07  1.59292252E-01
 -5.39426209E-02  3.82477911E-02 -1.09606304E-01  5.11139078E-09  2.06796326E-07
  8.27054246E-03  3.32515260E-02  3.50351580E-02 -4.22355029E-02 -4.14343210E-07
 -1.88867412E-02  5.53829216E-02 -3.61782085E-02 -2.54641351E-07 -1.07003362E-02
  6.71054516E-02  1.45138522E-02 -2.96372721E-01 -1.36038249E-07 -1.48347618E-07
 -1.23548062E-01 -4.00245770E-02 -9.97592279E-02 -6.27557120E-02 -9.40971852E-02
 -3.87007556E-02 -1.23546977E-01 -4.00245269E-02 -9.97595006E-02 -6.27557377E-02
 -9.40983830E-02 -3.87008099E-02  7.45524721E-07  2.47504205E-06 -1.73414818E-05
  4.72077061E-06 -1.94260079E-01 -2.98588028E-07 -1.04101945E-05 -1.03384909E-06
 -1.12591518E-01 -1.67181584E-06  5.65550880E-06  1.22406022E-06 -6.85261943E-05
 -9.13070963E-02 -2.01274875E-01  1.51713019E-07  3.61134783E-07 -2.41337433E-05
  4.08685844E-06  2.09201492E-01 -1.25852481E-07  4.09945744E-07 -1.05624035E-07
  1.21252248E-01 -4.67519722E-06  5.06808312E-06  2.98364548E-07  8.97992087E-06
 -1.66823996E-01  6.70379896E-02 -1.22313637E-06 -2.88112309E-06 -1.88559149E-05
  7.96318089E-06 -1.49426707E-02 -3.64669849E-07 -9.81862782E-06  5.59526288E-06
 -8.66107235E-03 -6.42700254E-06  3.00541880E-06 -2.52971191E-06 -6.32157657E-05
  1.54010019E-01 -3.57704208E-01 -6.68742968E-07 -2.31413193E-06 -1.75006004E-05
  4.43202078E-06 -1.94261044E-01  3.26597920E-07 -1.03870523E-05 -9.47938191E-07
 -1.12592889E-01  1.67286209E-06 -5.34600356E-06 -1.21146588E-06  6.84349809E-05
  9.13067307E-02  2.01273274E-01 -3.08601755E-07 -7.20940484E-07 -2.42916625E-05
  4.69841928E-06  2.09202314E-01  1.37439410E-07  3.44393617E-07  2.25682409E-07
  1.21253360E-01  4.05844710E-06 -5.26055002E-06 -2.06251193E-07 -8.49157554E-06
  1.66825816E-01 -6.70376006E-02  1.31214392E-06  3.05858474E-06 -1.91855287E-05
  8.31194431E-06 -1.49408550E-02  4.02409514E-07 -1.00226307E-05  5.95132576E-06
 -8.65854383E-03  6.50849776E-06 -2.64777656E-06  2.44665228E-06  6.29821682E-05
 -1.54009660E-01  3.57706160E-01  1.76516956E-05  5.97366298E-07  4.13353933E-06
  1.17961584E-06 -1.40616104E-05 -5.55331234E-07 -1.77202728E-05 -6.75262487E-07
 -3.92730785E-06 -1.05744154E-06  1.38445199E-05  4.44138897E-07  3.51024010E-07
  1.32923788E-06 -1.09797279E-05  3.16886405E-06 -1.29410150E-01 -2.22308649E-07
 -6.68005918E-06 -6.16053856E-07 -7.50067804E-02 -1.43202340E-06  3.44478342E-06
  8.15184572E-07 -4.50324886E-05  2.16068773E-01  2.44324288E-01  2.26427554E-07
  5.10822075E-07 -1.55663569E-05  2.87726139E-06 -1.03530721E-01 -7.47087646E-08
  5.65069957E-07  1.35460508E-08 -6.00071892E-02 -2.70443504E-06  3.49066037E-06
  2.06546088E-07  5.59559427E-06 -3.50303814E-01  1.38081734E-02 -8.27292444E-07
 -1.88385076E-06 -1.21189551E-05  5.44548155E-06  2.32939785E-01 -3.10366960E-07
 -6.35676496E-06  3.95636053E-06  1.35009992E-01 -4.08582827E-06  2.00844273E-06
 -1.80463885E-06 -4.17534883E-05  5.96387771E-02 -9.88870288E-04 -4.96368888E-07
 -1.67713603E-06 -1.16411706E-05  2.88161216E-06 -1.29408593E-01  1.96209291E-07
 -6.83373846E-06 -6.53052505E-07 -7.50045541E-02  9.15953354E-07 -3.72913987E-06
 -7.19789110E-07  4.46949635E-05 -2.16073006E-01 -2.44328180E-01 -1.73401840E-07
 -3.84035010E-07 -1.59867558E-05  2.77574385E-06 -1.03529090E-01  4.07430055E-08
  1.20140672E-09 -2.28080760E-08 -6.00048562E-02  2.77287636E-06 -3.32977628E-06
 -1.88222393E-07 -5.86839924E-06  3.50309564E-01 -1.38077071E-02  8.91753326E-07
  2.07057639E-06 -1.28309984E-05  5.25809317E-06  2.32939850E-01  2.14546517E-07
 -6.64435833E-06  3.60698949E-06  1.35010086E-01  4.42046776E-06 -1.77308577E-06
  1.61162723E-06  4.08670239E-05 -5.96411240E-02  9.94191661E-04  1.16749810E-05
  4.89463473E-07  2.60478771E-06  6.86427042E-07 -9.11371696E-06 -2.78967864E-07
 -1.15714919E-05 -4.10514643E-07 -2.50590144E-06 -6.64117710E-07  9.03013135E-06
  2.98203384E-07  3.98313797E-03  1.34656503E-02 -9.66797946E-02  2.52237534E-02
  5.00360459E-05 -1.62385066E-03 -5.76951145E-02 -5.76877144E-03  2.90090253E-05
 -9.51455064E-03  3.10737042E-02  6.80929156E-03 -3.81423558E-01 -6.07007066E-06
  1.14321032E-05  1.33156318E-03  3.15224062E-03 -1.34970693E-01  2.39368844E-02
 -2.52991346E-05 -6.22885963E-04  2.15332160E-03 -6.07232548E-05 -1.46993075E-05
 -2.39580462E-02  2.86795420E-02  1.40539996E-03  4.81629749E-02  6.55049097E-05
 -1.27703403E-05 -7.07773941E-03 -1.65630463E-02 -1.06140776E-01  4.55190489E-02
 -2.47198777E-05 -2.14976620E-03 -5.53597531E-02  3.22374934E-02 -1.43756516E-05
 -3.61646183E-02  1.58931628E-02 -1.39096745E-02 -3.51640721E-01 -3.20040974E-05
  5.98832933E-05 -3.98311909E-03 -1.34655366E-02 -9.66791156E-02  2.52240885E-02
  5.01435927E-05  1.62345802E-03 -5.76950384E-02 -5.76794384E-03  2.90355414E-05
  9.51219957E-03 -3.10710260E-02 -6.80935834E-03  3.81428204E-01  1.21313257E-05
 -3.54445877E-06 -1.33110649E-03 -3.15188087E-03 -1.34972454E-01  2.39384576E-02
 -2.54857448E-05  6.22333125E-04  2.15203584E-03 -5.94427609E-05 -1.47084731E-05
  2.39605147E-02 -2.86817736E-02 -1.40531246E-03 -4.81680401E-02 -7.66892379E-05
  1.44729645E-05  7.07829020E-03  1.65647082E-02 -1.06141875E-01  4.55179369E-02
 -2.47321316E-05  2.14927217E-03 -5.53593027E-02  3.22369776E-02 -1.42913638E-05
  3.61648288E-02 -1.58909145E-02  1.39106791E-02  3.51638513E-01  3.71560757E-05
 -6.89402017E-05  9.83591669E-02  3.43516614E-03  2.22215137E-02  6.11771364E-03
 -7.77564134E-02 -2.76041110E-03 -9.83613151E-02 -3.43592437E-03 -2.22231244E-02
 -6.11828133E-03  7.77552110E-02  2.75941979E-03  9.97985331E-08  3.04857185E-07
 -1.63716562E-06  2.97634110E-07  1.85430056E-06 -3.11888197E-08 -9.62202485E-07
 -1.55329187E-07  2.63339664E-06 -4.44008523E-08  7.16296412E-07 -4.02840978E-08
 -5.83801155E-06 -2.00105086E-01 -2.73464615E-01  1.58860890E-08  4.31079115E-08
 -2.50316310E-06  3.95493008E-07  6.61594768E-07 -1.31930958E-08 -5.33317603E-08
 -4.84281726E-09  1.69138894E-06 -3.77027749E-07  4.72705262E-07 -1.18889389E-08
  4.02138037E-07  3.36880548E-01 -3.65659882E-02 -1.32514485E-07 -3.14034465E-07
 -1.78299067E-06  9.18951661E-07 -2.15037988E-06 -3.02103433E-08 -9.13463840E-07
  5.92730490E-07 -9.51938997E-07 -6.52681209E-07  1.32483684E-07 -1.24795421E-07
 -5.38813878E-06 -1.36774995E-01  3.10027464E-01 -8.53222308E-08 -2.77363326E-07
 -1.52958260E-06  4.12438966E-07  8.78555785E-07  3.49819935E-08 -9.16448057E-07
 -1.10008480E-07  5.25655941E-08  8.59658137E-08 -6.75136171E-07  1.05049533E-08
  5.85378440E-06 -2.00102834E-01 -2.73460756E-01 -3.98574465E-08 -9.54785020E-08
 -2.37726030E-06  4.17466306E-07 -3.52562155E-07  1.51270652E-08 -2.32074484E-08
  2.48160049E-09 -4.16397113E-07  2.79691653E-07 -4.94271996E-07  2.73687278E-08
 -4.92370541E-07  3.36873929E-01 -3.65642880E-02  1.38348883E-07  3.26469077E-07
 -1.78916691E-06  8.86612694E-07 -2.18878714E-06  3.04290515E-08 -9.30756811E-07
  6.05333566E-07 -4.78892078E-07  6.48899332E-07 -1.12540960E-07  1.32973648E-07
  5.47633130E-06 -1.36772265E-01  3.10026136E-01  1.54476583E-06  3.34189033E-08
  3.54268868E-07  1.04092142E-07 -1.21535621E-06 -2.76094107E-08 -1.54167615E-06
 -3.71294287E-08 -3.36262868E-07 -8.30761479E-08  1.22711554E-06  2.46590769E-08
  4.07026559E-02  7.72302772E-02  2.97410209E-02  1.00512540E-01  1.89631160E-07
 -7.03186866E-03  5.93176797E-02  8.66458672E-02  2.23358685E-07  1.93645351E-01
 -1.03445040E-01  5.97849804E-02  1.35131717E-03  5.94109762E-07 -1.06242645E-07
  2.51724177E-02  4.54599250E-02 -1.98068248E-01  5.76185994E-02  1.29284050E-07
 -4.84437688E-03 -1.45701070E-01  2.73394087E-02  3.13389027E-08  6.17426711E-02
 -1.09304816E-02  3.72535141E-02  3.98290280E-01 -2.42189119E-07  1.62942058E-07
 -6.01469367E-02 -1.06319525E-01 -5.97772904E-02 -5.40370903E-02 -3.33504325E-08
  4.63454292E-03 -1.20030077E-02 -4.48336282E-02 -1.73338039E-07 -1.51927377E-01
  3.65026916E-02 -8.87980155E-02 -1.16643205E-01  8.83095175E-07  3.94710211E-07
  4.07027020E-02  7.72303535E-02 -2.97387050E-02 -1.00515642E-01  2.42669136E-07
 -7.03259287E-03 -5.93212700E-02 -8.66520451E-02  1.88705355E-07  1.93661752E-01
 -1.03460763E-01  5.97842213E-02  1.34906108E-03 -4.75394897E-07 -1.52782879E-07
  2.51727268E-02  4.54605304E-02  1.98068918E-01 -5.76256551E-02  9.08025788E-08
 -4.84412042E-03  1.45709081E-01 -2.73438020E-02  4.91845876E-08  6.17364374E-02
 -1.09236557E-02  3.72542421E-02  3.98322961E-01  2.48900314E-07  1.54573329E-07
 -6.01458262E-02 -1.06318451E-01  5.97767525E-02  5.40273737E-02 -1.06712872E-07
  4.63534385E-03  1.19978440E-02  4.48369636E-02 -1.51280392E-07 -1.51931679E-01
  3.65068733E-02 -8.87959236E-02 -1.16624229E-01 -5.20780073E-07 -2.03904980E-07
  2.66026837E-02 -1.32802985E-02 -1.54151823E-02 -2.41183397E-02 -5.13329867E-02
  1.98971294E-02  2.66076697E-02 -1.32791533E-02 -1.54092121E-02 -2.41178788E-02
 -5.13332985E-02  1.98955895E-02 -4.18015835E-03  8.00458971E-04 -4.42848153E-02
 -1.92484783E-03  3.33223114E-08 -7.78116146E-03  4.35730754E-02  6.81175710E-02
  2.09575640E-07  2.02416890E-01 -1.88532751E-01 -1.16131960E-02 -5.97844159E-02
  7.61581893E-07 -8.77979425E-07  1.00398847E-02  1.33096776E-02 -3.94836190E-02
  6.09330356E-02 -7.95259583E-08  6.07854058E-03 -1.11098838E-01  4.32609502E-02
 -4.58596583E-08 -4.19320435E-02  4.92400750E-02  1.89421285E-02  4.50300959E-01
  3.41927258E-07  2.95793401E-07  5.97906832E-03  4.19887473E-03 -1.96342021E-02
  1.07969687E-01  1.29436496E-07  1.06368087E-02  5.67557110E-02 -5.31881104E-02
 -1.86677234E-07 -9.72340379E-02  8.81720940E-02  1.82921535E-02  1.80285406E-01
  1.26635379E-06  4.93548162E-07  4.18353033E-03 -7.93321662E-04 -4.42873935E-02
 -1.93185372E-03  1.21845794E-08  7.78102072E-03  4.35692353E-02  6.81114006E-02
 -1.63580909E-07 -2.02402825E-01  1.88527237E-01  1.16188969E-02  5.97823347E-02
  7.71495731E-07 -1.06575022E-06 -1.00389767E-02 -1.33075463E-02 -3.94667345E-02
  6.09310250E-02  9.71868651E-08 -6.07826950E-03 -1.11086528E-01  4.32592877E-02
  4.91085189E-08  4.19368927E-02 -4.92425674E-02 -1.89400788E-02 -4.50268490E-01
  6.30578132E-08  2.53822203E-07 -5.98457343E-03 -4.20708507E-03 -1.96305304E-02
  1.07975206E-01 -1.68727060E-07 -1.06359864E-02  5.67553578E-02 -5.31832027E-02
  1.51642715E-07  9.72206256E-02 -8.81669404E-02 -1.82989727E-02 -1.80290390E-01
  1.19384226E-06  2.64769443E-07  6.73797671E-02  1.27399911E-02  3.66310493E-02
 -3.41522192E-03 -2.83632347E-02 -2.01012545E-02 -6.73780266E-02 -1.27415680E-02
 -3.66331510E-02  3.41385879E-03  2.83586272E-02  2.01024840E-02  3.60190768E-07
  7.06909805E-07 -1.22048170E-06 -1.28611034E-06 -1.33839394E-02 -1.30721483E-07
 -3.67824548E-07 -6.59008119E-07 -5.45412209E-02 -3.35618490E-07  1.35671038E-06
  3.69926029E-07  3.32892008E-08 -2.97595089E-01  2.17761908E-01 -6.69757346E-07
 -7.84254223E-07 -7.96695200E-08 -6.96046055E-07 -1.33815063E-02 -6.50300406E-08
 -4.23421198E-07 -4.24330668E-07 -5.45396145E-02  1.47923362E-06 -2.32130832E-06
 -5.59174982E-07  2.88315222E-07  3.97921516E-02  3.66603629E-01  3.99028930E-07
  5.64413337E-07  3.83925318E-07 -2.01844850E-06 -1.33844453E-02  5.03145318E-08
  9.67949366E-08 -1.17060835E-06 -5.45417037E-02 -9.68762666E-07  1.63853984E-06
  3.90985032E-07  1.44127491E-06  3.37386019E-01  1.48844241E-01  9.54705564E-07
  1.21859124E-06  1.10375761E-06  1.16494494E-06 -1.33840252E-02 -5.80496802E-09
  3.02643294E-07  6.27546060E-07 -5.45413494E-02 -1.73004105E-07  1.23806218E-06
  1.18127348E-06 -3.59615382E-07  2.97594722E-01 -2.17763223E-01 -1.22862693E-06
 -1.23808976E-06  1.91370609E-07  3.08135961E-07 -1.33815069E-02 -1.84926427E-07
  3.26404562E-07  2.60277590E-07 -5.45397452E-02  1.01264635E-06 -1.83449714E-06
 -1.32164169E-06  3.75734283E-07 -3.97908990E-02 -3.66604456E-01  8.96654583E-07
  1.02730330E-06 -7.02496803E-07  1.57609652E-06 -1.33845147E-02  3.45076304E-08
 -2.86444090E-07  9.81352143E-07 -5.45417830E-02 -6.16446445E-07  1.51354349E-06
  9.58197165E-07  1.25707319E-06 -3.37386839E-01 -1.48843024E-01 -1.13163998E-07
 -2.63047768E-07 -9.99493902E-07 -3.96428788E-08 -8.16444063E-07 -2.78491351E-07
 -7.79165582E-07 -4.91804119E-07  4.13373708E-08  2.20710854E-07 -1.09781292E-06
 -5.35491562E-07  9.33343805E-02  1.27183679E-01 -9.82707143E-02 -7.61007517E-02
 -1.55769759E-07 -1.44190809E-02 -4.63585427E-02 -7.82196987E-02  4.17657480E-07
 -7.49539834E-02  2.03923537E-01  1.08890997E-01 -1.30797354E-02  3.40044106E-06
 -1.47677548E-06 -9.93363721E-02 -1.02920727E-01 -6.60253278E-02 -8.73782246E-02
  6.75909983E-07 -1.17107363E-02 -4.96515535E-02 -5.80725750E-02  8.66840833E-07
  1.59017990E-01 -2.23073057E-01 -1.16225204E-01  2.24012206E-02 -1.10690102E-06
 -4.18905612E-06  4.84337762E-02  7.05994836E-02  9.39107956E-02 -1.66904232E-01
 -6.84670320E-07 -1.35632044E-02  4.39261377E-02 -1.27981882E-01 -1.52390498E-07
 -1.57177198E-01  2.34824733E-01  5.65670713E-02  1.44366892E-01 -1.04927486E-06
  2.70923304E-07  9.33351768E-02  1.27184574E-01  9.82692059E-02  7.60972407E-02
 -1.37255950E-07 -1.44189674E-02  4.63581161E-02  7.82182352E-02  1.89566907E-07
 -7.49511010E-02  2.03921348E-01  1.08891935E-01 -1.30850261E-02 -2.14103207E-06
  2.68810198E-07 -9.93364048E-02 -1.02920665E-01  6.60258172E-02  8.73750696E-02
  9.07953225E-07 -1.17107084E-02  4.96520492E-02  5.80712545E-02  1.00660112E-06
  1.59013010E-01 -2.23067885E-01 -1.16225236E-01  2.24057016E-02  5.55604945E-07
  4.68729052E-06  4.84340401E-02  7.05996588E-02 -9.39119923E-02  1.66900596E-01
 -6.77548552E-07 -1.35632140E-02 -4.39271406E-02  1.27981558E-01  1.17092885E-07
 -1.57174469E-01  2.34821997E-01  5.65673291E-02  1.44367252E-01  2.66121309E-06
  6.76906808E-07 -6.03853131E-02 -5.56709377E-02 -7.41109720E-02  1.07384563E-02
 -8.54096788E-02 -5.25085425E-02 -6.03847553E-02 -5.56715697E-02 -7.41074558E-02
  1.07390151E-02 -8.54082279E-02 -5.25083094E-02  2.31659793E-06  1.50651667E-06
 -8.34982988E-07 -9.76863171E-07  3.42252595E-02  2.10838610E-07 -2.24001189E-07
 -1.13320217E-07  7.19890210E-02 -9.30410951E-07  1.03207124E-06  2.20214024E-06
  1.87265611E-06  2.50290171E-01 -2.93401029E-01 -2.63876653E-06 -1.92747807E-06
  1.23938774E-07 -2.13417601E-06 -1.04352255E-02 -1.53518676E-07 -1.83069140E-07
 -8.70429120E-07 -2.19465062E-02  1.70045530E-06 -2.36646965E-06 -2.44944617E-06
 -2.72495913E-07 -1.14313704E-01  1.27474444E-01  2.70313794E-06  1.74529027E-06
 -1.54657556E-07 -1.20993126E-06 -4.46541785E-02  3.95906162E-07 -2.57354611E-07
 -6.06916248E-08 -9.39319597E-02 -1.04123374E-06  1.22894516E-06  2.46769058E-06
 -1.23758153E-06  4.32469928E-01  2.32789417E-01 -2.68613606E-06 -2.04103317E-06
 -1.45326044E-06 -9.37305120E-07 -3.42225515E-02  8.50353774E-09 -4.80133713E-07
 -2.57459509E-07 -7.19872847E-02  1.07327327E-06 -1.93990696E-06 -2.44659592E-06
 -2.19524416E-06  2.50287254E-01 -2.93398728E-01  3.06281988E-06  2.29319188E-06
 -2.48303863E-07 -2.42596327E-06  1.04311269E-02  2.91037969E-07 -5.18040993E-07
 -1.06802104E-06  2.19438919E-02 -2.59267122E-06  3.38765872E-06  2.93814447E-06
 -1.24366256E-07 -1.14314200E-01  1.27468962E-01 -2.82376844E-06 -1.93426514E-06
  1.96910721E-07 -1.75782177E-06  4.46555630E-02 -2.57532394E-07 -4.30819429E-08
 -6.07828995E-07  9.39328289E-02  1.96028518E-06 -2.38219640E-06 -2.59940667E-06
  9.26929842E-07  4.32471371E-01  2.32790401E-01 -2.51521691E-06 -7.91612942E-07
  8.81381390E-07  8.65498186E-07 -3.31635587E-06 -8.59323752E-07  2.45115169E-06
  1.07784675E-06 -6.31888145E-07 -8.44923398E-07  3.61984103E-06  1.09589579E-06
  2.41985646E-06  1.78311964E-06 -4.74227575E-07  1.49295493E-06 -3.18039737E-02
  1.05481486E-07 -3.80456828E-07  4.05286163E-07 -6.69006392E-02  6.76178704E-07
  5.65156366E-08  2.13610862E-06  8.11334371E-08 -3.37972643E-01  1.28674452E-01
 -2.45633769E-06 -1.72018413E-06  3.62788260E-07 -4.86330695E-07 -4.55399710E-02
 -1.18827646E-07  1.20261416E-07 -2.19833625E-07 -9.57932430E-02 -1.58496141E-06
  8.66363465E-07 -1.98662465E-06 -1.96695813E-07  8.28979717E-02  4.93278172E-01
  2.69829314E-06  1.98237940E-06  9.07173159E-07  1.05114869E-06 -1.37373508E-02
  1.85837042E-07  3.99292032E-07  4.04788726E-07 -2.88933272E-02  1.25279284E-06
 -5.44655203E-07  2.47667692E-06  4.19483078E-07  1.88218325E-01 -5.35056831E-02
 -2.75267381E-06 -1.94728300E-06 -1.97069803E-07  1.03159839E-06  3.18070967E-02
 -2.23974783E-07 -2.13825674E-07  3.86484459E-07  6.69025850E-02 -7.57027588E-07
  2.70928762E-07 -2.60121573E-06 -2.15263797E-08 -3.37975606E-01  1.28676582E-01
  2.74736085E-06  1.85841840E-06  1.11884450E-07  2.52123663E-07  4.55406841E-02
  2.78680548E-07  1.59753141E-07  6.34418144E-08  9.57936882E-02  1.47273411E-06
 -1.04499785E-06  2.46006669E-06  2.77673419E-07  8.28982115E-02  4.93278713E-01
 -2.57662781E-06 -1.86003675E-06  1.07942223E-06  5.64369703E-07  1.37333837E-02
 -1.71414622E-07  3.39505662E-07  5.21359922E-07  2.88907433E-02 -1.46871893E-06
  8.53004889E-07 -2.35192761E-06  7.50570381E-08  1.88212964E-01 -5.35078897E-02
 -1.77937617E-06 -9.46239762E-07  2.66653886E-06  1.04472722E-06 -1.75394476E-06
 -9.48415452E-07  2.18297938E-06  9.80087523E-07 -3.23266238E-06 -1.04952313E-06
  1.60768952E-06  8.70211153E-07  1.83247783E-01  1.09397945E-01 -8.68085857E-02
 -8.19562230E-02 -1.16617569E-06  7.41053443E-03 -7.87047670E-03  3.55622488E-03
 -9.13684794E-07 -2.83459875E-02  4.32716494E-02  1.48354733E-01  9.04297417E-02
 -1.56476371E-06  4.43720048E-06 -2.02313411E-01 -1.25635817E-01 -4.63398684E-02
 -1.28804466E-01  1.61731445E-06 -1.37371249E-02 -3.83862679E-02 -5.55606771E-02
  1.49066772E-06  1.42052418E-01 -1.63475456E-01 -1.71610507E-01  7.02003064E-02
  6.33348481E-07 -6.68424657E-06  1.84952220E-01  1.05167358E-01  1.35704109E-02
 -5.71807191E-02 -7.01172709E-07  1.28877667E-02  1.58867504E-02 -2.69803448E-02
  1.01159975E-06 -1.43142703E-01  1.42445082E-01  1.55202965E-01 -7.52411784E-02
 -6.13311161E-06 -2.34173386E-06 -1.83250308E-01 -1.09399703E-01 -8.68085484E-02
 -8.19565745E-02  1.76244968E-06 -7.41028190E-03 -7.87025519E-03  3.55615416E-03
  1.19205058E-06  2.83462739E-02 -4.32729711E-02 -1.48356365E-01 -9.04292789E-02
 -2.63244710E-06  4.23228215E-06  2.02314614E-01  1.25636657E-01 -4.63410894E-02
 -1.28804177E-01 -1.34492353E-06  1.37374188E-02 -3.83875645E-02 -5.55608806E-02
 -1.43500366E-06 -1.42054104E-01  1.63477247E-01  1.71611753E-01 -7.02042446E-02
  1.52963931E-06 -6.88173111E-06 -1.84952128E-01 -1.05167281E-01  1.35717546E-02
 -5.71827009E-02 -5.33927339E-07 -1.28876936E-02  1.58871448E-02 -2.69817567E-02
 -1.82066589E-06  1.43143885E-01 -1.42446244E-01 -1.55202894E-01  7.52415476E-02
 -8.55928619E-06 -3.11523953E-06 -1.46900397E-01 -5.49950680E-02  5.21781650E-02
  5.19696681E-02 -1.99944434E-01 -6.52873206E-02  1.46900947E-01  5.49957106E-02
 -5.21780734E-02 -5.19697423E-02  1.99945110E-01  6.52874313E-02 -1.46679459E-01
 -8.43727101E-02 -3.69888328E-02 -1.82128732E-01 -1.22984335E-06 -9.36391633E-03
  2.97450088E-02 -2.90789764E-02 -9.19208124E-07 -5.31283544E-02  4.63314371E-02
 -1.19145165E-01  8.14543225E-02 -3.92206813E-06  1.31497398E-06  1.22247404E-01
  6.19965084E-02 -4.74870574E-02 -7.43953981E-02 -6.76508567E-08  4.03277184E-03
 -4.34219319E-02 -2.04894216E-02 -8.91960952E-07  2.36880063E-01 -2.45094340E-01
  9.31203810E-02  7.19709740E-02  1.08961892E-06  4.60276358E-06 -1.46213343E-01
 -9.04234266E-02 -7.49882361E-02 -1.34629072E-01 -4.33026881E-07 -3.72907588E-03
 -2.76460939E-02 -6.27034739E-02 -2.55954098E-07 -1.97645927E-01  1.72653865E-01
 -1.13203821E-01 -6.12448007E-02  1.72360784E-06 -8.19648363E-07  1.46674054E-01
  8.43689097E-02 -3.69892720E-02 -1.82129442E-01  1.21137096E-06  9.36425697E-03
  2.97453185E-02 -2.90788840E-02  1.12381543E-06  5.31263789E-02 -4.63316126E-02
  1.19141393E-01 -8.14542755E-02 -4.46739940E-06  2.54177177E-06 -1.22245473E-01
 -6.19952570E-02 -4.74916640E-02 -7.43951611E-02 -4.86890434E-07 -4.03234042E-03
 -4.34249728E-02 -2.04897950E-02  7.50747184E-07 -2.36882966E-01  2.45097292E-01
 -9.31184741E-02 -7.19757493E-02  5.99985747E-07  4.57506885E-06  1.46214762E-01
  9.04243917E-02 -7.49863529E-02 -1.34632677E-01  1.32932381E-06  3.72928051E-03
 -2.76455498E-02 -6.27060500E-02  9.55089008E-07  1.97650094E-01 -1.72657729E-01
  1.13204990E-01  6.12433904E-02  3.91453949E-06  5.75385602E-07  7.16099633E-02
  4.82269453E-02 -2.17668800E-01 -5.75741400E-02  4.89343026E-03  3.64967419E-02
 -7.16087120E-02 -4.82255834E-02  2.17669224E-01  5.75740788E-02 -4.89231640E-03
 -3.64966786E-02 -8.71702876E-07 -3.26473883E-07  4.08481872E-07  8.43631961E-07
 -2.60317940E-01 -5.79411894E-08  7.11048530E-08  1.95310050E-07 -1.31346513E-01
  2.76345711E-08  1.08969131E-07 -5.34263511E-07 -9.42097185E-08 -2.45938536E-01
  2.85753541E-01  1.57422133E-06  4.74461304E-07 -2.45842001E-07 -1.67567025E-07
  2.58327209E-01  4.71901254E-08  8.23408857E-09  8.99912520E-08  1.30342055E-01
 -1.12031774E-07  1.80324843E-07  4.08914840E-07 -1.37827287E-07  4.75299947E-02
 -3.71715605E-01 -1.41201587E-06 -5.10608633E-07 -2.04122920E-07  4.90879644E-07
  1.99033016E-03  8.78323296E-09 -9.64696247E-08  1.03245258E-07  1.00402906E-03
 -1.03598411E-07  7.18552472E-08 -5.75049050E-07  1.74837285E-07 -7.22883362E-02
  1.56906325E-01 -9.49376598E-08 -1.69708246E-07 -1.19438789E-06 -9.74789096E-07
 -2.60318042E-01  2.05550548E-07 -1.44424058E-07 -3.58842180E-08 -1.31346746E-01
 -9.81278715E-08 -3.44090842E-07  1.13750274E-07 -7.97798825E-07  2.45940946E-01
 -2.85755648E-01  2.37633297E-06  6.45349573E-07  4.25559166E-07  5.41843619E-07
  2.58327325E-01  3.18590910E-07 -1.76483464E-07  4.52067390E-08  1.30342338E-01
 -1.14499751E-06  6.49219620E-07  1.06795802E-06 -2.44404250E-07 -4.75297997E-02
  3.71719317E-01 -1.38359828E-06 -4.82983436E-07  3.10691509E-07 -1.28088936E-06
  1.99181544E-03 -1.02631217E-09 -1.50930574E-08 -6.96265322E-08  1.00500066E-03
  2.68008267E-07 -2.58098986E-07 -5.67801411E-07  4.70271532E-07  7.22956421E-02
 -1.56903098E-01  3.95473853E-07  1.35932224E-07 -3.59704518E-07 -2.09046042E-07
  3.92520334E-07  2.52551399E-07 -2.36017319E-07  9.79408298E-08 -7.25673650E-07
 -1.65930844E-07  5.76116178E-07  2.46743756E-07 -5.47381632E-06 -1.80259331E-06
 -4.52103248E-07 -8.02464392E-07  1.47996796E-01 -1.01163693E-07  3.62507772E-07
 -9.40403650E-08  7.46731809E-02  6.13770106E-07 -2.83719292E-07 -2.32079531E-06
 -6.23150006E-08  2.57166876E-01 -2.10277901E-03  2.00078576E-06  5.99721005E-07
  2.39293784E-06  4.76788648E-08  1.51444681E-01  1.68814710E-07 -7.09585311E-08
  2.99399760E-07  7.64129441E-02 -4.87821149E-07  2.54157095E-07  8.40781065E-07
  1.58783153E-06 -1.71202948E-01 -1.96316411E-01  2.85984596E-06  6.98959909E-07
 -1.73469450E-06  1.02965233E-06 -2.99439639E-01  4.33458464E-07 -1.89335345E-07
  1.34128623E-07 -1.51085404E-01  1.42372160E-07 -8.99812847E-07  1.28720944E-06
  9.63928764E-07  3.86011257E-01  1.71551130E-01 -3.62885868E-06 -1.21743873E-06
  9.41114317E-07  4.16284971E-07  1.47996018E-01 -1.33518753E-07 -1.65880629E-07
 -9.38074457E-08  7.46725377E-02  6.36974541E-07 -3.58631459E-07 -1.65198477E-06
  1.25479880E-07 -2.57161522E-01  2.09910235E-03  1.07307351E-07  1.54150867E-08
 -2.30407967E-06  5.36698144E-07  1.51443605E-01  1.76927454E-07  1.17749168E-07
 -1.81057476E-08  7.64122099E-02 -5.53169287E-07  4.31607275E-07  1.25732257E-07
  1.69412536E-06  1.71201997E-01  1.96309976E-01  4.87101799E-06  1.31989750E-06
  1.38132071E-06 -1.26372568E-06 -2.99439473E-01  4.96965815E-07 -2.65060209E-08
 -2.46673414E-07 -1.51085327E-01 -9.69471314E-08 -9.85516798E-07  2.25401335E-06
  7.27085669E-07 -3.86010999E-01 -1.71550749E-01  1.82675658E-06  9.76575379E-07
 -4.89600651E-07 -2.69752932E-07 -1.27871500E-06 -2.72194876E-07  1.31749807E-06
  6.35355351E-07  1.13069604E-07  9.64023822E-08 -2.00871907E-06 -6.18619515E-07
 -4.13492613E-01 -6.44498344E-02 -5.88414268E-02 -5.49032996E-02 -3.46187833E-06
 -2.04997574E-02  2.60799298E-02 -6.12667069E-03 -1.31899835E-06  7.77827938E-02
  2.44550937E-02 -1.09317449E-01  2.37338966E-02 -3.32792660E-06  8.50944148E-07
 -7.35868862E-03  2.88487907E-04  9.94538719E-02 -9.43053919E-03 -4.16209756E-08
 -1.66094878E-03 -3.05551645E-02  2.03589583E-03 -1.27519827E-07  2.95610105E-02
 -2.46258238E-02 -1.82476940E-03  1.59243275E-01  2.33353236E-06 -1.07471988E-07
  4.41293829E-01  7.42272175E-02 -4.74594236E-02  4.75564566E-02  2.40694407E-06
  1.90389380E-02  2.32816248E-02 -8.17108298E-03  1.36496213E-06 -8.25638951E-02
 -1.51173754E-02  1.17069778E-01  2.38403506E-02 -3.32976776E-06 -1.38452020E-06
 -4.13490945E-01 -6.44499585E-02  5.88416320E-02  5.49049143E-02 -9.89235789E-07
 -2.04998523E-02 -2.60803135E-02  6.12679015E-03 -6.22287083E-07  7.77826940E-02
  2.44546297E-02 -1.09317811E-01  2.37350308E-02  2.07092202E-06  3.39251539E-07
 -7.35303356E-03  2.88954107E-04 -9.94537971E-02  9.43198949E-03 -2.75828814E-06
 -1.66113686E-03  3.05554399E-02 -2.03555425E-03 -1.08133769E-06  2.95623969E-02
 -2.46283889E-02 -1.82459058E-03  1.59243268E-01 -2.42055687E-06 -2.53089578E-06
  4.41295550E-01  7.42271371E-02  4.74600736E-02 -4.75550807E-02  4.95034785E-06
  1.90388560E-02 -2.32813836E-02  8.17149034E-03  2.16374960E-06 -8.25652833E-02
 -1.51165621E-02  1.17069509E-01  2.38392636E-02  5.31362540E-06  2.31137148E-06
  1.02961944E-01  4.06781639E-02 -7.76265018E-03 -4.56720527E-03 -1.16820942E-01
 -4.62216868E-02  1.02961918E-01  4.06782608E-02 -7.76397247E-03 -4.56777173E-03
 -1.16821279E-01 -4.62216721E-02 -2.17670662E-01 -8.89285291E-03  4.11835674E-02
  7.69937202E-02  3.61190038E-06 -1.38334035E-02 -8.49224038E-03 -3.65576081E-02
  1.23362849E-06 -4.53016336E-02  1.24952760E-01 -3.19973852E-02 -2.25177993E-02
  2.17478328E-06 -2.36802882E-06  5.45327078E-01  5.26839435E-02 -4.85173694E-03
 -6.26917793E-02 -4.03590066E-06  1.92421853E-02 -6.60135532E-03 -3.03095074E-04
 -1.41767380E-06 -1.45684412E-02 -1.20918919E-01  8.23358388E-02 -1.64550824E-02
  2.55445778E-07  3.65218488E-06 -2.03506936E-01 -9.67125654E-03 -6.87726286E-03
  6.28053171E-02  3.17724087E-06 -1.31338288E-02  8.86686502E-03 -4.33445357E-02
  1.02494663E-06 -5.14813434E-02  1.23301054E-01 -3.00144817E-02  1.12958204E-01
 -2.06216072E-06 -1.90199379E-06 -2.17678218E-01 -8.89302952E-03 -4.11826775E-02
 -7.69936889E-02 -1.80422286E-06 -1.38334687E-02  8.49213287E-03  3.65574258E-02
 -5.61041960E-07 -4.53002069E-02  1.24953552E-01 -3.19975047E-02 -2.25182679E-02
  1.90672610E-06 -6.59681786E-07  5.45327433E-01  5.26839051E-02  4.85254790E-03
  6.26921919E-02  1.08808189E-06  1.92421554E-02  6.60197302E-03  3.03175946E-04
  4.01002022E-08 -1.45676518E-02 -1.20919837E-01  8.23357389E-02 -1.64537055E-02
  7.13459008E-08  1.40182040E-07 -2.03499443E-01 -9.67102194E-03  6.87847197E-03
 -6.28047234E-02 -2.14679363E-06 -1.31337427E-02 -8.86682272E-03  4.33448816E-02
 -6.68968711E-07 -5.14836174E-02  1.23301194E-01 -3.00142832E-02  1.12957015E-01
 -2.28028724E-06  6.38612162E-08  3.48166939E-02  5.82903859E-03 -1.30510883E-01
 -3.86706734E-02  2.15378220E-02 -1.47584696E-03  3.48172060E-02  5.82920113E-03
 -1.30511248E-01 -3.86707243E-02  2.15368360E-02 -1.47608263E-03  9.60063305E-07
 -4.69562796E-08 -1.46997553E-06 -2.63809404E-06  3.03002100E-01  1.42661939E-07
  4.55338899E-07  4.56164155E-07  9.37443541E-02  4.01059028E-07 -1.01563029E-06
  2.15584153E-07  7.50042885E-07  2.09782345E-01 -1.53508863E-01 -1.11475619E-05
 -6.89906735E-07 -5.63537927E-07  6.53761590E-07 -3.03001807E-01 -4.36303833E-07
 -1.68797078E-07 -3.31522892E-07 -9.37443102E-02  2.37858163E-06  4.79785822E-07
 -9.97412903E-07  9.95284307E-07  2.80488474E-02  2.58432101E-01 -8.30952678E-08
  4.92616345E-08  1.01636023E-06 -9.67314376E-07  3.03002417E-01 -1.14714712E-07
  9.89655058E-09  3.13006755E-07  9.37445605E-02 -4.35253561E-07  4.97793442E-07
  7.53816065E-08 -1.86165144E-06 -2.37836249E-01 -1.04925075E-01  3.38123956E-07
 -1.58950882E-07 -1.01778584E-06 -8.96123725E-07 -3.03002386E-01  2.22308743E-07
  2.04143388E-08 -7.55378478E-08 -9.37444772E-02  6.83704580E-07 -1.26964392E-06
  1.53049010E-07 -6.69946008E-07  2.09783270E-01 -1.53508272E-01  2.39940302E-06
  2.70519362E-08 -1.03076570E-06  1.75463114E-07  3.03002232E-01  3.75506131E-07
 -1.05096497E-07 -2.43595950E-07  9.37444952E-02 -2.48376957E-06  1.46184973E-06
  3.62624735E-07  3.44422524E-07  2.80500973E-02  2.58432730E-01  9.50956996E-06
  4.63115149E-07  1.28197264E-06 -3.84331752E-07 -3.03002568E-01  6.19965772E-07
 -8.18459474E-08 -4.88995871E-07 -9.37446251E-02  3.81889376E-07 -3.31397915E-06
  1.06366268E-06  8.06708899E-08 -2.37835820E-01 -1.04926487E-01 -3.47680823E-07
  1.01783004E-07  1.06671998E-06  4.23014072E-07 -2.02641404E-07 -4.77445187E-08
 -1.01545871E-07  8.91436512E-08  5.42215129E-07  1.95581157E-07 -9.04975958E-07
 -1.67879385E-07  5.61996342E-01  1.75688541E-02  4.37879983E-02 -3.88806835E-02
  3.55409415E-08  2.36072162E-02 -1.20663117E-02  9.87849635E-03 -3.29031617E-08
 -7.38835630E-02 -7.84010371E-02  2.36344281E-02 -5.47214729E-03 -2.72569001E-07
 -5.03183422E-09  2.79107901E-01  8.25937496E-03 -6.02953415E-02 -2.59719312E-02
 -9.44108192E-08  1.21630104E-02  1.03708072E-02  5.55652629E-03 -1.05710863E-08
 -3.65484472E-02 -4.03289508E-02  1.20672693E-02 -7.65138838E-03 -1.40998585E-07
 -7.74521019E-08 -2.80097793E-01 -8.87110350E-03  3.14981860E-03  6.11737744E-02
  1.88864768E-07 -1.18060043E-02 -1.15967646E-03 -1.66424935E-02  4.10634246E-09
  2.31671256E-02  5.23098935E-02 -1.16167758E-02  1.08479694E-02 -2.90851985E-08
  3.27360988E-08 -5.61996247E-01 -1.75689661E-02  4.37891411E-02 -3.88791436E-02
 -5.06137628E-07 -2.36071511E-02 -1.20664794E-02  9.87810391E-03 -2.17210481E-07
  7.38842850E-02  7.84000032E-02 -2.36343828E-02  5.47239812E-03  3.65200490E-07
 -5.66146099E-07 -2.79116005E-01 -8.25999447E-03 -6.02961777E-02 -2.59725778E-02
  5.05560541E-07 -1.21633355E-02  1.03708254E-02  5.55659994E-03  2.10978296E-07
  3.65485952E-02  4.03304809E-02 -1.20680013E-02  7.65186223E-03 -1.56590965E-07
  5.66215767E-07  2.80101741E-01  8.87146357E-03  3.14974408E-03  6.11746568E-02
 -1.59246937E-07  1.18062678E-02 -1.15968390E-03 -1.66429715E-02  4.21607702E-09
 -2.31669119E-02 -5.23109883E-02  1.16173662E-02 -1.08492203E-02  1.11191309E-07
 -1.74558281E-07 -4.22799843E-02 -1.38773943E-02 -2.33960653E-02 -6.61015107E-03
  1.75358588E-02  5.63600423E-03  4.22799377E-02  1.38774482E-02  2.33975127E-02
  6.61055258E-03 -1.75364479E-02 -5.63609753E-03  4.38414726E-04 -1.28943026E-04
  3.74288767E-02  4.88258973E-02  3.64944392E-06  8.41201796E-05 -9.37074458E-03
 -1.31557246E-02  1.02388338E-06 -1.59858456E-02  1.54345235E-02  1.54888994E-04
 -4.23690197E-03  2.17645756E-06 -1.60512945E-06  4.85503170E-01  1.45594256E-02
  2.54805604E-02 -5.88346881E-02 -3.71827448E-06  2.03673798E-02 -3.93454190E-03
  1.17555409E-02 -1.07141740E-06 -6.09991817E-02 -7.09894875E-02  1.95589505E-02
  8.74025111E-04  4.89019871E-07  2.64815764E-06  4.86170923E-01  1.48614427E-02
 -6.02132297E-02  3.36487538E-03  3.88462482E-06  2.01391072E-02  1.34479473E-02
 -9.37850851E-04  1.20137068E-06 -7.01885705E-02 -6.12207229E-02  1.93823716E-02
  2.78528186E-03 -2.85840375E-06 -1.38854592E-06 -4.41131440E-04  1.28559546E-04
  3.74289797E-02  4.88257719E-02 -3.87836048E-06 -8.43257708E-05 -9.37082998E-03
 -1.31554541E-02 -1.11952421E-06  1.59857399E-02 -1.54339746E-02 -1.55476927E-04
  4.23632568E-03  2.37455320E-06 -1.79518777E-06 -4.85496553E-01 -1.45590094E-02
  2.54794061E-02 -5.88339239E-02  4.00715293E-06 -2.03671219E-02 -3.93437414E-03
  1.17554752E-02  1.23997651E-06  6.09990606E-02  7.09881477E-02 -1.95584831E-02
 -8.73477120E-04  5.05224372E-07  3.24725990E-06 -4.86166474E-01 -1.48610520E-02
 -6.02123279E-02  3.36371687E-03 -3.90120672E-06 -2.01389379E-02  1.34477701E-02
 -9.37561133E-04 -1.19617226E-06  7.01874748E-02  6.12210448E-02 -1.93820117E-02
 -2.78478725E-03 -2.80768379E-06 -1.52679409E-06 -2.10962216E-03 -5.41265918E-04
 -3.99669439E-02 -1.17195412E-02 -3.83910564E-02 -1.18258338E-02  2.11024611E-03
  5.41410309E-04  3.99659195E-02  1.17192478E-02  3.83904280E-02  1.18255832E-02
  4.33169727E-01  1.76227785E-03  2.68678689E-02 -2.36391054E-02 -5.67080905E-07
  2.00792818E-02 -4.14297611E-03  9.60349128E-03 -1.94493116E-07 -4.73828201E-02
 -7.33370189E-02 -7.04327306E-04 -1.00759171E-02 -5.91836264E-07  2.44557473E-07
  3.49563182E-01  3.32570954E-03 -2.07268823E-03 -2.57293909E-02  3.77233215E-07
  1.68938692E-02  3.64998334E-03  8.57237912E-03  1.51840144E-07 -6.32663797E-02
 -2.94281962E-02 -1.15457676E-03 -1.79316213E-04 -9.95815441E-09 -6.74413225E-07
  4.17640766E-01  2.43316673E-03 -3.23756849E-02 -1.43920035E-02 -3.11875289E-07
  1.94714330E-02  4.02398650E-03  1.07290918E-02 -8.45112991E-08 -3.86866667E-02
 -7.60747180E-02 -7.54455854E-04 -5.99009245E-03  3.68829971E-07  1.21108361E-07
  4.33168671E-01  1.76222323E-03 -2.68683705E-02  2.36380346E-02  5.00031544E-07
  2.00792407E-02  4.14321949E-03 -9.60318532E-03  1.62600710E-07 -4.73829942E-02
 -7.33366297E-02 -7.04354679E-04 -1.00761068E-02 -3.01615454E-07  3.81448949E-07
  3.49565467E-01  3.32577154E-03  2.07250295E-03  2.57294868E-02 -6.73278701E-07
  1.68939681E-02 -3.65037553E-03 -8.57242416E-03 -1.78388488E-07 -6.32670809E-02
 -2.94280493E-02 -1.15454277E-03 -1.80268716E-04 -1.12000192E-07 -2.96045582E-07
  4.17644377E-01  2.43329426E-03  3.23757683E-02  1.43924206E-02  7.28189347E-07
  1.94715637E-02 -4.02394435E-03 -1.07294647E-02  2.22300597E-07 -3.86865400E-02
 -7.60756591E-02 -7.54410502E-04 -5.99021844E-03  4.14263033E-07  2.20508684E-07
 -2.27711439E-02 -4.05937946E-03 -6.38608653E-03 -1.42857369E-03 -1.77779134E-02
 -2.31761639E-03 -2.27710781E-02 -4.05936048E-03 -6.38606153E-03 -1.42858255E-03
 -1.77779764E-02 -2.31767065E-03 -3.30902948E-01  9.63911169E-02 -1.67448252E-02
  1.61981015E-02  1.82761546E-07  5.25950868E-03 -1.33939515E-02  1.10618703E-02
  5.84363630E-09  3.04467625E-02  2.99061098E-02  2.14676312E-01  1.22905825E-02
  7.50648828E-08  1.03505350E-07  3.33829623E-01 -9.59868812E-02 -3.33611131E-03
 -2.16714174E-02 -5.78561271E-07 -6.95940781E-03 -2.49931868E-03 -1.85468723E-02
 -5.41446750E-08 -3.48600905E-02 -2.04192540E-02 -2.19864229E-01  4.55052888E-03
  2.23121469E-07  9.07675504E-08 -3.32344329E-01  9.63196519E-02  2.03722825E-02
  1.32547789E-02  8.64985131E-07  6.03462445E-03  1.60077743E-02  9.20936751E-03
  3.82881030E-07  2.89509068E-02  2.92687334E-02  2.17129492E-01 -1.15180679E-02
 -1.12419808E-06 -3.36841273E-07  3.30902081E-01 -9.63908048E-02 -1.67445808E-02
  1.61984223E-02 -6.44559050E-07 -5.25948678E-03 -1.33939245E-02  1.10618335E-02
 -2.22215504E-07 -3.04462230E-02 -2.99065395E-02 -2.14675580E-01 -1.22904500E-02
  7.39264427E-07 -1.01343139E-07 -3.33829404E-01  9.59868296E-02 -3.33530065E-03
 -2.16713267E-02  1.36099060E-07  6.95940449E-03 -2.49913902E-03 -1.85468483E-02
 -1.57387227E-07  3.48601629E-02  2.04192130E-02  2.19864049E-01 -4.55099987E-03
 -8.19759106E-08 -5.39174761E-07  3.32344844E-01 -9.63198406E-02  2.03723099E-02
  1.32548351E-02 -2.52444262E-07 -6.03464272E-03  1.60077978E-02  9.20941199E-03
 -1.88057508E-07 -2.89514172E-02 -2.92683555E-02 -2.17129873E-01  1.15185405E-02
 -6.50992272E-07 -1.32093997E-07 -1.00537459E-01 -4.50184330E-02  1.05592004E-01
  4.62804012E-02 -1.01477272E-01 -4.53680407E-02  1.00537237E-01  4.50183098E-02
 -1.05591989E-01 -4.62803916E-02  1.01477303E-01  4.53680731E-02  2.54584447E-01
 -1.26129424E-01 -8.22470766E-02 -7.54381644E-02 -5.71659299E-07 -2.34443026E-02
  3.49392800E-02 -1.48927598E-02 -1.14804229E-07  3.66802676E-02  9.19410258E-03
 -3.54525400E-01  3.80377229E-02  5.88657249E-07 -2.98609289E-07 -1.56637818E-02
  8.38775400E-03  1.59928196E-01 -2.10193104E-02 -8.07939132E-07  1.86841375E-03
 -3.05850890E-02  5.53754577E-03 -1.44681872E-07  2.02436942E-02 -2.75286022E-02
  2.78005718E-02  1.66742976E-01  1.63939055E-06 -1.64921140E-07 -2.47224325E-01
  1.25862782E-01 -7.82439190E-02  9.10400253E-02  1.94296125E-06  2.34849760E-02
  3.54988144E-02 -3.72605414E-03  6.59065943E-07 -4.81502491E-02 -6.37687657E-04
  3.55871168E-01  4.42104617E-02 -4.23677103E-07 -7.43760040E-07  2.54586122E-01
 -1.26130054E-01  8.22507174E-02  7.54412003E-02 -1.34449716E-06 -2.34453898E-02
 -3.49412387E-02  1.48916604E-02 -3.56615713E-07  3.66848626E-02  9.19396350E-03
 -3.54531567E-01  3.80395846E-02  5.61023920E-07 -6.55599676E-08 -1.56615895E-02
  8.38758090E-03 -1.59928749E-01  2.10164082E-02 -3.64264679E-07  1.86597774E-03
  3.05852923E-02 -5.53631453E-03 -1.14036276E-07  2.02496706E-02 -2.75243764E-02
  2.77894605E-02  1.66742798E-01 -1.13975398E-06  3.17321164E-07 -2.47222625E-01
  1.25862281E-01  7.82411912E-02 -9.10367616E-02  1.22525846E-06  2.34836947E-02
 -3.54973918E-02  3.72505916E-03  4.49685045E-07 -4.81468673E-02 -6.35832851E-04
  3.55864469E-01  4.42079578E-02  9.00851251E-08  4.82454286E-07  1.63648450E-01
  7.03577176E-02 -1.92715263E-02 -8.69061492E-03 -1.67399747E-01 -7.02669322E-02
  1.63650846E-01  7.03582382E-02 -1.92675995E-02 -8.69066165E-03 -1.67397004E-01
 -7.02664977E-02 -4.82357689E-02 -1.60786934E-02  1.18295291E-01 -4.10320015E-02
  4.00631027E-07  7.42494811E-02 -2.97403468E-02  1.62465885E-02  1.19052473E-07
 -1.68944169E-01 -1.47298126E-01  2.93518212E-01 -1.27530426E-02 -1.73652256E-06
 -7.14324679E-07 -1.06375104E-01  1.49029517E-02 -1.78124679E-02 -1.33667787E-01
 -1.68482416E-06  8.09093492E-02  5.44373454E-03  3.92630732E-02 -4.94007688E-07
 -1.69112253E-01 -1.64826995E-01  3.85499070E-01 -9.30671820E-03 -6.57928700E-08
 -2.19911206E-06 -3.28109316E-02 -2.43388426E-02 -1.14658195E-01 -2.62979508E-02
  1.24533199E-06  7.24846094E-02  3.10083332E-02  9.19676929E-03  4.06784617E-07
 -1.63598043E-01 -1.48025684E-01  2.69109078E-01  2.31181887E-02  1.51054883E-06
 -4.82136910E-07 -4.82364558E-02 -1.60784465E-02 -1.18295843E-01  4.10324827E-02
  5.81968415E-07  7.42500017E-02  2.97409202E-02 -1.62464254E-02  1.67628401E-07
 -1.68945084E-01 -1.47299492E-01  2.93521151E-01 -1.27532584E-02  6.79350187E-07
  9.78926039E-07 -1.06375461E-01  1.49029594E-02  1.78145172E-02  1.33667970E-01
 -1.94143050E-06  8.09097009E-02 -5.44424257E-03 -3.92632067E-02 -5.89243254E-07
 -1.69113058E-01 -1.64827677E-01  3.85500660E-01 -9.30561634E-03 -4.66498517E-07
  1.04330714E-06 -3.28106713E-02 -2.43389568E-02  1.14658063E-01  2.62972313E-02
  1.48022381E-06  7.24844308E-02 -3.10083394E-02 -9.19659819E-03  4.42934386E-07
 -1.63598363E-01 -1.48024486E-01  2.69107930E-01  2.31192303E-02 -1.16102789E-06
  6.29589113E-07 -8.30042098E-02  1.14527819E-02 -1.25648930E-01 -3.78971422E-03
 -7.18443800E-02  1.53867626E-02 -8.30051842E-02  1.14526361E-02 -1.25649536E-01
 -3.78976658E-03 -7.18441686E-02  1.53867303E-02  1.20515876E-01 -4.78907084E-02
  8.18185876E-02  1.83336109E-01  7.43920032E-07 -3.22606605E-02  3.46440084E-03
 -4.28296557E-02  1.40758194E-07 -2.33988586E-02  1.42985383E-01 -2.38894735E-01
 -1.83277637E-02 -2.15501431E-07  3.53449293E-08 -2.36399474E-01  1.42727529E-01
 -3.65211579E-03 -6.15164996E-02 -1.91555727E-07  1.31996851E-02 -2.49079889E-03
  1.26849495E-02 -1.36097477E-07  2.18342682E-02 -4.51471072E-02  3.58445371E-01
 -3.06433608E-02 -3.09630442E-07 -3.06636662E-07  1.38531484E-01 -6.01027041E-02
 -2.45332903E-03  1.50579307E-01 -3.85619303E-07 -3.44729763E-02 -6.05557771E-03
 -4.72604719E-02 -2.47356603E-07 -2.78113743E-02  1.49941528E-01 -2.69656800E-01
  1.26498890E-01  6.72775381E-07 -5.04766706E-07  1.20510914E-01 -4.78890888E-02
 -8.18198898E-02 -1.83328942E-01  8.97715812E-07 -3.22571475E-02 -3.46365681E-03
  4.28266053E-02  7.14152923E-08 -2.34042608E-02  1.42975328E-01 -2.38874936E-01
 -1.83290808E-02  4.23707983E-07 -5.36727076E-07 -2.36400198E-01  1.42727747E-01
  3.66244675E-03  6.15162898E-02 -8.25859001E-07  1.31999510E-02  2.48859130E-03
 -1.26848103E-02 -3.79948234E-07  2.18336391E-02 -4.51476230E-02  3.58447064E-01
 -3.06450172E-02  5.13829280E-08 -7.07802796E-07  1.38536244E-01 -6.01040965E-02
  2.45154959E-03 -1.50586690E-01  2.58520636E-08 -3.44762682E-02  6.05650728E-03
  4.72634336E-02 -1.38696677E-07 -2.78070246E-02  1.49951623E-01 -2.69675035E-01
  1.26499127E-01 -5.04425683E-07  4.17192016E-07  9.54237891E-02  2.28410995E-02
 -2.00427070E-01 -7.98562519E-02  1.00695274E-01  2.09890808E-02  9.54171770E-02
  2.28400231E-02 -2.00427732E-01 -7.98563590E-02  1.00701101E-01  2.09897674E-02
 -1.08368402E-01  3.77100637E-02  1.45147009E-01  5.95682032E-03  7.61805665E-07
  6.25742221E-02 -5.29102938E-02 -3.80017178E-04  4.21909185E-08 -1.64192002E-01
 -1.36901809E-01  3.95295703E-01 -5.45037707E-02 -2.04676038E-06 -6.22082691E-07
 -1.10288948E-01  3.60033723E-02 -9.99754600E-02 -1.19948211E-01 -1.26708774E-06
  6.67218602E-02  3.07195146E-02  3.47268269E-02 -3.86100412E-07 -1.75799214E-01
 -1.41042561E-01  4.08264178E-01 -2.27954544E-02 -6.35859833E-07 -1.71173884E-06
 -5.47827163E-03  2.86046047E-03 -7.69300398E-02  1.61378332E-01  6.64120442E-07
  1.65576848E-03  2.77310222E-02 -5.47456569E-02 -1.49856292E-08 -3.89777363E-02
  2.82553511E-02  1.71987835E-02  5.15916300E-02  7.99459011E-07 -8.08199385E-07
  1.08365612E-01 -3.77082035E-02  1.45142119E-01  5.95078224E-03 -8.29423606E-07
 -6.25742271E-02 -5.29096425E-02 -3.79638275E-04 -1.26426795E-07  1.64189828E-01
  1.36904428E-01 -3.95291963E-01  5.45020390E-02 -5.91518197E-07 -1.19289589E-06
  1.10282727E-01 -3.59995557E-02 -9.99731396E-02 -1.19945518E-01  1.29687806E-06
 -6.67212170E-02  3.07190693E-02  3.47264687E-02  4.68229774E-07  1.75798320E-01
  1.41041240E-01 -4.08253241E-01  2.27889699E-02 -8.79057125E-08 -2.58783810E-07
  5.48687317E-03 -2.86547721E-03 -7.69322293E-02  1.61376934E-01 -6.46393061E-07
 -1.65658555E-03  2.77317719E-02 -5.47445677E-02  2.46492754E-08  3.89767148E-02
 -2.82520091E-02 -1.72125762E-02 -5.15887850E-02  8.18421009E-07 -7.86804433E-07
 -1.36678949E-01 -2.86614977E-02 -1.40160515E-01 -2.26593360E-02 -1.17328273E-02
 -5.67265729E-03  1.36676948E-01  2.86602718E-02  1.40154869E-01  2.26573088E-02
  1.17391842E-02  5.67523952E-03  6.64037075E-02 -2.38834830E-02  3.97564194E-02
  1.81082264E-01  6.41939215E-07 -3.85104769E-02 -1.27403341E-02 -5.77471766E-02
 -9.79678663E-08  5.17072408E-02  1.35266710E-01 -2.45998018E-01  1.27562852E-03
  2.37857321E-07  4.51574632E-07 -5.87715502E-02  2.10634022E-02  1.61042033E-01
 -8.69922794E-02 -1.14265123E-06  3.40511604E-02 -3.88761955E-02  2.47790730E-02
 -1.98566998E-07 -8.85456247E-02 -7.71251974E-02  2.17737465E-01  2.21539037E-02
  1.38086639E-06 -1.12864346E-06 -1.25271486E-01  4.50623342E-02 -1.26342277E-01
 -6.96245444E-02  1.62844778E-06  7.25038449E-02  3.70821418E-02  2.60653748E-02
  5.77116060E-07 -1.50775132E-01 -2.01755139E-01  4.63856448E-01  1.11213988E-02
  9.23962617E-07 -7.27164710E-07 -6.64115931E-02  2.38874570E-02  3.97587541E-02
  1.81088844E-01 -6.90402303E-07  3.85116783E-02 -1.27397746E-02 -5.77488797E-02
  1.43509894E-07 -5.17061262E-02 -1.35272395E-01  2.46011773E-01 -1.27598607E-03
 -1.64011586E-07  9.35344376E-07  5.87813969E-02 -2.10697433E-02  1.61043690E-01
 -8.69964437E-02  1.06791771E-06 -3.40518163E-02 -3.88766854E-02  2.47796770E-02
  2.32824400E-07  8.85451896E-02  7.71275836E-02 -2.17753812E-01 -2.21550488E-02
  1.30392058E-06 -6.16237711E-07  1.25269045E-01 -4.50614667E-02 -1.26343100E-01
 -6.96183324E-02 -1.34111752E-06 -7.25029825E-02  3.70825157E-02  2.60635895E-02
 -4.57354409E-07  1.50777900E-01  2.01748881E-01 -4.63850853E-01 -1.11285626E-02
  6.48110117E-07 -8.64779392E-07  8.08640650E-02  1.48183376E-02 -7.39700685E-02
 -1.36320637E-02 -1.55039233E-01 -2.87307549E-02 -8.08702311E-02 -1.48204898E-02
  7.39793347E-02  1.36357894E-02  1.55037598E-01  2.87309012E-02 -9.87756824E-03
  1.13379398E-01  3.27218651E-01 -3.66055795E-02 -8.21534069E-07 -5.93873614E-02
  3.81037759E-02  3.39486677E-02 -9.04069508E-08  1.70593376E-01  5.79716613E-02
 -9.67338835E-03  3.02044677E-01  1.93975114E-06  9.65359473E-07 -9.93787219E-03
  1.15285826E-01 -1.71107605E-01 -1.69954142E-01  1.47893074E-06 -6.43288781E-02
 -5.66550721E-02  2.87654390E-02  2.90538772E-07  1.98562025E-01  3.27875944E-02
 -1.14881678E-02  1.63333106E-01  7.96602628E-07  1.36962456E-06  1.01606126E-03
 -1.73805146E-02 -1.00395527E-01  2.84593406E-01 -8.38605977E-08  1.23369598E-02
 -6.74588761E-02  1.14333973E-01  9.19184899E-08  1.68684521E-01 -2.09930088E-01
  8.53734772E-03 -3.00182040E-01 -4.86732296E-07  1.14525999E-06  9.87761275E-03
 -1.13379983E-01  3.27235023E-01 -3.65896313E-02 -2.71194283E-07  5.93872911E-02
  3.81079342E-02  3.39536310E-02 -9.99430511E-08 -1.70610783E-01 -5.79544783E-02
  9.67246240E-03 -3.02062441E-01  8.71822667E-07  1.19810686E-06  9.93767668E-03
 -1.15286591E-01 -1.71090962E-01 -1.69954221E-01 -4.29077957E-07  6.43292995E-02
 -5.66586709E-02  2.87669884E-02 -1.92837797E-07 -1.98562401E-01 -3.27905402E-02
  1.14899426E-02 -1.63322733E-01  5.89671631E-08  5.64184022E-07 -1.01596642E-03
  1.73832225E-02 -1.00383120E-01  2.84574203E-01  2.60324560E-07 -1.23379947E-02
 -6.74581632E-02  1.14332617E-01 -8.92371196E-08 -1.68675474E-01  2.09927566E-01
 -8.53841265E-03  3.00160951E-01 -4.90087860E-07  5.13552197E-07  7.83026953E-03
 -8.62098150E-02  1.06586019E-02 -1.14646628E-01  2.61090848E-02  4.23789681E-02
 -7.83194276E-03  8.62084864E-02 -1.06613990E-02  1.14646940E-01 -2.61064929E-02
 -4.23794018E-02  1.76782785E-03  6.86709608E-03  2.34576375E-01  2.63182359E-01
 -1.81613642E-08  2.30849240E-06  5.40211178E-02  5.77255419E-02 -3.42189417E-08
  2.77267162E-01 -2.55304852E-01 -8.11772516E-03  2.06723719E-01  3.60889330E-07
  5.05486034E-08  3.11535436E-03  5.24205764E-03  3.07874929E-01  3.67541467E-03
 -2.85655802E-07 -2.89450476E-03 -4.03321300E-02  1.01206846E-02  2.62507490E-08
 -2.32298314E-02  6.27167195E-02 -2.83344979E-02 -1.88210764E-01  8.62775658E-07
 -3.15813036E-07 -4.54693927E-03 -2.52239644E-02  1.62626514E-01 -3.21282327E-01
  5.11414324E-07  1.04229497E-02  1.72822716E-02 -2.45595837E-02  2.24617970E-07
 -1.85226650E-01  9.90967233E-02  3.46136617E-02  2.76000368E-01  4.46929899E-07
 -9.93919589E-08  1.76877067E-03  6.85433446E-03 -2.34551972E-01 -2.63203595E-01
 -7.79114335E-08  9.00819342E-06 -5.40252721E-02 -5.77293826E-02  1.92767788E-08
  2.77263771E-01 -2.55330131E-01 -8.11359826E-03  2.06713037E-01  1.35012244E-07
  2.54412981E-07  3.11500711E-03  5.23812209E-03 -3.07897044E-01 -3.67938271E-03
 -3.82820193E-07 -2.89250898E-03  4.03240021E-02 -1.01181777E-02 -2.24907333E-09
 -2.32394348E-02  6.27177731E-02 -2.83339952E-02 -1.88231294E-01 -2.25543910E-07
  4.41779815E-07 -4.54730688E-03 -2.52133065E-02 -1.62612390E-01  3.21303522E-01
  2.75561434E-07  1.04172601E-02 -1.72894491E-02  2.45677078E-02  1.09778961E-07
 -1.85233125E-01  9.91272090E-02  3.46106161E-02  2.76009396E-01 -3.82955526E-07
  2.26279035E-07  2.62955167E-02  1.87345508E-02  3.55309525E-02  4.95320409E-03
 -5.00570889E-02 -4.60153447E-03  2.62966158E-02  1.87479228E-02  3.55316749E-02
  4.95848026E-03 -5.00586790E-02 -4.61470036E-03 -4.21823315E-03  7.51439379E-02
  1.45416180E-02 -2.73711073E-01 -2.33918479E-07 -3.95068603E-02 -1.09731064E-01
 -1.11911654E-01 -3.17988733E-07 -1.66635424E-01  3.32390960E-01 -1.94309737E-02
 -4.41208677E-02 -8.56664409E-08  1.03112351E-07  5.66208214E-03 -9.37301503E-02
 -1.92525495E-01  1.99682812E-01 -1.65459734E-06  4.85666465E-02 -7.70498120E-02
 -1.90725596E-02 -2.62187359E-07 -1.19350871E-01 -8.07739691E-02  1.86241234E-02
  1.80978641E-01  2.16678065E-06 -2.00879849E-06  9.77666864E-03 -1.65976420E-01
  3.58357364E-01  8.57914264E-02  1.61546977E-06  8.55056034E-02 -4.74187010E-02
  2.09755977E-03  5.55679229E-07 -8.58886366E-02 -2.72902888E-01  3.59818222E-02
  1.01011136E-01  3.08880777E-06 -5.01615147E-07  4.21774289E-03 -7.51441625E-02
  1.45553210E-02 -2.73694107E-01 -6.33327097E-07  3.95070071E-02 -1.09727347E-01
 -1.11907711E-01  2.43341793E-07  1.66615102E-01 -3.32374686E-01  1.94343810E-02
  4.41158832E-02  3.86380296E-07  1.46192337E-06 -5.66204510E-03  9.37280643E-02
 -1.92504842E-01  1.99679603E-01  1.18110087E-07 -4.85657839E-02 -7.70512668E-02
 -1.90712181E-02  7.69464221E-08  1.19348711E-01  8.07711630E-02 -1.86233290E-02
 -1.80965405E-01  1.47035969E-06 -6.93557001E-07 -9.77638042E-03  1.65977191E-01
  3.58362401E-01  8.57724717E-02  1.63244807E-08 -8.55059765E-02 -4.74184053E-02
  2.09741806E-03 -2.17059174E-07  8.58995070E-02  2.72896128E-01 -3.59843774E-02
 -1.01024194E-01  1.17405581E-06 -1.13559128E-06 -1.36284748E-02 -9.55869166E-02
 -1.25100723E-02  1.02511036E-01 -1.70715918E-03  1.87600968E-01  1.36269487E-02
  9.55871060E-02  1.25086085E-02 -1.02509287E-01  1.71120220E-03 -1.87599606E-01
 -4.54471811E-08 -5.64096614E-08  7.26444567E-07  1.96811592E-07 -2.84628575E-01
  1.52605975E-07 -8.97682121E-08  9.09902642E-08 -4.98973537E-02 -8.45404274E-07
 -7.34941709E-07  1.48448970E-06 -1.31806758E-06  3.97105288E-01  1.06590769E-02
 -2.61273851E-07  5.67121442E-07 -8.13683373E-08 -2.65355041E-06  4.01423262E-01
  1.81805471E-07  6.97389092E-08  2.63276050E-07  7.03710833E-02 -6.11678083E-07
 -7.46261809E-07  2.47754857E-06 -4.18920735E-07  1.26106247E-01  4.32009963E-01
 -1.85754132E-08 -1.37092363E-07 -3.08785873E-07 -5.95226555E-08 -1.16795355E-01
  1.51715011E-07  7.68396519E-08  2.63071585E-08 -2.04703547E-02 -8.99091532E-07
 -7.53730678E-07  1.39857979E-06  1.24476150E-06 -2.47831621E-01  2.42373825E-01
  3.77214152E-08  7.13632207E-08 -1.04403854E-06 -3.53290725E-07 -2.84619971E-01
 -4.47944257E-08 -2.16847549E-07 -5.37121113E-07 -4.98909867E-02  1.66259172E-07
 -8.35498112E-07  8.35736451E-07 -2.54570736E-07 -3.97073296E-01 -1.06363683E-02
 -1.83756587E-07  1.13840792E-06 -7.93929240E-08  3.35743092E-06  4.01419667E-01
 -2.65889650E-07 -7.36928564E-08 -5.91257798E-07  7.03689491E-02  6.73350826E-07
 -6.85735252E-08  1.63746431E-06 -1.61091058E-07 -1.26053801E-01 -4.32010441E-01
 -1.79893167E-08  2.18480098E-07  1.28642243E-06  1.30171484E-07 -1.16804111E-01
 -3.53682506E-08  4.24947263E-09 -5.00721118E-07 -2.04784922E-02 -1.92753411E-07
 -5.42566998E-07  1.18679670E-06  3.79219071E-07  2.47849741E-01 -2.42382200E-01
 -3.35438694E-07 -2.70625507E-07 -1.22062565E-06 -8.09765884E-07 -1.71691470E-07
 -1.98712070E-07  2.03365733E-07 -4.48610653E-07 -5.87415543E-07 -1.69701923E-06
 -1.01145128E-07 -6.22810015E-07 -9.99173688E-08  9.02667161E-09  1.71126308E-07
  2.78116339E-08 -2.99193276E-01  1.32488010E-07  2.78441674E-07  1.61733249E-07
 -5.24455065E-02 -3.83801431E-07  3.63095237E-07  1.53808449E-08  6.96204468E-07
  1.29975717E-01 -3.81619106E-01  2.32664292E-08 -5.02788458E-08 -6.89815175E-07
  7.68709429E-07 -9.68902269E-02 -4.57016956E-08  7.93506037E-08 -9.11849615E-08
 -1.69809974E-02  3.40912530E-07  2.73839555E-07 -7.27008702E-07 -6.40188863E-07
  3.12688293E-01 -1.41512418E-01  2.00330691E-07 -2.97066634E-07  1.30192403E-06
  7.12709626E-07  3.96091572E-01 -1.84784227E-07 -9.58614717E-08 -3.32195001E-07
  6.94357901E-02  1.02603044E-06  4.35019301E-07 -2.04035616E-06  1.37706895E-07
  3.61700817E-01  2.63310225E-01 -7.11573927E-08  5.45393735E-07 -6.61662941E-07
  8.24439471E-07 -2.99199867E-01 -2.07975834E-07  2.62991879E-07  1.20464044E-07
 -5.24510324E-02 -2.88503806E-07  1.76211531E-06 -4.19293928E-07  8.06908898E-07
 -1.29960443E-01  3.81656417E-01  4.19127644E-08 -2.94671567E-07  1.12922132E-06
 -1.13654851E-06 -9.68999396E-02  5.97838866E-08  4.36219089E-07  1.47089624E-07
 -1.69891977E-02  2.42007102E-07 -5.11958139E-08 -7.79222881E-07  9.69181220E-08
 -3.12696777E-01  1.41527722E-01  1.74082619E-07 -1.01302278E-06 -2.89160587E-06
 -1.32960182E-06  3.96088257E-01  2.52467458E-07  4.71584646E-07  2.10323095E-07
  6.94330952E-02  3.98089584E-07 -1.04312848E-06 -1.34544529E-06  1.92445923E-07
 -3.61716226E-01 -2.63263309E-01 -5.08013303E-07  3.07713046E-07  1.45599246E-07
  2.29462550E-07  7.41628568E-07  5.66260748E-07 -1.86330647E-07 -4.99400381E-07
  7.94470793E-08  5.28466429E-07  6.42371634E-07  1.53531265E-06 -4.44851141E-03
  1.06564959E-01  2.75206874E-01 -1.86161332E-01  4.71174517E-07 -7.51778215E-02
 -6.23465591E-02  6.26396613E-02  4.72936342E-08  1.51577931E-01  5.46693057E-02
  3.39445926E-03 -1.19552915E-01 -1.11413465E-06 -8.10846613E-07 -2.86646513E-03
  1.25144159E-01 -1.86896946E-02 -3.65142902E-01 -1.09549422E-06 -8.08452850E-02
  2.12596983E-02  8.74985041E-02 -1.64624252E-07  6.66103876E-02  1.94087680E-01
 -1.35761674E-02 -1.02210815E-02 -3.35786722E-07 -1.25704627E-06 -3.80297272E-03
  1.13966131E-01 -3.48548439E-01 -1.60109529E-01  1.82493123E-06 -7.68332253E-02
  6.76843195E-02  5.50135085E-02 -1.28312466E-07  1.61827050E-01  6.07862139E-02
  1.91498484E-03  3.72051889E-02  7.36148366E-07  1.38875566E-07 -4.44853374E-03
  1.06563843E-01 -2.75205382E-01  1.86158366E-01  5.96325705E-07 -7.51773474E-02
  6.23453496E-02 -6.26394012E-02 -1.77220427E-07  1.51576579E-01  5.46679667E-02
  3.39485665E-03 -1.19550939E-01  6.11294443E-07  9.76937819E-07 -2.86645470E-03
  1.25145171E-01  1.86922794E-02  3.65145175E-01 -1.48720531E-06 -8.08457538E-02
 -2.12609983E-02 -8.74989690E-02 -1.62468711E-07  6.66113640E-02  1.94089068E-01
 -1.35765295E-02 -1.02186725E-02 -5.58986290E-07  1.28844647E-06 -3.80294028E-03
  1.13968285E-01  3.48553141E-01  1.60112003E-01  1.57762964E-06 -7.68341311E-02
 -6.76856419E-02 -5.50146681E-02  8.30899480E-08  1.61830195E-01  6.07878085E-02
  1.91463499E-03  3.72061273E-02 -1.27672846E-06  4.57076621E-07  3.85098132E-03
 -2.46902888E-01  2.41679885E-02 -2.51852983E-01  2.68880589E-03 -2.47821672E-01
  3.85104141E-03 -2.46900526E-01  2.41677943E-02 -2.51854656E-01  2.68869699E-03
 -2.47825444E-01 -5.35779062E-08  3.17788194E-07  7.02114969E-07 -6.02612093E-07
 -3.27693797E-01 -1.72384410E-08 -5.42104613E-07 -1.85537495E-07 -3.06895077E-02
 -5.95390004E-07  6.44661086E-07  5.88549973E-07 -1.26716218E-06  3.17374246E-01
 -2.31836302E-01 -1.06409903E-07 -1.99037524E-07  1.33196768E-07 -7.86065509E-07
  3.27748830E-01  4.01050551E-07 -2.80592941E-07 -1.82552574E-09  3.07357127E-02
 -1.30322456E-06 -1.01288748E-06  1.95697594E-06 -7.58383292E-08  4.25824949E-02
  3.90802354E-01 -7.76281114E-08 -4.69496792E-07  1.30970885E-06  2.15571712E-07
 -3.27639653E-01  4.07095233E-07 -7.68634433E-08 -2.98328531E-07 -3.06448173E-02
 -1.89764392E-06 -9.96223384E-07  1.95198934E-06  1.02506411E-06 -3.59579272E-01
 -1.58468696E-01  1.69163575E-08 -2.12157722E-07  1.08253903E-07 -1.21604809E-07
  3.27695089E-01  8.46977301E-08 -7.02976555E-07 -2.69976841E-07  3.06895629E-02
  5.67548651E-07 -7.36954282E-07 -2.59950103E-07  1.08753503E-06  3.17367254E-01
 -2.31847850E-01  7.41863431E-08  3.47027856E-07  3.14419742E-07 -1.21476306E-07
 -3.27750259E-01 -3.48447784E-07 -1.54221213E-07  4.57000565E-08 -3.07360889E-02
  1.17569914E-06  1.15010877E-06 -1.67274542E-06  1.38206724E-07  4.25686150E-02
  3.90805592E-01  7.02148371E-08  3.21644430E-07  5.68597812E-07 -1.90294268E-07
  3.27640405E-01 -2.78072245E-07  8.47213060E-08 -2.88245971E-07  3.06447870E-02
  1.66110728E-06  2.31302253E-07 -1.24399922E-06 -8.14199273E-07 -3.59586097E-01
 -1.58454718E-01 -4.63735093E-07 -6.67602616E-07 -8.14648669E-07  1.55711706E-07
 -2.03550713E-07  6.20433893E-07 -1.55087426E-07  6.22569674E-07  2.94123852E-07
 -2.12891790E-07  2.38772723E-07 -3.27385635E-07  2.58868582E-04 -1.29924088E-01
 -1.70179359E-01  2.50990135E-01 -4.94058217E-07  5.60051377E-02  1.07292513E-01
 -1.13472280E-01 -4.42284734E-07 -1.04833756E-01 -1.82959131E-01  2.41058621E-02
  3.10705164E-01 -8.10805038E-06 -1.28725002E-05 -2.92390152E-04 -1.26789374E-01
 -3.04243742E-02  3.85086934E-01 -2.32168168E-06  4.87949463E-02  7.07098973E-03
 -1.35055048E-01 -2.63204932E-06 -2.52053734E-02 -2.47502074E-01  9.83379642E-03
  7.35507833E-02 -6.02833291E-06 -3.53230679E-06  2.44252829E-04 -2.04551132E-02
 -6.61382110E-02  1.60774104E-01 -2.72145904E-06  1.12968203E-02 -8.86681421E-03
 -5.82620247E-02 -2.10110077E-06  5.85511413E-02 -1.07560730E-01  9.72908497E-03
 -2.45673097E-01  1.80825422E-07 -1.05131562E-05 -2.59094756E-04  1.29921957E-01
 -1.70174723E-01  2.50974479E-01  1.22056475E-06 -5.60044091E-02  1.07292665E-01
 -1.13469338E-01  3.82514664E-07  1.04836614E-01  1.82951104E-01 -2.41051689E-02
 -3.10710078E-01 -7.98161275E-06 -1.29144259E-05  2.92256660E-04  1.26787944E-01
 -3.04290686E-02  3.85082193E-01  1.93454336E-06 -4.87943921E-02  7.06729204E-03
 -1.35053047E-01  2.56973165E-06  2.52020631E-02  2.47501672E-01 -9.83309355E-03
 -7.35563447E-02 -5.86207477E-06 -3.52052220E-06 -2.43866084E-04  2.04585121E-02
 -6.61252681E-02  1.60786881E-01  2.72960418E-06 -1.12978637E-02 -8.86888704E-03
 -5.82632914E-02  2.04124884E-06 -5.85530636E-02  1.07571377E-01 -9.73062295E-03
  2.45670193E-01  1.37976523E-07 -1.03156019E-05 -9.29392978E-04  2.83670794E-01
 -5.43843110E-03  2.60411157E-01  3.22092908E-03  5.30040542E-02  9.31046921E-04
 -2.83666484E-01  5.43866480E-03 -2.60408050E-01 -3.22400697E-03 -5.30104026E-02
 -1.16921969E-07 -2.28411975E-06 -2.60266167E-06  3.79091304E-06 -7.53386712E-02
  1.25408819E-06  2.16096219E-06 -1.15026319E-06 -6.30364541E-02 -2.52405419E-06
 -4.05982951E-06  1.93973860E-06  4.49341994E-06  4.23444233E-01  3.83849234E-01
 -8.25379276E-08 -1.65539728E-06 -1.33176076E-06  4.92803188E-06  5.91336041E-02
  7.22733146E-07  1.64489686E-07 -1.96006572E-06  4.95001750E-02 -8.66331294E-08
 -3.78430032E-06  3.84022760E-07  2.64405222E-08  6.12788169E-01  2.43336027E-02
  1.31467281E-07 -4.31372457E-07 -2.61244538E-07  3.45609494E-06  1.34890604E-01
 -9.00332779E-08  5.74132465E-08 -1.47358826E-06  1.12577522E-01  1.46648627E-06
 -1.57726998E-06 -7.20873469E-07 -3.39841383E-06  2.07220642E-01  4.03005363E-02
  5.81431097E-08  2.92125198E-06 -4.76379791E-06  6.08056258E-06  7.53694399E-02
 -1.42951578E-06  2.16730164E-06 -1.89334760E-06  6.30412176E-02  2.39980369E-06
  5.15992832E-06 -1.66682177E-06 -3.84510626E-06  4.23478162E-01  3.83842396E-01
  2.50948388E-08  2.20826343E-06 -2.58367600E-07  6.71671998E-06 -5.91657041E-02
 -8.79321091E-07  8.50122114E-07 -2.49630001E-06 -4.95052127E-02  5.50080117E-07
  4.17907743E-06 -1.60606838E-07  4.36787138E-07  6.12804137E-01  2.43647884E-02
 -9.49079831E-08 -4.18309478E-07 -2.87089557E-06  1.64990670E-06 -1.34889109E-01
  2.98725893E-07  4.01346653E-07 -1.29926484E-06 -1.12577340E-01 -1.50013021E-06
 -3.96261491E-07  1.04202423E-06  4.26388143E-06  2.07207106E-01  4.03278446E-02
 -6.27365357E-07  4.80374197E-06 -4.87409041E-07  3.64597778E-06  8.41634471E-07
  1.01244037E-06 -7.02478666E-08 -5.83386388E-06  1.09504882E-07 -4.54834646E-06
  5.13453886E-09  1.14882814E-07  5.08693320E-09 -2.41901078E-06 -4.13342665E-06
  5.03729792E-06  1.12126038E-01  1.07686445E-06  1.35388344E-06 -2.30964192E-06
  9.35868663E-02 -2.59754970E-06 -3.23846031E-06  9.53602509E-07  3.05429102E-06
  8.46649867E-02  4.05474553E-01 -1.69577823E-07 -2.00769747E-06 -1.92949863E-07
  5.31799370E-06  1.21306196E-01  1.11960420E-06  2.67362537E-07 -2.18736497E-06
  1.01385447E-01 -7.86128866E-07 -4.75654775E-06  1.37258784E-06  1.23928111E-06
 -2.74529160E-01  2.16074349E-01 -3.99904177E-08 -7.94664864E-07 -1.24898183E-07
  3.00902472E-06  9.42643477E-03  5.34628254E-07 -3.55091550E-07 -9.69670722E-07
  7.82026836E-03 -4.46334591E-07 -2.27164241E-06  1.15772006E-06 -2.61468937E-06
 -2.58676446E-01  6.21941370E-01  3.34249052E-08  1.78449481E-06 -1.84636333E-06
  3.10448231E-06 -1.12106674E-01 -8.40232529E-07  9.37261297E-07 -2.24853676E-06
 -9.35840032E-02  2.19983298E-06  2.26000697E-06 -8.19475205E-07 -4.25619012E-06
  8.46672174E-02  4.05444560E-01  1.31606573E-07  2.39372270E-06 -4.35552017E-07
  6.65058834E-06 -1.21290761E-01 -1.16572610E-06 -6.25011729E-08 -2.22194808E-06
 -1.01383212E-01  1.82360645E-06  4.56163926E-06 -1.46090566E-06 -1.84057663E-06
 -2.74505657E-01  2.16056006E-01  5.65781128E-08  6.63680983E-07 -6.52261652E-09
  3.01144524E-06 -9.46065372E-03 -4.35747476E-07  8.08617333E-08 -1.35660397E-06
 -7.82569496E-03 -3.21513329E-08  2.44540818E-06 -1.10461703E-06  1.86068424E-06
 -2.58645001E-01  6.21956852E-01  1.92521121E-07  4.87472603E-06 -1.04644983E-06
  4.23836640E-06 -2.72155495E-07  1.54556186E-06  3.40989182E-07 -3.95403924E-06
  4.12038221E-07 -4.49199409E-06  5.02262975E-08 -1.18319896E-06 -5.59662299E-03
 -1.12389185E-01 -4.30792453E-01  3.91932170E-01 -8.32481501E-07  4.10477009E-02
  5.27492809E-02 -7.53182929E-02 -5.91054701E-07 -9.15165300E-02 -2.10010613E-01
  7.47631187E-02 -2.04804721E-01  1.60277552E-07 -2.56292876E-06  1.93289090E-03
  2.36959384E-02  8.42193136E-03 -1.05922522E-01 -1.73911344E-07 -5.83246495E-03
  1.22257278E-01 -6.50657279E-03 -2.16751712E-07  6.17180286E-02  3.47855906E-03
 -1.68544448E-02 -1.21208252E-01  1.45248120E-06 -6.05831271E-07  4.93106541E-03
  7.69258899E-02 -3.30145923E-01 -2.28686711E-01  1.84592601E-06 -2.42600616E-02
  6.54010944E-03  9.38558702E-02  3.45713049E-07  2.22080228E-02  1.85262214E-01
 -5.14111037E-02 -1.52082197E-01  8.40973878E-07  8.90571154E-07 -5.59678459E-03
 -1.12402067E-01  4.30831830E-01 -3.91934775E-01 -1.45255328E-07  4.10527296E-02
 -5.27620537E-02  7.53335842E-02  2.51552446E-07 -9.15699598E-02 -2.09984112E-01
  7.47632917E-02 -2.04783094E-01  2.63261598E-06  2.62703450E-06  1.93332764E-03
  2.36997004E-02 -8.38104686E-03  1.05928849E-01 -6.43371473E-07 -5.83378984E-03
 -1.22267858E-01  6.50231827E-03 -1.27122031E-07  6.17180706E-02  3.48713822E-03
 -1.68548445E-02 -1.21169367E-01  3.20162138E-06  2.40322445E-07  4.93172953E-03
  7.69415161E-02  3.30190996E-01  2.28701041E-01  1.50700794E-06 -2.42656836E-02
 -6.55859553E-03 -9.38702519E-02 -2.52320527E-07  2.22569575E-02  1.85246036E-01
 -5.14105122E-02 -1.52069600E-01  8.09631235E-07 -3.27545873E-06  8.56689471E-02
  2.01830942E-01 -3.06332900E-02 -2.99453325E-02 -8.44004762E-02 -1.24515431E-01
  8.56666471E-02  2.01863313E-01 -3.06335951E-02 -2.99558589E-02 -8.43980275E-02
 -1.24555074E-01  1.81164067E-03  6.16707385E-02  2.47900995E-01  4.17931600E-02
  1.00790401E-07 -2.27343101E-02 -5.66199293E-02  8.68327494E-02  6.24261878E-08
  3.51518581E-01 -2.24334999E-01  3.26380379E-03 -6.61951281E-02 -9.57407906E-08
  8.14045368E-08 -1.36275333E-03 -4.30336159E-02  2.78975298E-01  9.92061746E-02
 -1.17916000E-06  1.57788491E-02 -7.08347931E-02 -6.20950294E-02  1.55562654E-07
  1.24925667E-02 -1.01552258E-01 -2.39282759E-03 -2.56699847E-01  6.82838508E-07
 -7.93142988E-07 -3.17190454E-03 -1.04825375E-01  2.71986608E-01  1.36239839E-01
 -7.24551352E-07  3.85927254E-02 -1.33790415E-01 -1.09400767E-01  7.81284646E-07
 -3.19213141E-01  1.02633854E-01 -5.53355514E-03 -1.62407667E-01  1.30591268E-06
  9.11939246E-08 -1.81119637E-03 -6.16630023E-02  2.47877049E-01  4.18462359E-02
 -1.49056340E-06  2.27320440E-02 -5.66343494E-02  8.68048805E-02  4.71611496E-07
 -3.51511107E-01  2.24350169E-01 -3.27086273E-03  6.62176320E-02 -9.92108504E-08
  2.30942126E-07  1.36397100E-03  4.30574039E-02  2.78982570E-01  9.92867401E-02
 -2.97166171E-07 -1.57869473E-02 -7.08127871E-02 -6.21185760E-02  3.38921323E-07
 -1.24491188E-02  1.01576088E-01  2.37381317E-03  2.56714233E-01  1.35833131E-07
 -4.40668471E-07  3.17035417E-03  1.04791819E-01  2.71862376E-01  1.36185716E-01
 -5.96746605E-08 -3.85805045E-02 -1.33762709E-01 -1.09397483E-01 -1.20403026E-07
  3.19184634E-01 -1.02697389E-01  5.55797242E-03  1.62430401E-01  5.99411347E-07
  1.51409968E-07  1.39031307E-02 -1.61693340E-01 -6.63739617E-03  1.16714825E-01
 -2.05156440E-02  2.78744858E-01 -1.39137943E-02  1.61680209E-01  6.62545810E-03
 -1.16757577E-01  2.05374542E-02 -2.78685465E-01  1.77898175E-03  4.46915276E-02
  1.89716455E-01 -1.46189994E-02  9.73429356E-07 -1.65236766E-02 -1.11491704E-01
 -8.23894643E-02 -1.23206474E-06  4.72575199E-02  7.79642611E-02 -3.53238847E-02
  1.03312782E-02  2.16298731E-06  1.05665906E-06 -6.61623344E-03 -1.46654276E-01
  4.50661806E-02  5.14242659E-01  3.31897296E-06  5.15450412E-02  1.87239381E-02
 -1.24794942E-01 -7.90832849E-07 -2.58428339E-01 -1.52411003E-01  1.15242563E-01
  3.48627731E-03  1.43244005E-06  1.20997977E-06  4.41454939E-03  1.04544954E-01
 -3.69152790E-01 -1.00290540E-01  2.57200478E-06 -3.78534062E-02  1.25999123E-01
 -5.60635366E-02 -1.03418074E-06  1.10267178E-01  1.82504733E-01 -8.22644526E-02
 -1.61684173E-02 -9.88744639E-07  1.32684973E-06  1.77889095E-03  4.46777975E-02
 -1.89666839E-01  1.46238952E-02  1.68939389E-06 -1.65183625E-02  1.11478253E-01
  8.24089787E-02 -1.27673384E-06  4.71880622E-02  7.80066895E-02 -3.53254215E-02
  1.03513166E-02 -1.08159733E-07  1.18132066E-06 -6.61595680E-03 -1.46647679E-01
 -4.50107762E-02 -5.14229901E-01  3.10452068E-06  5.15426478E-02 -1.87374164E-02
  1.24785175E-01 -1.37893237E-06 -2.58430673E-01 -1.52395065E-01  1.15243052E-01
  3.53813996E-03  1.99821496E-07  2.29106321E-07  4.41501161E-03  1.04564811E-01
  3.69207321E-01  1.00313942E-01  2.38719046E-06 -3.78607494E-02 -1.26025399E-01
  5.60423434E-02 -1.43177578E-06  1.10330736E-01  1.82481447E-01 -8.22627415E-02
 -1.61410077E-02  5.98854239E-07  1.14218119E-07 -2.00086840E-02 -8.21803239E-02
  8.51232712E-02  2.58336081E-01 -5.46897460E-02 -1.89697495E-01 -2.00118160E-02
 -8.21446311E-02  8.51245268E-02  2.58317411E-01 -5.46855493E-02 -1.89751035E-01
 -1.90096675E-08 -2.45229497E-07 -1.03231826E-06 -3.01043757E-07  4.69480458E-01
  1.06286138E-07  8.50050055E-07  4.42520502E-07 -2.61821053E-01 -2.02531275E-07
 -6.85328083E-07  4.03496247E-07  7.87291250E-07  1.75004180E-02 -1.28078178E-02
  7.74337777E-08  3.87306450E-07 -1.89626322E-07 -2.62484741E-06  4.69482398E-01
 -8.35512548E-08 -2.45774954E-07  8.50979970E-07 -2.61821286E-01  8.64331631E-07
  5.50334136E-07 -6.03169180E-07  1.84937087E-07 -2.33805869E-03 -2.15580087E-02
 -5.11991318E-08 -5.18653598E-07  3.32529627E-06  6.72119744E-07  4.69481851E-01
  2.61724900E-07 -1.01387970E-06  1.70587256E-07 -2.61821263E-01 -6.93820962E-07
 -7.52898015E-07  3.98257111E-07  4.54484387E-07 -1.98409893E-02 -8.75236900E-03
 -2.23501532E-09 -5.04178457E-07  1.33495953E-06  3.19931446E-07  4.69480379E-01
  2.34519870E-07 -9.95591398E-07 -2.87117185E-07 -2.61821055E-01 -1.00043810E-06
 -2.83420123E-07  2.84986974E-07  1.00814595E-06 -1.75013949E-02  1.28067615E-02
  5.50034544E-08  5.71401281E-07  7.36399591E-07  2.53330691E-06  4.69482687E-01
 -1.83557132E-07  4.36479710E-08 -8.69379374E-07 -2.61821303E-01  1.02357112E-06
  6.48966781E-07 -5.12685682E-07  7.95610331E-07  2.33926462E-03  2.15576559E-02
 -2.95228179E-08 -1.26136951E-07 -2.04284243E-06 -2.18684602E-07  4.69481732E-01
  6.39253820E-08  4.87962988E-07 -5.40661506E-07 -2.61821261E-01  4.70494981E-07
 -9.71317726E-07  2.54515141E-07  9.01361651E-07  1.98407991E-02  8.75323426E-03
 -1.72651758E-09  7.08659374E-07 -3.13186662E-07 -1.03161042E-06  5.99517031E-07
  9.97245414E-07  1.33266744E-07  8.70983303E-07 -4.70019430E-07 -9.42627067E-07
  5.14185394E-07  7.85919957E-10 -8.13437437E-04 -1.39469258E-01  2.42492887E-02
 -2.95933778E-02 -4.79003826E-07  4.77769543E-02  1.11589013E-01 -1.05762167E-01
  5.19746338E-07 -2.73561936E-01 -1.09193338E-01  1.08813453E-01  4.71837328E-01
 -1.14190848E-09  5.48163857E-07 -7.09645233E-04  2.74661067E-02 -2.33709768E-01
  5.71454589E-03 -4.24630553E-07 -1.07099627E-02  4.91299294E-02  4.97050545E-02
  4.81608834E-07 -4.64107561E-03  8.81472369E-02 -2.98597323E-02  2.76108053E-01
 -2.92488331E-07  4.03110943E-07 -6.21469228E-04  1.03503414E-01  1.82577007E-02
 -5.47122079E-02 -7.37935464E-07 -3.70709298E-02  1.20493820E-01  9.05322124E-02
  1.74966197E-07  2.71322388E-01  2.39865403E-02 -9.25481579E-02  3.72683370E-01
 -5.98831160E-07 -1.10130673E-07 -8.13498227E-04 -1.39469491E-01 -2.42427032E-02
  2.95987540E-02 -1.13615094E-06  4.77770142E-02 -1.11588512E-01  1.05763154E-01
  6.55891603E-07 -2.73567148E-01 -1.09188582E-01  1.08813295E-01  4.71834242E-01
  3.80269665E-08 -2.92703581E-07 -7.09643314E-04  2.74654205E-02  2.33713737E-01
 -5.71682625E-03 -9.98306950E-07 -1.07096490E-02 -4.91305290E-02 -4.97064082E-02
  6.29028848E-07 -4.64284570E-03  8.81473420E-02 -2.98591426E-02  2.76111144E-01
 -9.66356218E-08 -3.60968534E-08 -6.21424978E-04  1.03503457E-01 -1.82602909E-02
  5.47161668E-02 -7.16296221E-07 -3.70709437E-02 -1.20495738E-01 -9.05335400E-02
  2.44542925E-07  2.71324633E-01  2.39839023E-02 -9.25474789E-02  3.72689322E-01
  1.59941033E-07  5.81748774E-07 -1.05303912E-02  2.61948024E-01  2.23367882E-02
 -7.08887113E-02  4.17128742E-02 -2.17649679E-01 -1.05299175E-02  2.61948350E-01
  2.23397404E-02 -7.08898562E-02  4.17150510E-02 -2.17652296E-01  3.27086738E-03
  6.42364926E-02  3.50034443E-01 -2.58357366E-01  2.40804024E-07 -2.77814093E-02
 -7.84959241E-02  5.73161864E-02 -2.03960784E-07  1.24538319E-01  1.28007071E-01
 -1.21340603E-01  8.06488925E-04  5.47218338E-07  8.35187546E-07 -3.13984344E-03
 -6.36528903E-02  4.79234115E-02  4.29490942E-01  1.46773214E-06  2.75874581E-02
 -1.01555623E-02 -9.42170649E-02 -5.91043808E-07 -1.31486313E-01 -1.20406272E-01
  1.22188897E-01  1.63220359E-04  2.29276760E-07  2.89751550E-07  3.21573474E-03
  6.39887180E-02 -3.95678112E-01 -1.77934940E-01  1.64373691E-06 -2.76990537E-02
  8.80554885E-02  3.86590513E-02 -7.16447526E-07  1.22284932E-01  1.29982492E-01
 -1.21698545E-01 -6.04562354E-04 -8.74092480E-07  4.08332901E-07 -3.27087155E-03
 -6.42363889E-02  3.50033757E-01 -2.58357685E-01 -3.52785172E-08  2.77813611E-02
 -7.84960753E-02  5.73160191E-02 -8.53367500E-08 -1.24538806E-01 -1.28006368E-01
  1.21340572E-01 -8.06710893E-04  9.02637770E-07  5.47305680E-07  3.13986752E-03
  6.36526476E-02  4.79225681E-02  4.29490157E-01 -1.23842482E-06 -2.75873476E-02
 -1.01559404E-02 -9.42166546E-02  2.95517578E-07  1.31486055E-01  1.20405801E-01
 -1.22188593E-01 -1.62695505E-04  4.19179573E-07 -1.69140224E-07 -3.21573505E-03
 -6.39885239E-02 -3.95678419E-01 -1.77934035E-01 -1.01387607E-06  2.76989880E-02
  8.80552963E-02  3.86594193E-02  2.47899791E-07 -1.22284446E-01 -1.29982477E-01
  1.21698410E-01  6.04661531E-04 -5.08357826E-07  4.53159930E-07 -1.30417350E-01
 -1.99020094E-01  1.31520793E-01  1.95678786E-01 -1.30888353E-01 -1.97611536E-01
  1.30417062E-01  1.99019932E-01 -1.31520706E-01 -1.95678242E-01  1.30888222E-01
  1.97611327E-01  1.30507026E-07  6.35703002E-08  1.57499563E-06 -1.30659775E-06
 -1.30535873E-05 -1.56430619E-07 -2.00096186E-07  2.00318992E-07 -1.89650582E-06
  8.34875653E-07  4.85783694E-07 -1.08180792E-06  1.24877569E-06 -3.26819477E-01
 -4.46650871E-01 -2.52783491E-08 -1.54363499E-08  9.20382573E-07  4.58383051E-07
  1.12994349E-05  1.31654172E-08 -2.63793875E-07 -8.13992216E-08  1.46920264E-06
  1.88462047E-08 -1.96747287E-07  1.17951738E-07  1.22604207E-06 -5.50215809E-01
  5.97307253E-02 -8.77477403E-08 -3.78083937E-08  1.19664070E-06  1.13730970E-06
 -3.80874253E-06  9.72309732E-08 -1.64049715E-07 -2.26105321E-07 -9.04010308E-09
 -5.30183080E-07 -3.04965382E-07  6.80612137E-07  1.07156188E-06 -2.23397881E-01
  5.06369558E-01  1.10402077E-07  5.64098397E-08 -1.51526743E-06  1.33231571E-06
 -1.68008666E-06 -1.14342615E-07  1.59792753E-07 -2.34859554E-07 -5.72469811E-07
  3.64495325E-07  6.93260212E-07 -8.49846544E-07  9.44392694E-07  3.26829208E-01
  4.46645081E-01 -4.12518419E-08 -5.90257190E-08 -6.74594085E-07 -5.17565002E-07
  5.53010471E-08  7.79139989E-08  3.39397500E-07  8.96776398E-08  3.80926724E-07
 -3.34250202E-07 -2.78895391E-07  4.68521775E-07  1.08241279E-06  5.50218618E-01
 -5.97200347E-02 -8.42216304E-08  4.71287657E-09 -1.05695173E-06 -1.10861573E-06
  7.18790790E-06  8.02238415E-08 -1.07136702E-08  3.27016760E-07  6.27761223E-07
 -3.05631368E-07 -4.36798859E-07  6.79864591E-07  1.25446225E-06  2.23388703E-01
 -5.06374219E-01 -1.96297708E-08 -6.11204009E-07  3.57593669E-08  1.79478381E-07
  4.86762336E-08  4.74651926E-07 -1.55723850E-07 -5.73538726E-07 -2.42875668E-08
  2.57370717E-07  5.77346842E-08  2.95866634E-07  4.94293512E-08  6.71353253E-07
 -9.45901840E-07  1.45736017E-06 -5.11177045E-01 -2.32830051E-07 -3.57707524E-08
  8.52150926E-09  4.51396634E-01  1.84951639E-06 -8.24050350E-07  1.89218551E-07
 -1.09962354E-06 -4.13984834E-02  1.69848751E-02  3.90046880E-08 -5.03270359E-07
  5.59539223E-07 -1.33354394E-06  9.47587996E-02  1.95483697E-07 -1.09913873E-06
 -1.01706825E-06 -8.36776743E-02  1.59354571E-06 -2.80226359E-06  3.57815672E-07
 -7.12872274E-07 -1.78929197E-02 -6.15874926E-03 -6.90476053E-08  4.52468095E-07
  1.95783041E-06  1.72591934E-06  6.05934519E-01  1.52771821E-08 -4.73415783E-07
 -1.60331320E-07 -5.35071727E-01  2.46177752E-06 -1.20600201E-06 -5.68269853E-07
  8.57420703E-07 -4.96862204E-02 -1.49435882E-02  2.79571660E-08 -3.82744809E-07
 -2.17183590E-07  3.59890532E-07  5.11176390E-01  1.97776604E-07 -6.97399481E-07
  1.50641080E-07 -4.51395685E-01  1.80127033E-07 -1.04096293E-06  2.61354212E-07
  5.75424896E-07 -4.13981037E-02  1.69842293E-02  4.77132417E-08  2.58350724E-07
  7.53724771E-07 -8.32698621E-07 -9.47577285E-02 -1.51522014E-07 -8.17345600E-07
  4.79974028E-07  8.36761610E-02  3.27173709E-07 -1.62598554E-07  3.13463196E-07
  5.51795486E-07 -1.78926968E-02 -6.15768981E-03  1.19532615E-07  3.80973298E-07
  8.63640047E-07  5.06684163E-07 -6.05934942E-01 -3.03258975E-07 -4.08553185E-07
 -4.10499193E-07  5.35072296E-01  7.09227592E-07 -5.30930280E-07  6.91684079E-07
  3.99121421E-08 -4.96863352E-02 -1.49442876E-02  5.76589868E-07 -6.28900731E-07
 -1.27122164E-06  1.37233350E-06  5.12990084E-07 -1.12626221E-06 -4.34353748E-07
  7.25846364E-08  2.97708416E-07  4.30384328E-08 -3.44276376E-07 -1.63789476E-07
 -1.92817005E-08  6.79952356E-07 -1.45464614E-06  4.65869749E-07  4.04544713E-01
 -2.33726261E-07 -9.60157611E-09  2.08169770E-07 -3.57234815E-01 -1.66450745E-07
  1.53326616E-06 -2.52454832E-07 -1.09847734E-06  1.97272873E-02 -3.12537941E-02
  6.84952166E-08 -1.70290679E-07 -1.21043785E-07 -7.74825303E-07  6.44964593E-01
  1.49907337E-07  2.71525071E-08  3.22929226E-07 -5.69539198E-01 -6.27697635E-07
  1.06716604E-07  3.66364947E-07 -1.98761670E-07 -3.41224574E-03 -5.47591708E-02
 -2.33961934E-08  1.63780254E-07  1.43633895E-06  8.00797697E-08  2.40419464E-01
  3.61727459E-09 -5.17473008E-07  1.53324327E-07 -2.12303863E-01 -5.11284903E-07
  8.61402436E-07 -1.50642191E-07  5.45318154E-07 -1.21992040E-02 -2.29653228E-02
  2.90825260E-08 -6.00876442E-07 -1.49086617E-06  1.66073006E-06 -4.04545519E-01
  1.40760536E-07  8.41419608E-08  2.71163475E-07  3.57235985E-01 -2.32098167E-06
  1.04961645E-06  2.94500391E-07  1.18744873E-06  1.97282338E-02 -3.12539784E-02
 -6.69392116E-08  6.91193396E-07 -7.37395251E-07 -2.81038993E-06 -6.44964637E-01
 -1.58394565E-07 -5.25996615E-08 -5.51582037E-07  5.69539296E-01 -2.30544237E-06
  3.97379358E-06 -5.28534370E-07  2.77813175E-07 -3.41281071E-03 -5.47592760E-02
  2.49570475E-08 -8.79798508E-07  2.10376473E-06  1.26334422E-06 -2.40418426E-01
  2.39540181E-07  1.79603953E-07  8.56626019E-07  2.12302452E-01 -3.23738357E-06
  1.38625666E-06  3.50138311E-07 -1.50911630E-06 -1.21982497E-02 -2.29650698E-02
  3.87889040E-07 -2.48890830E-07 -1.60350725E-07 -6.98771237E-08  5.23248346E-07
  6.42431095E-08 -8.57687615E-07  7.51833809E-07  1.67712290E-06 -1.99526788E-06
 -1.05618116E-06  1.37595790E-06 -2.30951705E-03 -5.01111818E-02  7.45839607E-03
 -1.19632065E-01 -3.29366922E-06  1.99628928E-02  4.18267522E-03 -2.72077776E-02
  2.63710130E-06 -3.61534346E-01  2.73257470E-01 -4.16934020E-03  6.10412528E-02
 -2.62704379E-08  4.33070948E-07 -3.03161742E-03  9.56519548E-02  6.23374768E-02
  1.65442339E-01 -1.79823654E-06 -2.46462449E-02  2.35818964E-02  1.80678019E-01
  2.17580414E-06 -3.12091790E-01  5.31168850E-01 -4.74902579E-02  3.25749435E-02
  2.29010125E-07  1.22009532E-06 -2.17828748E-03 -9.50800382E-02 -9.75985748E-02
 -1.57951808E-01  9.13781579E-07  3.35345686E-02 -6.54636548E-02 -4.83490559E-02
 -7.71891092E-07 -4.61671661E-01  2.79116802E-01  8.66113266E-03 -9.57475582E-02
  3.40305558E-09  7.05528659E-07 -2.30997606E-03 -5.01110690E-02 -7.45863165E-03
  1.19634901E-01  3.21907148E-06  1.99642620E-02 -4.18522362E-03  2.72090108E-02
 -3.26054187E-06 -3.61532021E-01  2.73260250E-01 -4.17467060E-03  6.10406580E-02
 -1.96525953E-07  2.85490576E-07 -3.03170421E-03  9.56516261E-02 -6.23302328E-02
 -1.65441930E-01  2.66798629E-06 -2.46456822E-02 -2.35836982E-02 -1.80676682E-01
 -2.07583869E-06 -3.12090936E-01  5.31168400E-01 -4.74912848E-02  3.25757822E-02
 -1.67608777E-07 -3.08050266E-07 -2.17811587E-03 -9.50796381E-02  9.75985922E-02
  1.57945495E-01 -9.48780408E-07  3.35336163E-02  6.54610916E-02  4.83497915E-02
  8.41607259E-07 -4.61671283E-01  2.79114780E-01  8.66356618E-03 -9.57474761E-02
 -3.07939201E-07 -2.90043125E-07 -7.05630821E-03  7.84755206E-02  1.42050963E-01
 -2.47002321E-01 -5.43705979E-02  1.74687668E-01 -7.06576517E-03  7.84785625E-02
  1.42047744E-01 -2.47000995E-01 -5.43642813E-02  1.74685440E-01 -1.92125105E-02
  1.36964417E-01 -1.62783245E-01  2.20491813E-01 -1.37843124E-07 -2.72160388E-02
 -6.10097262E-02  3.63789219E-02  7.18876974E-08  2.93609051E-01  9.28488672E-02
 -1.90048793E-01 -2.77279813E-01 -7.85945590E-09 -3.40466021E-07  3.52439572E-03
 -1.23366832E-01 -8.63130382E-02 -2.07628660E-01 -3.33049223E-06  4.86193548E-02
 -1.46630455E-02 -1.66481376E-01  2.61614273E-06  2.09595077E-01 -4.92064137E-01
  7.89310228E-02 -7.12118334E-02 -2.33899131E-07 -6.26032714E-07 -1.27523814E-02
  1.29882401E-01  1.60976989E-01  2.29927840E-01 -2.69102529E-06 -3.55382249E-02
  1.04527104E-01  3.48773512E-02  2.34062911E-06  4.01456773E-01 -6.03830375E-02
 -1.44205939E-01  2.26957723E-01 -4.24289858E-08 -4.01868857E-07  1.92124195E-02
 -1.36965431E-01 -1.62781746E-01  2.20497251E-01  1.63919128E-07  2.72167601E-02
 -6.10093491E-02  3.63786881E-02 -1.56438516E-07 -2.93609632E-01 -9.28492823E-02
  1.90047951E-01  2.77280530E-01 -1.87893076E-08 -1.79306612E-07 -3.52443025E-03
  1.23366537E-01 -8.63095059E-02 -2.07628841E-01  3.34576095E-06 -4.86188695E-02
 -1.46637740E-02 -1.66482756E-01 -2.73508508E-06 -2.09597339E-01  4.92066479E-01
 -7.89315815E-02  7.12112633E-02 -2.36483016E-08 -1.24822760E-07  1.27520969E-02
 -1.29882920E-01  1.60978351E-01  2.29924881E-01  3.01741142E-06  3.55388524E-02
  1.04526853E-01  3.48773751E-02 -2.66068045E-06 -4.01460144E-01  6.03862975E-02
  1.44204729E-01 -2.26958156E-01 -3.64731974E-08 -3.66180294E-07  9.35960340E-04
 -1.39810197E-01 -1.85759055E-01  2.51334278E-01  7.40408386E-02 -1.85453083E-01
 -9.36946391E-04  1.39811155E-01  1.85759480E-01 -2.51334973E-01 -7.40407002E-02
  1.85454282E-01  4.34641758E-02  2.06357187E-01 -1.65641333E-01  1.14733201E-01
  2.82764961E-07 -1.89129582E-01  2.78479004E-01 -1.67304940E-01 -2.94685182E-07
  1.04808271E-01  4.38095010E-02  2.54486942E-01 -2.04420965E-01 -2.85429763E-07
  1.05173368E-07  4.79426396E-02  2.74901056E-01  3.27693450E-02  3.07267204E-01
 -8.11940638E-07 -2.07027393E-01 -9.28819343E-03 -2.86119854E-01  1.13242913E-06
 -3.64810460E-02  2.94215291E-01  2.68429428E-01  5.25054040E-02  7.01160010E-08
 -2.21300872E-07  4.52480923E-02  2.31768712E-01  2.22845875E-01  9.09221189E-02
  1.21558927E-07 -1.95549072E-01 -3.06264829E-01 -7.93314613E-02 -6.74290956E-09
  1.80237960E-01  8.23905789E-03  2.60277348E-01  1.65651075E-01  5.43666925E-08
 -1.66489357E-07  4.34642058E-02  2.06356883E-01  1.65634760E-01 -1.14740353E-01
 -1.43214156E-07 -1.89129496E-01 -2.78473776E-01  1.67311787E-01  2.70257587E-07
  1.04810708E-01  4.38064100E-02  2.54487203E-01 -2.04419439E-01 -1.41462657E-07
  2.02418117E-07  4.79425755E-02  2.74901419E-01 -3.27607955E-02 -3.07268688E-01
 -3.20800407E-07 -2.07027394E-01  9.27991800E-03  2.86120803E-01  5.28415304E-07
 -3.64810800E-02  2.94216433E-01  2.68428781E-01  5.25065962E-02 -4.71083468E-08
 -7.98952007E-08  4.52480880E-02  2.31768310E-01 -2.22848551E-01 -9.09140865E-02
  9.96372729E-07 -1.95548852E-01  3.06268873E-01  7.93243424E-02 -1.05531254E-06
  1.80235312E-01  8.24101582E-03  2.60277322E-01  1.65651968E-01  1.73596979E-07
  2.45945123E-07 -1.74629582E-01 -1.05881505E-01 -5.29268758E-02 -1.52578356E-01
 -1.28711447E-01 -1.17781335E-01 -1.74629739E-01 -1.05881304E-01 -5.29273141E-02
 -1.52578697E-01 -1.28712664E-01 -1.17780486E-01  4.72325926E-02  5.40818785E-02
 -3.51672161E-02  2.15429486E-01  4.47428234E-07 -1.34448072E-01 -2.29680792E-01
 -4.67516942E-02 -6.52233567E-07 -1.12137563E-01 -1.67078288E-02  2.96698046E-01
  1.92528454E-01  4.03857299E-07 -1.50621066E-07  4.95534860E-03 -8.88376494E-03
  1.16818015E-01 -1.98134149E-02 -4.06560078E-07 -7.78449388E-03 -1.40420107E-01
  1.85408261E-02  6.40946358E-07  1.22965608E-02 -5.38067281E-02  3.63130771E-02
  2.90354257E-02  4.16232673E-07  1.53256502E-07 -4.70063466E-02 -1.73704360E-02
 -2.73795587E-02 -1.72610127E-01  7.27169094E-08  1.19351291E-01 -1.99304765E-01
  1.32164622E-01  6.09745356E-07  2.06367169E-01 -1.08545810E-02 -3.05562622E-01
  1.58213998E-01 -1.23659007E-06 -4.93509043E-07 -4.72298572E-02 -5.40781751E-02
 -3.51714709E-02  2.15412366E-01  7.69778065E-08  1.34439592E-01 -2.29669460E-01
 -4.67436266E-02  3.92913041E-07  1.12140256E-01  1.66993122E-02 -2.96681460E-01
 -1.92521769E-01 -4.75763845E-07  4.19774311E-07 -4.95665776E-03  8.88417921E-03
  1.16817060E-01 -1.98150164E-02  2.42207945E-07  7.78165583E-03 -1.40418818E-01
  1.85468709E-02 -3.17224180E-07 -1.22886851E-02  5.38050785E-02 -3.63212597E-02
 -2.90360170E-02  2.33131182E-07 -1.17423865E-07  4.70090041E-02  1.73736274E-02
 -2.73805608E-02 -1.72625474E-01  1.48018195E-07 -1.19359514E-01 -1.99314082E-01
  1.32175446E-01 -6.72795627E-07 -2.06367358E-01  1.08484548E-02  3.05578799E-01
 -1.58220467E-01 -9.68440007E-07 -4.62742392E-07  6.72964111E-01 -1.99245130E-01
  4.19754620E-02  1.17857980E-03 -5.99584632E-01  1.55757271E-01 -6.72936436E-01
  1.99234392E-01 -4.19805654E-02 -1.17809265E-03  5.99611665E-01 -1.55768228E-01
 -2.12508808E-02 -4.69325112E-02  2.45625260E-01  1.53937189E-01  3.84814287E-07
  7.09806712E-02 -7.85102105E-02 -2.52626172E-01 -4.45391348E-07 -5.11242322E-03
  1.96243973E-02 -1.25068855E-01 -9.64971556E-02 -2.20717185E-07 -1.26849724E-07
 -5.91037627E-02  6.25347747E-03 -1.83431066E-02 -7.34118750E-02  4.04252141E-07
  1.42503262E-01  3.00599166E-02 -1.39123766E-01 -4.71204388E-07 -5.93859897E-02
  3.52190342E-01 -3.87494369E-01  7.87689854E-02  1.52204754E-07  4.35047210E-07
 -2.78527945E-02 -4.21760647E-02 -1.58168501E-01  9.07708341E-02  7.07035486E-07
  8.61121634E-02 -4.17124771E-02 -1.55136985E-01 -3.74387094E-07  4.75115568E-02
  5.53253806E-03 -1.67921839E-01  1.16694284E-01 -6.84642907E-07 -7.36066163E-07
  2.12837063E-02  4.69767858E-02  2.45715655E-01  1.53857432E-01 -7.12309208E-07
 -7.11080999E-02 -7.84274535E-02 -2.52642700E-01  8.62379202E-07  5.04458676E-03
 -1.96297409E-02  1.25271110E-01  9.66432683E-02  4.97117479E-07 -4.67834212E-07
  5.91185338E-02 -6.25609165E-03 -1.83875245E-02 -7.34622251E-02  2.04338160E-07
 -1.42601207E-01  3.01079337E-02 -1.39161313E-01  1.23224673E-07  5.94136246E-02
 -3.52291372E-01  3.87589311E-01 -7.88043059E-02  2.51631827E-07  1.46801023E-06
  2.78731857E-02  4.21992970E-02 -1.58230568E-01  9.06883452E-02 -5.84611456E-07
 -8.62210901E-02 -4.17905001E-02 -1.55076254E-01  3.71687021E-07 -4.75911961E-02
 -5.50721362E-03  1.68048855E-01 -1.16804742E-01 -6.01360336E-07 -4.85136946E-07
 -3.43032977E-01  1.18021131E-01 -6.91577566E-01  1.66530451E-01 -4.13369969E-01
  1.39235640E-01  3.43508031E-01 -1.18186309E-01  6.91859000E-01 -1.66647799E-01
  4.13727387E-01 -1.39368519E-01  4.32019104E-02  6.32289184E-02 -1.21413366E-01
  1.28575759E-01  4.65562791E-08 -1.78272415E-01 -1.23300679E-01  8.99020427E-03
 -1.37984140E-07 -8.45705365E-02 -4.17530026E-03  2.66325424E-01  2.15388541E-01
  2.61931036E-07 -2.64022896E-07  2.08751141E-02 -6.55147642E-03  3.44373165E-02
  7.33175572E-02  2.46532948E-07 -1.39890741E-01 -4.45710777E-02  5.26018422E-02
 -2.93035621E-07  4.09255012E-02 -1.49587825E-01  1.34608797E-01 -4.41524039E-02
 -1.49395226E-08 -1.28685173E-07  3.33659811E-02  3.23426131E-02  9.54737347E-02
  1.06515660E-01 -6.71105635E-07 -1.61189680E-01  1.18192318E-01 -7.41728123E-02
  1.30370545E-07 -1.27756448E-01  3.00308252E-02  2.08203422E-01 -1.59470226E-01
  9.48079457E-07  4.93274723E-07  4.31890296E-02  6.31981736E-02  1.21247981E-01
 -1.28685954E-01 -2.69269946E-07 -1.78228278E-01  1.23361086E-01 -8.81602251E-03
 -5.66886577E-08 -8.45829541E-02 -4.15845343E-03  2.66250422E-01  2.15328098E-01
  6.52061940E-07 -3.60275473E-07  2.08342468E-02 -6.54754616E-03 -3.44324778E-02
 -7.32650900E-02  4.22751723E-07 -1.39791899E-01  4.45604062E-02 -5.25070336E-02
 -3.85449216E-07  4.08832707E-02 -1.49343690E-01  1.34340851E-01 -4.40985004E-02
  9.34438252E-08  8.67197407E-07  3.33447951E-02  3.23120163E-02 -9.53605569E-02
 -1.06574576E-01 -5.94132678E-07 -1.61124860E-01 -1.18157830E-01  7.42793259E-02
  4.06240214E-07 -1.27712957E-01  3.00308859E-02  2.08074869E-01 -1.59384123E-01
 -9.64485229E-07 -4.81628397E-07  6.62590564E-01 -2.31085050E-01  4.05233930E-01
 -1.67948739E-01  5.48487913E-01 -2.00680976E-01  6.62378427E-01 -2.31010511E-01
  4.04754885E-01 -1.67833281E-01  5.48176595E-01 -2.00577789E-01 -5.05608765E-02
 -1.70384828E-02  2.00130306E-01  2.50367945E-01  5.81736145E-07  6.15416327E-02
 -1.08444241E-01 -2.92487026E-01 -7.95138049E-07  1.44030123E-01  5.54283273E-02
 -3.23168519E-01 -8.36767300E-02  3.06900129E-08 -3.02700007E-08 -1.50637320E-02
 -6.89499301E-03 -3.50758976E-01  3.79862749E-02  3.01897076E-07  1.51628942E-02
  4.18493241E-01 -6.20067162E-02 -5.01643942E-07  1.46340698E-02  4.15947649E-02
 -9.56139586E-02  1.01438657E-01  1.63097010E-08 -7.93317422E-08  6.86031206E-02
  1.72196801E-02  8.88221779E-02 -1.40759497E-01 -9.07255558E-07 -9.20291761E-02
  6.69412680E-02  1.60978771E-01  7.97859530E-07 -2.44831442E-01 -3.52812778E-02
  4.38787815E-01 -1.21910383E-01  1.52728722E-06  6.74537123E-07 -5.05598429E-02
 -1.70348884E-02 -2.00118456E-01 -2.50366723E-01  9.24943249E-07  6.15375525E-02
  1.08440409E-01  2.92476164E-01 -1.08080155E-06  1.44028290E-01  5.54303774E-02
 -3.23161442E-01 -8.36676064E-02 -5.83781645E-07  3.76374693E-07 -1.50613523E-02
 -6.89432799E-03  3.50756520E-01 -3.79924507E-02  1.76095026E-07  1.51566335E-02
 -4.18488212E-01  6.20020973E-02 -2.28979893E-07  1.46384265E-02  4.15787146E-02
 -9.55970828E-02  1.01433904E-01 -1.34723446E-07 -2.22451305E-07  6.86036352E-02
  1.72218156E-02 -8.88267262E-02  1.40758581E-01 -9.85431921E-07 -9.20316872E-02
 -6.69411641E-02 -1.60984349E-01  9.07720392E-07 -2.44832910E-01 -3.52791006E-02
  4.38791223E-01 -1.21914920E-01 -1.11841804E-06 -4.38195015E-07 -3.88808358E-01
  9.84050959E-02 -9.85986223E-02  1.62942206E-02  5.75272434E-01 -1.39525355E-01
 -3.88786211E-01  9.83977609E-02 -9.85670957E-02  1.62855426E-02  5.75284150E-01
 -1.39529449E-01 -4.39862816E-02 -7.75547474E-03 -2.02389826E-01 -2.38608600E-01
 -6.39196539E-07  3.90321375E-02  2.18640234E-01  2.26442845E-01  5.85018167E-07
  8.58768808E-02  9.96849507E-02 -2.82143690E-01 -4.79899053E-02  1.85780998E-07
  1.19372581E-07  7.28086410E-02 -1.50111621E-02 -1.01375868E-01  1.03946082E-02
  2.37238115E-07 -1.04313230E-01  1.01342495E-01  1.33559206E-01 -5.55419273E-07
  8.98633947E-03 -3.61412828E-01  4.70176272E-01 -3.49893083E-02 -1.43577010E-07
 -6.12160991E-07 -1.73131131E-02 -9.56719215E-03  1.73402805E-01 -3.45516840E-01
 -5.21793144E-07  5.70119569E-03 -1.56021918E-01  3.66948469E-01  5.64645189E-07
  3.11122522E-03  5.90582504E-02 -1.09752065E-01  3.54763181E-02 -2.55240021E-07
  5.65100010E-08 -4.39870308E-02 -7.75782602E-03  2.02395152E-01  2.38626962E-01
 -4.17318305E-07  3.90349002E-02 -2.18657521E-01 -2.26462829E-01  6.93111418E-07
  8.58708488E-02  9.96919100E-02 -2.82149527E-01 -4.80001033E-02 -1.64942854E-07
  5.88660948E-08  7.28085707E-02 -1.50108962E-02  1.01354486E-01 -1.03928348E-02
  7.00404899E-07 -1.04313296E-01 -1.01323751E-01 -1.33561097E-01 -6.17052197E-07
  8.98614730E-03 -3.61412439E-01  4.70176305E-01 -3.49947857E-02  9.56206699E-08
  1.40459734E-06 -1.73122441E-02 -9.56494992E-03 -1.73401087E-01  3.45498399E-01
 -5.00900468E-07  5.69800528E-03  1.56008760E-01 -3.66925640E-01  6.24978114E-07
  3.11264169E-03  5.90547386E-02 -1.09745086E-01  3.54645072E-02  7.44323582E-08
 -1.71016048E-08 -2.43891413E-01  5.29949516E-02  6.46680265E-01 -1.49235466E-01
 -3.76220705E-02 -4.01145189E-03 -2.43908292E-01  5.30003518E-02  6.46681367E-01
 -1.49235993E-01 -3.76045726E-02 -4.01741241E-03 -3.86325638E-03 -1.24238157E-02
  2.74768892E-01  3.27912103E-01 -4.34421134E-07  1.39619177E-02 -2.80765522E-01
 -3.99903912E-01  6.54399604E-07  1.69737408E-01 -1.72167766E-01 -2.31664315E-02
  1.91516111E-02  7.03667671E-08  1.38994204E-07  5.58596275E-03  3.51649497E-03
 -3.78700504E-01  5.64682224E-02 -1.50986001E-07 -1.61208168E-02  5.68194584E-01
 -5.29491792E-02  1.58700274E-07  5.79922265E-02 -7.73967382E-02  3.47127163E-02
  1.89377151E-01  4.67855648E-07 -1.24289183E-07  8.84230963E-03  2.14565499E-02
  2.24937116E-01 -3.83763929E-01  2.07377645E-07 -3.07074105E-02 -1.95360651E-01
  4.93893266E-01 -4.57206425E-07 -1.61288805E-01  1.56914925E-01  5.24683084E-02
  6.38040654E-02  3.72633209E-07 -9.74522096E-08  3.86615237E-03  1.24274555E-02
  2.74760688E-01  3.27904331E-01  5.17038262E-07 -1.39673443E-02 -2.80763672E-01
 -3.99893885E-01 -7.97996001E-07 -1.69739345E-01  1.72164588E-01  2.31827851E-02
 -1.91575018E-02  4.21250305E-10 -2.57159905E-08 -5.58774594E-03 -3.50861551E-03
 -3.78705559E-01  5.64635940E-02  2.54400974E-08  1.61204609E-02  5.68199884E-01
 -5.29389864E-02 -4.83291098E-08 -5.79917197E-02  7.74187836E-02 -3.47267829E-02
 -1.89374877E-01  2.30870766E-07 -2.06645922E-07 -8.84083232E-03 -2.14524419E-02
  2.24943807E-01 -3.83779176E-01 -2.41161959E-07  3.07039471E-02 -1.95359326E-01
  4.93908718E-01  4.61779757E-07  1.61293522E-01 -1.56917671E-01 -5.24611221E-02
 -6.37978089E-02  2.69532956E-07 -8.11428125E-09 -6.33430742E-02  1.19231426E-02
  6.62646048E-02 -1.34386786E-02  1.33054474E-01 -2.96328396E-02  6.33429585E-02
 -1.19243040E-02 -6.62945901E-02  1.34440137E-02 -1.33063744E-01  2.96338815E-02
 -1.97804164E-02  2.48687437E-01 -2.09488508E-01  2.10518240E-01 -3.43675070E-07
 -1.15142259E-02  5.37265435E-02  1.12337479E-01  6.75384971E-07  1.02741285E-01
  3.23138179E-01 -1.50142077E-01  2.57809406E-01  1.61914222E-07  1.07958321E-07
 -1.02032275E-02  1.34909250E-01 -5.65947958E-01  2.16985879E-01  3.06606709E-07
 -6.20643461E-03 -1.30507267E-01  1.86355849E-02  3.03105660E-07  1.69900363E-01
  5.99589987E-02 -7.92903817E-02 -4.95822403E-01 -1.82652700E-06  4.99217771E-07
  3.00897707E-02 -3.79386420E-01 -4.79608987E-01 -2.27647486E-02  1.29927421E-06
  1.70120566E-02 -2.37542511E-02 -2.91988782E-02 -8.47042833E-07 -1.34755106E-01
 -5.15374337E-01  2.29444465E-01  4.26354068E-01  1.61598494E-07 -4.58969534E-07
 -1.97749093E-02  2.48698531E-01  2.09542240E-01 -2.10527472E-01 -2.95712257E-07
 -1.15206131E-02 -5.36713171E-02 -1.12376339E-01  8.23956582E-07  1.02754878E-01
  3.23113359E-01 -1.50099480E-01  2.57825908E-01  3.87884149E-08 -4.06906652E-07
 -1.02191431E-02  1.34990830E-01  5.66185636E-01 -2.17116868E-01  4.45583704E-07
 -6.19258459E-03  1.30486353E-01 -1.86129869E-02  1.54117046E-07  1.70030548E-01
  6.00011206E-02 -7.93949303E-02 -4.96028953E-01  1.30707902E-06 -3.58680554E-07
  3.01088241E-02 -3.79477367E-01  4.79797616E-01  2.26231885E-02  1.12164380E-06
  1.69885460E-02  2.37415765E-02  2.91924652E-02 -7.54301466E-07 -1.34919272E-01
 -5.15408866E-01  2.29569592E-01  4.26542025E-01 -2.28891664E-07  4.47889594E-07
  1.33785525E-01 -3.61655591E-02  6.31487612E-02 -3.64350837E-03 -2.09793322E-01
  4.17975020E-02  1.33925383E-01 -3.62580517E-02  6.31166057E-02 -3.60111265E-03
 -2.09751267E-01  4.17576049E-02 -1.53766782E-02 -1.83159290E-02  1.59942492E-01
  4.45192173E-02 -2.05784649E-08  1.75088470E-02  1.38065103E-01 -9.94200651E-02
  2.22358822E-07 -8.66095105E-02  1.30321197E-01 -1.14336632E-01 -6.37916088E-02
 -3.89968161E-08  3.78854668E-07  3.79406325E-02 -1.82234963E-01  6.02071127E-01
 -2.88108538E-01 -4.49862606E-07 -3.95951027E-02 -5.18077219E-02  8.01386615E-02
 -2.41763478E-07 -2.73243397E-01 -1.23862994E-01  2.55735814E-01  5.08795584E-01
  1.15020563E-06 -6.01443009E-07 -4.91135599E-02  2.38405637E-01  4.64306838E-01
 -2.86244172E-01 -6.44636677E-07  6.25046350E-02 -3.37280217E-02 -1.50126734E-02
 -1.22217778E-07  3.69172915E-01  1.42970706E-01 -3.21745055E-01 -4.25515965E-01
 -1.15573575E-06  6.02187117E-07  1.53899277E-02  1.81330289E-02  1.59763776E-01
  4.46267322E-02 -3.88266669E-07 -1.74983997E-02  1.38066473E-01 -9.94019496E-02
  3.90266953E-07  8.64959623E-02 -1.30512042E-01  1.14438225E-01  6.35934088E-02
  4.55048790E-07  8.91374253E-08 -3.79428871E-02  1.82262432E-01  6.01804335E-01
 -2.88117775E-01  4.65292161E-07  3.95927250E-02 -5.18744339E-02  8.01343148E-02
 -7.79827919E-08  2.73357819E-01  1.23792247E-01 -2.55749958E-01 -5.08600891E-01
  9.94652873E-07 -6.18485042E-07  4.91019706E-02 -2.38266933E-01  4.64161099E-01
 -2.86333031E-01  5.26320444E-07 -6.25092591E-02 -3.37263650E-02 -1.50702402E-02
  1.13939194E-08 -3.69181074E-01 -1.42723668E-01  3.21656779E-01  4.25405670E-01
 -9.15671641E-07  6.59483754E-07 -3.55180041E-01  2.42132977E-01  1.42296397E-01
 -1.36876838E-01 -1.06526870E-01  1.05125288E-01  3.55092104E-01 -2.42110926E-01
 -1.42252511E-01  1.36870841E-01  1.06620055E-01 -1.05148668E-01  6.09304870E-02
 -2.35251903E-01  3.43344809E-01 -4.55521543E-02  4.40492519E-07 -9.24480145E-02
 -8.07517032E-02  6.86700890E-02  1.33946650E-07 -3.44021919E-01 -1.94480413E-01
  3.89851103E-01 -2.37431986E-01 -8.18491103E-07 -4.75063069E-07 -4.16651023E-02
  1.25048834E-01  4.81611803E-01  7.66674805E-02  2.25329204E-07  5.60002539E-02
 -7.36477189E-02 -1.68263982E-01  7.02908985E-08  3.29048336E-01 -4.09866920E-03
 -2.75804389E-01  3.33822989E-01  7.93398053E-07  1.39498465E-07  3.33180687E-02
 -4.73867411E-02  1.06156323E-01 -2.44949690E-01 -4.23900185E-07 -4.85392146E-02
  1.87461554E-01  1.00798786E-01  2.66430777E-07  7.85986706E-02 -2.69928099E-01
  2.23632297E-01 -1.45678858E-01  6.58994897E-07  3.07143468E-07 -6.09127432E-02
  2.34985093E-01  3.43004591E-01 -4.55257072E-02 -7.13425272E-08  9.24653448E-02
 -8.08127169E-02  6.85895807E-02  6.18209230E-08  3.43749398E-01  1.94321027E-01
 -3.89713347E-01  2.37117729E-01 -6.14745432E-07 -2.31061969E-07  4.16432826E-02
 -1.24763110E-01  4.81466052E-01  7.63372318E-02  2.91957901E-07 -5.60145148E-02
 -7.36916553E-02 -1.68303517E-01 -2.91810137E-07 -3.28427123E-01  3.94893676E-03
  2.75641243E-01 -3.33818667E-01  4.48366384E-07  3.89571147E-07 -3.33154746E-02
  4.73213503E-02  1.06323086E-01 -2.45192083E-01  5.54018298E-07  4.85458994E-02
  1.87497889E-01  1.00661118E-01 -4.68135654E-07 -7.87827280E-02  2.70012939E-01
 -2.23608889E-01  1.45875197E-01  4.61313020E-07  1.70996937E-07  2.74144076E-01
 -2.30013054E-01 -3.64849948E-01  2.95874544E-01  4.52236468E-01 -3.38844805E-01
 -2.74249922E-01  2.30037519E-01  3.65072516E-01 -2.95905973E-01 -4.52218714E-01
  3.38831563E-01  2.23683936E-02 -3.36925175E-01  4.20210657E-01 -4.55049601E-02
  3.71592088E-07  2.14065118E-02  7.39178790E-02  9.51495387E-02  5.00082515E-07
 -3.24731846E-01 -2.18906006E-01  1.74205746E-01 -3.90173211E-01 -9.16012029E-07
 -5.71113923E-07 -2.77365485E-02  3.63070881E-01  1.60714225E-01  4.20969318E-01
  1.51051352E-06 -1.68647606E-02  5.67164700E-02  4.96625888E-02 -1.20396599E-06
  7.77329356E-01 -1.78144828E-01 -2.09449193E-01 -1.48763178E-02  5.14867709E-07
  3.00943300E-07  3.60531627E-03 -8.34189066E-02 -2.22879108E-01  3.30231809E-01
  5.85748725E-08  7.42076429E-03 -4.38634255E-02  1.66887346E-01  8.25747592E-07
 -2.49693748E-01  1.21037775E-01  3.29436263E-02  2.60604919E-01  8.43111561E-07
 -1.05645991E-06  2.24134737E-02 -3.37117845E-01 -4.20506743E-01  4.55566030E-02
  8.77543377E-08  2.13351587E-02 -7.38843259E-02 -9.51794946E-02  5.92207272E-07
 -3.24997296E-01 -2.19060252E-01  1.74490950E-01 -3.90366852E-01  3.55758162E-07
  3.24609672E-07 -2.77596501E-02  3.63115213E-01 -1.61234096E-01 -4.20943298E-01
  1.30514312E-06 -1.68294335E-02 -5.66460513E-02 -4.95398393E-02 -1.17866315E-06
  7.77501030E-01 -1.78170777E-01 -2.09602007E-01 -1.44935334E-02 -6.35490519E-08
  1.88604249E-07  3.62093996E-03 -8.34030364E-02  2.22679526E-01 -3.29935838E-01
  2.51820153E-08  7.39685455E-03  4.37262534E-02 -1.66968176E-01  8.97565520E-07
 -2.49530217E-01  1.20838172E-01  3.30475542E-02  2.60372944E-01 -7.01268333E-07
  6.80638856E-07 -1.34718195E-01  3.30109706E-02  2.75298253E-01 -4.23768375E-02
  2.44451397E-02 -1.52574845E-02 -1.34583010E-01  3.28849718E-02  2.75021446E-01
 -4.21628023E-02  2.47754264E-02 -1.55026807E-02 -7.68474400E-03  9.26201383E-03
  3.72165736E-01  5.91216249E-01  7.87815236E-07  2.13195847E-02 -1.15519660E-02
 -6.30034819E-02 -7.34164309E-07 -4.96445820E-01  5.24922681E-01 -3.93948931E-02
 -2.10231094E-01 -4.80362827E-07 -2.02286008E-07 -1.89075447E-02  2.15274573E-01
  2.31122129E-01  3.07153944E-01  2.26423205E-07  1.25834116E-02 -1.94692014E-02
  1.50277716E-01  1.14708822E-06  4.58443957E-01 -1.28712126E-01 -1.16150428E-01
  8.45930094E-02  4.07672128E-07  6.26591043E-07 -1.93511609E-02  8.51839380E-02
 -5.10312411E-02  5.56286073E-01  2.48196370E-07  4.26027699E-02  4.27269785E-02
 -4.45428708E-02 -6.36781864E-07 -2.41523683E-01  3.98400219E-01 -1.05689430E-01
  2.47831465E-01  1.01915598E-07 -5.68563071E-07  7.68236981E-03 -9.22887891E-03
  3.72205348E-01  5.91209018E-01 -1.75468049E-07 -2.13197986E-02 -1.15474121E-02
 -6.30036818E-02 -4.80735700E-07  4.96477150E-01 -5.24901084E-01  3.93748156E-02
  2.10267412E-01 -4.20858613E-07 -4.57102781E-08  1.89086417E-02 -2.15289776E-01
  2.31176496E-01  3.07165803E-01 -1.13276582E-06 -1.25829801E-02 -1.94702875E-02
  1.50281026E-01  1.30380114E-06 -4.58481037E-01  1.28725290E-01  1.16159336E-01
 -8.46225111E-02  6.45078221E-08 -2.77932826E-07  1.93523579E-02 -8.51992471E-02
 -5.10187211E-02  5.56303983E-01  1.63483487E-07 -4.26030438E-02  4.27298065E-02
 -4.45388969E-02 -5.03373007E-07  2.41523813E-01 -3.98426146E-01  1.05700054E-01
 -2.47820852E-01  3.87124860E-07 -5.80029048E-07 -6.36615432E-02  5.87154739E-02
  3.63979998E-01 -2.29309465E-01  3.29133898E-02 -3.60559207E-03  6.36757385E-02
 -5.87253184E-02 -3.63991794E-01  2.29313710E-01 -3.29243205E-02  3.61268227E-03
  1.08687531E-07  6.00955027E-07 -3.01741938E-07  9.39198964E-07 -4.12751908E-01
 -2.19159311E-07  7.62128747E-07  3.60710825E-07  1.01793408E+00 -1.09679888E-06
  1.95149704E-06  1.40104646E-07 -1.37153223E-07 -1.40052025E-01  1.48192219E-02
  1.01643636E-07  7.84695327E-07  1.17203960E-06  2.48587063E-07  4.12055156E-01
  7.34881311E-08 -1.12776352E-06 -8.17421048E-07 -1.01621609E+00 -1.31396925E-08
  1.45648412E-06 -2.47829043E-07  7.04782698E-07 -8.38079440E-02 -1.13186698E-01
  9.50791080E-08  5.27822345E-08  7.59650264E-07 -1.33581636E-06  6.95225317E-04
 -4.57268542E-07 -5.08488251E-07  1.55110567E-06 -1.71504687E-03 -3.99273194E-08
 -2.27972741E-08  3.87989825E-07 -2.79011791E-07  5.70688852E-02 -1.29866980E-01
  3.17895380E-08  6.56248462E-07  1.70954971E-07  4.92968950E-07 -4.12752155E-01
 -7.33535607E-07 -5.83116236E-08 -1.14458263E-06  1.01793527E+00 -3.02724923E-07
  1.10442677E-06 -2.33292065E-08 -7.46769794E-08  1.40052835E-01 -1.48182006E-02
  4.61226206E-08  4.60806813E-07 -1.01151577E-06  1.10354791E-06  4.12055484E-01
 -3.96015235E-07  1.14728991E-06  8.57032696E-08 -1.01621745E+00 -1.05511033E-06
  1.91281068E-06 -2.61147842E-07  8.34061271E-07  8.38092338E-02  1.13186596E-01
  1.16416430E-07  4.76414958E-09 -9.57885950E-07  2.22648506E-06  6.96240326E-04
 -5.17228864E-07  4.56460867E-07 -1.42879881E-06 -1.71852399E-03  5.15374968E-07
 -6.74785147E-07  4.88870303E-07 -9.27029609E-07 -5.70687244E-02  1.29867045E-01
  7.37318467E-07 -8.42868369E-07 -2.07128976E-06  1.47547503E-06  1.19092779E-06
 -1.32722642E-06 -2.37012396E-07  1.61534397E-07 -3.68384382E-06  2.88524468E-06
  1.20401065E-06 -1.35560487E-06  9.91335473E-08  3.43819222E-07 -8.78943073E-07
 -5.16863827E-07  2.37497996E-01 -8.98049201E-07 -5.58059646E-07  4.39273075E-07
 -5.85724658E-01  8.29812114E-07 -6.48843506E-07  4.77728707E-07  1.25708735E-06
 -1.60599747E-02 -1.40603223E-01  1.14223404E-07  2.35658105E-07 -2.65858686E-06
  2.68494860E-07  2.38704325E-01 -2.86567944E-07  2.79814149E-06 -1.11105355E-06
 -5.88698819E-01 -6.48732802E-07  1.05844787E-06  1.87222004E-07 -2.90265414E-07
  1.14429616E-01 -8.32590474E-02  7.24111690E-08  1.79877343E-06 -5.22204003E-07
  7.99462376E-07 -4.76201694E-01 -8.57112805E-07  4.49311722E-08  6.42027484E-07
  1.17442068E+00  7.02404612E-07  1.93335157E-06 -4.67058130E-07  1.78586454E-06
  1.28626141E-01  5.65184448E-02  1.40412638E-07 -1.38508564E-07  1.30643094E-06
  1.12380435E-06  2.37497322E-01 -5.67653211E-07  6.31479870E-08  4.86854433E-07
 -5.85722135E-01  1.48665524E-06 -1.94561600E-06  7.11010184E-07  1.03106765E-06
  1.60596011E-02  1.40602551E-01  1.24860319E-07  4.66437409E-07  2.81862296E-06
  1.22707654E-07  2.38703576E-01 -7.26055625E-07 -2.34083894E-06  3.38240803E-07
 -5.88696119E-01 -3.75034985E-07  9.95259653E-07  2.30830823E-07 -6.96560306E-07
 -1.14428874E-01  8.32588378E-02  4.95078981E-08  9.03772942E-07  6.78988082E-07
  7.39695248E-09 -4.76201611E-01 -6.68464549E-07  5.21254928E-07 -5.40306189E-07
  1.17442052E+00  8.30016315E-07  5.80909217E-07 -3.28459010E-07  1.84096457E-06
 -1.28625544E-01 -5.65198027E-02  2.56069150E-06 -2.58910703E-06 -1.17402182E-06
  5.72649462E-07 -3.48503530E-06  3.05357704E-06  2.18576461E-06 -2.41751250E-06
 -1.11108110E-06  6.26270390E-07 -3.67767104E-06  2.98844232E-06 -5.06852765E-03
  7.83227064E-02  3.35705088E-01  6.00176116E-01  1.51782003E-06 -6.21419929E-03
 -5.61149800E-03  2.15221328E-02 -2.49379067E-06 -5.24467820E-01  6.26184701E-01
 -3.39478839E-02 -8.84907981E-02 -4.75859472E-07 -3.26790621E-07 -3.54271482E-03
  6.35668192E-02  4.71453164E-01  1.30389554E-02  2.33697526E-08 -5.24689946E-03
 -5.73714587E-02  1.24425004E-02  2.77993637E-07  2.07108654E-01 -1.24938232E-01
 -2.55865067E-02  4.25802584E-01  9.38325831E-07 -3.09258276E-08  8.59824434E-03
 -1.42275253E-01  1.05245814E-01 -6.03619395E-01 -8.71420624E-07  1.15919587E-02
 -3.51246673E-02  2.25911660E-02  2.23120283E-06  3.98254961E-01 -5.82553334E-01
  5.95027336E-02 -2.30227688E-01 -4.27784649E-07  6.47198401E-07 -5.06941523E-03
  7.83484932E-02 -3.35696992E-01 -6.00196359E-01  1.34760172E-06 -6.21971184E-03
  5.64163944E-03 -2.15364251E-02 -2.37570950E-06 -5.24484286E-01  6.26231921E-01
 -3.39519835E-02 -8.84214914E-02  2.32941958E-07 -3.12846965E-08 -3.54456623E-03
  6.35404480E-02 -4.71452574E-01 -1.30243176E-02 -8.61904130E-08 -5.23172345E-03
  5.73716998E-02 -1.24209685E-02  1.78332394E-07  2.07026064E-01 -1.24882320E-01
 -2.55946066E-02  4.25817469E-01 -6.85779575E-07  2.30031955E-07  8.59803368E-03
 -1.42247640E-01 -1.05259708E-01  6.03601188E-01 -9.59972235E-07  1.15838504E-02
  3.50940652E-02 -2.25952112E-02  2.32572023E-06  3.98213245E-01 -5.82479515E-01
  5.95011440E-02 -2.30276759E-01  3.24692166E-07 -5.37035599E-07  7.40418036E-02
 -3.36318861E-02  4.57437148E-02 -8.95038478E-03 -1.18972135E-01  4.24759986E-02
  7.41234923E-02 -3.36868766E-02  4.56667252E-02 -8.90381778E-03 -1.18890497E-01
  4.24225298E-02  1.89299885E-02 -2.52689478E-01  9.78872821E-02 -2.29152199E-01
  3.22629676E-07  3.49903137E-03  1.83311813E-01 -7.05394560E-02 -5.07503232E-07
  7.42180364E-02 -4.25647757E-01  1.29709149E-01 -4.87692716E-01 -5.80160210E-07
 -7.47541929E-07  5.78454571E-03  2.31261594E-01  4.89231426E-02  1.38584782E-01
  6.17918404E-07 -9.24282637E-02 -1.68094882E-02  9.29715608E-02 -1.96871099E-07
  6.00125639E-01 -3.23987464E-01 -9.05654655E-03 -7.73190465E-02 -2.37205120E-08
 -6.81434861E-08  1.07130366E-02 -2.57090906E-01 -1.25761873E-01 -2.32903838E-01
  4.26677077E-07  3.64905734E-02 -1.75940834E-01  9.81157596E-03  6.46681682E-07
  2.66934449E-01 -6.06430412E-01  9.04774277E-02  3.08352082E-01 -3.74415794E-07
 -6.08741749E-07 -1.89291065E-02  2.52677840E-01  9.79415151E-02 -2.29056383E-01
  4.15510088E-08 -3.49850188E-03  1.83307586E-01 -7.05388745E-02 -2.89201181E-07
 -7.41426048E-02  4.25557015E-01 -1.29703206E-01  4.87705291E-01 -3.14671988E-08
 -7.78331478E-07 -5.78396973E-03 -2.31270984E-01  4.89946710E-02  1.38586112E-01
 -3.15098278E-07  9.24288586E-02 -1.68127164E-02  9.29731334E-02 -5.24633972E-07
 -6.00155942E-01  3.24005710E-01  9.06071367E-03  7.72570245E-02 -3.66724053E-07
 -3.33623129E-07 -1.07144213E-02  2.57111972E-01 -1.25744330E-01 -2.32999262E-01
 -8.48475756E-07 -3.64919787E-02 -1.75948049E-01  9.81570326E-03  9.75749838E-07
 -2.66992299E-01  6.06515627E-01 -9.04871766E-02 -3.08318954E-01 -3.52529239E-07
 -6.51664909E-07 -4.57002492E-01  3.14635815E-01  3.90394568E-01 -2.22532150E-01
 -4.52010141E-01  2.91439838E-01  4.56990409E-01 -3.14627953E-01 -3.90401248E-01
  2.22534227E-01  4.52029766E-01 -2.91450115E-01 -1.30636642E-02 -2.20835796E-01
  9.99596929E-02  4.23549177E-02 -8.12473659E-07  4.04301206E-02 -3.88709328E-01
 -2.62929866E-02  2.72834706E-06 -8.19903885E-02 -1.56408764E-01 -3.14184619E-03
  1.19526469E-01  1.70398022E-07  6.08089934E-07  3.05727271E-03  4.86234630E-02
 -3.81989873E-01  5.30775470E-02 -6.69011353E-07 -8.83556074E-03  8.13948254E-01
 -1.56771945E-01  2.23046982E-06  3.73783191E-02  1.52743576E-02  1.15808594E-03
  1.69134963E-01 -9.33105823E-08  3.95911953E-07  9.93995508E-03  1.70315051E-01
  1.36771477E-01 -2.00622907E-01  2.00834097E-06 -3.07789749E-02 -4.39566891E-01
  4.30682179E-01 -5.52013776E-06  3.99626643E-02  1.44070855E-01  1.79720714E-03
  1.53667045E-01 -9.78915787E-07 -7.45426899E-07 -1.30637744E-02 -2.20833410E-01
 -9.99611659E-02 -4.23617988E-02 -1.12264401E-06  4.04298360E-02  3.88708060E-01
  2.62929568E-02  2.88102927E-06 -8.19973664E-02 -1.56399131E-01 -3.14264464E-03
  1.19526344E-01  2.77369420E-07 -9.06250579E-07  3.05714652E-03  4.86266219E-02
  3.81987368E-01 -5.30830530E-02 -8.72899284E-07 -8.83624105E-03 -8.13947580E-01
  1.56775415E-01  2.44151959E-06  3.73808201E-02  1.52748775E-02  1.15754930E-03
  1.69136899E-01  2.06430286E-07 -3.94280278E-07  9.93975688E-03  1.70319147E-01
 -1.36774012E-01  2.00615926E-01  1.91646685E-06 -3.07796582E-02  4.39568241E-01
 -4.30681759E-01 -5.28277448E-06  3.99587850E-02  1.44079303E-01  1.79584548E-03
  1.53668648E-01  7.90556532E-07  5.99265820E-07  5.83327712E-01 -7.22290684E-01
 -1.33771067E-01  1.66173630E-01 -4.45743219E-01  5.55383904E-01  5.83329579E-01
 -7.22292386E-01 -1.33769026E-01  1.66170596E-01 -4.45740470E-01  5.55381029E-01
 -4.16282951E-03 -6.68118407E-02 -2.01306818E-01 -3.01661515E-01  1.16091873E-06
  1.28028915E-02  3.96025911E-01  6.97684581E-01 -3.44574550E-06 -2.15322930E-01
  1.43921317E-01 -1.78320238E-03 -1.74951078E-02  3.73850258E-07 -2.19233171E-07
  1.34164716E-02  2.19435236E-01  9.82716343E-02  4.35497615E-02 -1.06063689E-06
 -4.12247807E-02 -2.15773112E-01 -2.78844642E-01  3.41532896E-06 -9.15318882E-03
  2.44006016E-01  4.64578921E-03 -5.01614318E-03  2.77796413E-07  3.52923960E-07
 -9.31137632E-03 -1.54237551E-01  8.39102644E-02 -2.84759482E-01 -5.59104706E-07
  2.91259709E-02 -5.61908567E-02  6.46701254E-01  1.13205975E-06 -2.29706339E-01
  6.48172311E-02 -3.02706220E-03  2.10112923E-02  4.64542444E-07  5.13525453E-07
 -4.16282158E-03 -6.68166296E-02  2.01301158E-01  3.01664206E-01  9.38967155E-07
  1.28044630E-02 -3.96022208E-01 -6.97687580E-01 -3.25059384E-06 -2.15326277E-01
  1.43920093E-01 -1.78290041E-03 -1.74981672E-02 -4.05596034E-07  1.15381395E-07
  1.34163493E-02  2.19434520E-01 -9.82748542E-02 -4.35485486E-02 -1.37928747E-06
 -4.12240065E-02  2.15771080E-01  2.78843009E-01  3.57260255E-06 -9.15103097E-03
  2.44003576E-01  4.64512708E-03 -5.01054707E-03 -3.27871373E-07 -8.55164765E-07
 -9.31138010E-03 -1.54235358E-01 -8.39140800E-02  2.84760146E-01 -4.64419255E-07
  2.91248851E-02  5.61925650E-02 -6.46698665E-01  8.93239471E-07 -2.29702486E-01
  6.48152143E-02 -3.02702038E-03  2.10089136E-02 -2.52385748E-07 -4.64196743E-07
  1.85284247E-01 -2.23059233E-01 -6.00773718E-01  7.29911581E-01  4.18711363E-01
 -5.07482156E-01  1.85282321E-01 -2.23056454E-01 -6.00772779E-01  7.29911623E-01
  4.18711402E-01 -5.07483203E-01 -9.01160309E-02 -5.18817988E-01  1.51297615E-01
 -1.99498257E-01 -6.63673492E-08  5.60479383E-01 -1.48298778E-01  6.57470566E-01
  4.63619252E-07 -3.04449220E-01 -6.53247835E-02 -3.44439483E-01  3.12898804E-02
 -2.24753789E-08 -3.31786848E-08  5.15175895E-03  3.91929668E-02 -1.24166483E-01
  3.33515436E-02  1.39381965E-08 -3.54952736E-02  7.94195768E-01 -1.16562101E-01
  2.53396960E-07  6.20258460E-02 -3.32216015E-02  1.86708042E-02  1.98041809E-01
  4.91162872E-07 -9.60575318E-09  9.65362854E-02  5.39469052E-01  2.02467549E-01
  1.60782659E-01  5.19013770E-07 -5.94464042E-01 -3.47455268E-01 -5.58838112E-01
 -1.56789472E-06  3.14258985E-01  6.84616487E-02  3.70984522E-01  1.02227010E-02
 -4.64031171E-07 -7.57847888E-08  9.01157731E-02  5.18818999E-01  1.51300575E-01
 -1.99497052E-01  1.90532909E-07 -5.60478347E-01 -1.48300967E-01  6.57467085E-01
 -1.58156140E-07  3.04449907E-01  6.53251433E-02  3.44438210E-01 -3.12886839E-02
 -2.13713341E-07  1.06231234E-07 -5.15127441E-03 -3.91945137E-02 -1.24165316E-01
  3.33543896E-02 -5.07781192E-08  3.54934819E-02  7.94196167E-01 -1.16561084E-01
  9.01673950E-08 -6.20287714E-02  3.32228617E-02 -1.86684998E-02 -1.98042185E-01
  3.50463864E-07 -1.08645878E-07 -9.65365392E-02 -5.39468462E-01  2.02465920E-01
  1.60783302E-01 -2.34406953E-07  5.94464846E-01 -3.47454311E-01 -5.58842150E-01
  6.99903929E-07 -3.14260097E-01 -6.84599640E-02 -3.70985638E-01 -1.02227805E-02
 -3.10760326E-07 -5.62645278E-08  2.85393394E-01 -3.35255834E-01 -9.43324794E-03
  1.63317301E-02 -3.15413245E-01  3.61439356E-01 -2.85392063E-01  3.35254278E-01
  9.43018942E-03 -1.63283004E-02  3.15414862E-01 -3.61441193E-01 -5.72175146E-02
 -3.50387340E-01  1.89770746E-01 -1.93465153E-02  4.21093049E-08  3.63673709E-01
 -6.60970218E-01 -3.52479396E-01  2.16573705E-07  3.03803560E-02 -2.81784885E-01
 -2.16366833E-01  7.46682353E-02  2.75135444E-07 -1.85833310E-09 -1.08141065E-01
 -6.00182718E-01 -4.09303394E-02 -2.79269332E-01  2.29958802E-07  6.64742587E-01
  1.08891750E-01  6.02809496E-01 -1.54966660E-06 -9.89256133E-02 -3.25647064E-01
 -4.16329444E-01 -1.79294373E-02  4.64322932E-08 -1.04834792E-08 -4.76367490E-02
 -2.97757996E-01 -1.71509286E-01  3.67649040E-02 -2.14655113E-07  3.04956119E-01
  5.36665853E-01 -5.42597419E-01  9.24078796E-07  1.76212513E-02 -2.31672673E-01
 -1.79584591E-01 -1.37191482E-01 -5.86058389E-08  3.35600966E-07  5.72179674E-02
  3.50385661E-01  1.89769815E-01 -1.93431926E-02  1.01934499E-07 -3.63675432E-01
 -6.60972808E-01 -3.52481766E-01 -4.17468453E-07 -3.03807129E-02  2.81783524E-01
  2.16369037E-01 -7.46699279E-02 -3.62582837E-08  3.86105758E-08  1.08141167E-01
  6.00183038E-01 -4.09318225E-02 -2.79269103E-01 -3.83564019E-07 -6.64742913E-01
  1.08896184E-01  6.02809330E-01  1.36598404E-06  9.89255934E-02  3.25647429E-01
  4.16329757E-01  1.79290004E-02 -9.87801653E-08 -3.53299082E-07  4.76363235E-02
  2.97759493E-01 -1.71511120E-01  3.67624154E-02  7.26205199E-08 -3.04954724E-01
  5.36664528E-01 -5.42596709E-01 -4.38260252E-07 -1.76218935E-02  2.31674921E-01
  1.79582518E-01  1.37190502E-01 -9.37923873E-08  2.26922427E-07  1.69138052E-01
 -2.08158259E-01  3.58008182E-01 -4.04148978E-01  1.35733700E-01 -1.70607543E-01
 -1.69140085E-01  2.08160537E-01 -3.58008922E-01  4.04150398E-01 -1.35731067E-01
  1.70604190E-01  6.39599857E-08 -2.80853112E-08 -3.72307388E-07  8.94116340E-08
 -2.94607383E-01  9.36017663E-07  1.60193906E-06  1.60060900E-06  1.34264329E+00
 -3.91687188E-07  7.97979883E-07 -3.51187488E-08 -2.81556365E-07 -1.13620023E-01
  8.31423351E-02  3.79951526E-08  5.29706496E-07  5.51915455E-08 -4.03928200E-07
  2.94607549E-01  8.80599507E-07  6.85726739E-07  1.83572637E-06 -1.34264224E+00
  7.10491719E-07  2.53584008E-07 -5.93303627E-07  1.77515522E-07 -1.51911951E-02
 -1.39968302E-01 -4.05814387E-08  1.11854205E-06 -1.17180207E-06 -5.80754419E-07
 -2.94607677E-01 -3.78805271E-07  4.12238596E-06  3.16963299E-06  1.34264603E+00
  3.00651056E-07  3.64581838E-07 -7.50853924E-07  5.79844029E-07  1.28812779E-01
  5.68279486E-02 -4.21731095E-08 -8.69887277E-07  4.65762688E-07 -3.27142645E-07
  2.94607494E-01  1.54019858E-06 -4.37614352E-07  2.49571274E-06 -1.34264384E+00
  3.54766057E-07 -6.02512729E-07 -9.03198301E-08  4.45652665E-07 -1.13620577E-01
  8.31417448E-02 -1.89243084E-08 -1.40865491E-06 -2.41048586E-07 -1.26412410E-06
 -2.94607642E-01  1.55227876E-06  1.41585539E-06  3.82024697E-06  1.34264294E+00
 -4.81346101E-07 -3.32555249E-07  4.60361160E-07 -2.59836569E-07 -1.51919507E-02
 -1.39968238E-01 -1.26493344E-08 -1.39828173E-06 -1.13993348E-06 -5.60891380E-07
  2.94607749E-01  1.60633016E-06  3.01541899E-06  2.70117461E-06 -1.34264634E+00
 -8.76696182E-08 -6.20185810E-07  4.08612428E-07 -3.25109693E-07  1.28812578E-01
  5.68285940E-02  1.74104076E-07 -5.68399092E-07 -4.95574769E-07  2.12533195E-06
 -1.39800234E-06  4.41567995E-06  7.81431914E-07 -2.13713152E-06  1.42778422E-06
 -4.75239564E-06  1.45493265E-06 -4.75562434E-06  4.31333074E-02 -9.34011145E-01
 -1.36622676E-01  9.98706491E-02  3.60883971E-07  1.00487082E+00  4.30548678E-01
 -3.15255393E-01 -1.94701801E-06  2.59214720E-01  2.26290876E-01  1.49855171E-01
 -5.82947227E-02  9.96763349E-08 -2.28140401E-07  4.43527178E-02 -9.45234820E-01
  1.81183337E-02  1.67411348E-01 -1.00513121E-07  1.00567298E+00 -5.77583802E-02
 -5.30977453E-01  2.96376570E-07  1.92600165E-01  3.01360569E-01  1.54326018E-01
  1.34252514E-02  1.41412611E-07  7.44258657E-08  4.36469039E-02 -9.38747759E-01
  1.54563488E-01  6.80407768E-02 -2.91145392E-07  1.00521468E+00 -4.88294286E-01
 -2.15738459E-01  1.06219110E-06  2.81571262E-01  2.07498132E-01  1.51738559E-01
  4.56055323E-02 -2.56456414E-07 -1.88587561E-07  4.31334725E-02 -9.34011474E-01
  1.36624158E-01 -9.98695429E-02 -4.39763458E-07  1.00487032E+00 -4.30552453E-01
  3.15253565E-01  2.24741072E-06  2.59215329E-01  2.26290919E-01  1.49855792E-01
 -5.82947731E-02  1.27332769E-07  1.54858445E-07  4.43529447E-02 -9.45235250E-01
 -1.81201879E-02 -1.67412133E-01  6.83692253E-07  1.00567217E+00  5.77633081E-02
  5.30980878E-01 -3.84228359E-06  1.92600475E-01  3.01361121E-01  1.54326885E-01
  1.34253419E-02 -4.04006363E-08  1.46774840E-07  4.36470114E-02 -9.38747993E-01
 -1.54562953E-01 -6.80425022E-02 -6.16661727E-07  1.00521428E+00  4.88292439E-01
  2.15744366E-01  3.64185255E-06  2.81571769E-01  2.07498064E-01  1.51738961E-01
  4.56053656E-02 -1.08629579E-07  2.50692081E-08  5.15829483E-02 -9.25477935E-01
  4.99093266E-02 -9.25815167E-01  5.08863531E-02 -9.25627552E-01  5.15831046E-02
 -9.25479885E-01  4.99095749E-02 -9.25818752E-01  5.08864519E-02 -9.25628360E-01
  2.30400209E-01 -1.50998259E+00 -1.99494667E-01  6.55255057E-02  1.75622960E-07
 -9.29354336E-02  7.01843065E-01 -3.85261580E-01 -1.52293793E-06  8.07985208E-01
  7.47268325E-01  8.11686280E-01 -3.98686079E-02  1.03395223E-07 -1.21854488E-07
  2.30269735E-03 -1.54779084E-02 -1.31503806E-01  1.63455120E-02 -2.40889832E-07
 -7.56769149E-04  2.09144781E-01 -3.07550488E-02  1.66070588E-06 -9.64880526E-04
  1.66916136E-02  8.15132528E-03 -4.07187324E-02 -2.27006609E-07  2.48742275E-07
 -2.28701881E-01  1.50002719E+00 -2.07983808E-01 -1.87061233E-02  5.23295646E-07
  9.18779305E-02  7.62820163E-01  2.19759853E-01 -2.74041861E-06 -8.15259954E-01
 -7.29050195E-01 -8.05772542E-01 -2.18660350E-02  1.81590309E-07  8.22615768E-08
 -2.30400763E-01  1.50998813E+00 -1.99496415E-01  6.55244514E-02 -1.24171306E-08
  9.29334911E-02  7.01842842E-01 -3.85259672E-01  4.96780025E-07 -8.07989755E-01
 -7.47269778E-01 -8.11688035E-01  3.98681295E-02  2.18994309E-07 -2.79795172E-07
 -2.30101335E-03  1.54618345E-02 -1.31503887E-01  1.63437903E-02  1.09439977E-07
  7.60971877E-04  2.09143733E-01 -3.07568174E-02 -9.94104834E-07  9.73016703E-04
 -1.66832556E-02 -8.14580808E-03  4.07188106E-02 -2.05913219E-07  1.55579468E-07
  2.28701186E-01 -1.50001956E+00 -2.07982122E-01 -1.87072334E-02 -5.05276573E-07
 -9.18809353E-02  7.62819561E-01  2.19762047E-01  2.59987981E-06  8.15255274E-01
  7.29047273E-01  8.05770292E-01  2.18669533E-02  8.07982304E-08 -2.32111731E-08
 -6.96416633E-02 -6.28912457E-01 -9.95541047E-04 -6.28501720E-03  6.98379820E-02
  6.22827261E-01  6.96422803E-02  6.28912237E-01  9.93993557E-04  6.28512455E-03
 -6.98372463E-02 -6.22826642E-01 -1.30296075E-01  8.53304470E-01  2.32787692E-02
 -1.59272382E-01  2.32703817E-07  5.28314950E-02 -2.54464411E-01  4.12359190E-01
 -1.92886359E-06 -4.16000329E-01 -4.63258806E-01 -4.58962389E-01  3.63381925E-02
  3.06487971E-07 -1.36496667E-07 -2.65593385E-01  1.74294464E+00 -2.58438884E-02
 -2.27576096E-01 -4.35623634E-07  1.06513977E-01  9.99173457E-02  9.05641492E-01
  2.64729983E-06 -8.47474096E-01 -9.46379581E-01 -9.35771242E-01 -1.26176430E-02
 -3.65423416E-08  2.31134496E-07 -1.34021354E-01  8.77982331E-01 -5.98965002E-02
 -1.51026405E-01  5.08635836E-07  5.43041886E-02  3.48354193E-01  3.51851681E-01
 -3.23002292E-06 -4.44931281E-01 -4.59576720E-01 -4.72082066E-01 -4.45218345E-02
 -1.84142207E-07  4.13534137E-08  1.30294121E-01 -8.53287289E-01  2.32783969E-02
 -1.59270661E-01 -4.67837221E-07 -5.28343503E-02 -2.54466859E-01  4.12358990E-01
  3.23170822E-06  4.15992292E-01  4.63249282E-01  4.58955885E-01 -3.63377277E-02
  2.99129045E-07 -1.40577472E-07  2.65592691E-01 -1.74293901E+00 -2.58459559E-02
 -2.27575958E-01  6.82324452E-07 -1.06513887E-01  9.99194099E-02  9.05640996E-01
 -4.11696691E-06  8.47472078E-01  9.46376515E-01  9.35768801E-01  1.26193880E-02
 -4.37693455E-09  7.22861768E-08  1.34022097E-01 -8.77991708E-01 -5.98977236E-02
 -1.51028015E-01 -4.92949604E-07 -5.42992031E-02  3.48352796E-01  3.51851910E-01
  3.12314790E-06  4.44935500E-01  4.59582135E-01  4.72084359E-01  4.45224314E-02
 -2.89514089E-07  9.43640672E-08  3.89386885E-02  3.55657946E-01  8.16046743E-02
  7.21009061E-01  4.01433634E-02  3.64933407E-01 -3.89371291E-02 -3.55658533E-01
 -8.16042870E-02 -7.21008937E-01 -4.01443592E-02 -3.64934234E-01 -1.99574887E-01
  1.13444327E+00 -1.13001447E-01  8.26809590E-02  1.36436769E-07  7.40012501E-01
  2.56979925E-01 -1.88049471E-01 -9.37513393E-07 -6.39219311E-01 -6.38723480E-01
 -6.98666664E-01  9.06750058E-04  1.08046938E-07 -9.86406490E-08 -1.99622185E-01
  1.13483572E+00  1.51031546E-02  1.39193203E-01  4.71180931E-08  7.39997464E-01
 -3.43593066E-02 -3.16555187E-01  8.12203505E-08 -6.38340320E-01 -6.39992547E-01
 -6.98833449E-01 -2.07863516E-04  7.19092605E-08  6.63498393E-08 -1.99593271E-01
  1.13459498E+00  1.28109123E-01  5.65055500E-02 -2.85776331E-07  7.40008878E-01
 -2.91334425E-01 -1.28533011E-01  7.20926086E-07 -6.39608689E-01 -6.38483889E-01
 -6.98731672E-01 -7.09524813E-04 -9.99446568E-08 -4.97199236E-08 -1.99575496E-01
  1.13444801E+00  1.13002664E-01 -8.26792160E-02 -2.36012780E-07  7.40012527E-01
 -2.56981332E-01  1.88046781E-01  1.10983381E-06 -6.39222259E-01 -6.38725157E-01
 -6.98668783E-01  9.06488960E-04  7.06825315E-08  3.20119388E-08 -1.99623080E-01
  1.13484262E+00 -1.51049793E-02 -1.39193068E-01  4.08952434E-07  7.39997488E-01
  3.43627139E-02  3.16555149E-01 -1.93259850E-06 -6.38343881E-01 -6.39995730E-01
 -6.98836575E-01 -2.08787636E-04  1.32101134E-09  1.10901619E-07 -1.99593540E-01
  1.13459723E+00 -1.28108658E-01 -5.65066166E-02 -3.58991937E-07  7.40008783E-01
  2.91332614E-01  1.28536509E-01  1.82561020E-06 -6.39608815E-01 -6.38485876E-01
 -6.98732603E-01 -7.10434346E-04 -8.04159935E-08 -3.19370990E-08  1.06956783E-01
 -5.94890842E-01  1.06994442E-01 -5.94882613E-01  1.06971074E-01 -5.94887939E-01
  1.06957118E-01 -5.94890817E-01  1.06994874E-01 -5.94883274E-01  1.06971259E-01
 -5.94887967E-01 -2.61287566E-01  2.03453142E+00  1.28630752E-01 -1.14279888E-01
  9.95035542E-08 -7.54982336E-03 -1.52418620E-01  9.79838444E-02  2.35335019E-07
 -1.11837270E+00 -1.19835679E+00 -9.03114163E-01 -9.68523775E-02 -2.29123960E-07
 -1.73454937E-07  1.11902324E-01 -8.70279898E-01  1.62945239E-01  5.57694607E-02
  1.63160197E-07  4.76746620E-04  1.27356822E-01 -8.98104671E-02 -9.25124284E-08
  5.59808988E-01  4.31868157E-01  3.86782208E-01  1.17115538E-01  4.18534902E-07
  7.67596381E-08  1.48999379E-01 -1.15906746E+00  3.03302060E-02  1.72316386E-01
 -8.18883088E-08  1.29676494E-03 -1.41463743E-01  7.05654361E-02  2.54327037E-07
  5.44484874E-01  7.76080355E-01  5.15007358E-01  3.71952464E-02 -1.01906890E-07
 -2.27424217E-07 -2.61288451E-01  2.03453977E+00 -1.28632335E-01  1.14273943E-01
  4.85387812E-08 -7.54896364E-03  1.52398572E-01 -9.79956530E-02 -3.68488674E-07
 -1.11838297E+00 -1.19835472E+00 -9.03117168E-01 -9.68552503E-02  2.03150464E-07
  1.04609537E-07  1.11902736E-01 -8.70285496E-01 -1.62947719E-01 -5.57616456E-02
  2.28591882E-08  4.75170086E-04 -1.27375249E-01  8.97747058E-02  1.30623676E-07
  5.59816492E-01  4.31869082E-01  3.86782453E-01  1.17119502E-01 -2.46536294E-07
 -1.07782021E-07  1.49000472E-01 -1.15907972E+00 -3.03199331E-02 -1.72314487E-01
  1.55725858E-09  1.29394683E-03  1.41423227E-01 -7.05913000E-02 -8.69899362E-08
  5.44488494E-01  7.76091232E-01  5.15009955E-01  3.71947539E-02  1.00855355E-07
  1.50177026E-07  1.30562849E-01  7.01362946E-02 -5.52532446E-02 -2.74663744E-02
 -7.35449901E-02 -3.72186196E-02  1.30563523E-01  7.01276064E-02 -5.52546328E-02
 -2.74313891E-02 -7.35470402E-02 -3.71743189E-02  2.15339445E-02 -1.68186886E-01
 -1.15464635E-01 -1.33555398E-01 -2.22016920E-07  2.04584177E-03 -7.42961739E-02
 -1.28668972E-01  2.19892556E-07  2.17798500E-01 -2.66066090E-02  7.44255330E-02
  5.27384823E-02  1.62560871E-07  1.07131681E-07 -2.36779908E-01  1.84228022E+00
  5.51885075E-02 -1.61803402E-01 -2.80053956E-07 -3.40760670E-03  8.25108728E-02
  1.53689170E-01 -4.68610089E-07 -1.12089575E+00 -9.77981724E-01 -8.18391745E-01
  7.92885708E-02  1.90106607E-07 -3.33499130E-07  2.15572637E-01 -1.67844743E+00
  1.68460092E-01 -3.15358619E-02 -3.23531690E-07  6.17029523E-03 -1.01643012E-01
 -1.39632820E-01  4.46240123E-07  9.56513702E-01  9.54943807E-01  7.45089430E-01
 -1.18864006E-01 -4.43074517E-07  1.54151959E-07  2.15338810E-02 -1.68188529E-01
  1.15459655E-01  1.33560753E-01 -9.85075788E-08  2.04472115E-03  7.43296669E-02
  1.28653053E-01 -1.92621834E-07  2.17801898E-01 -2.66054304E-02  7.44240672E-02
  5.27416834E-02 -7.18641521E-08  2.85091500E-08 -2.36780706E-01  1.84228678E+00
 -5.51839414E-02  1.61803686E-01 -2.72153325E-07 -3.40737646E-03 -8.24943072E-02
 -1.53696306E-01  2.00454615E-07 -1.12089954E+00 -9.77983571E-01 -8.18394840E-01
  7.92827674E-02 -2.03939453E-07  3.46719312E-07  2.15571983E-01 -1.67843969E+00
 -1.68465219E-01  3.15301859E-02 -2.11941158E-07  6.17222501E-03  1.01676632E-01
  1.39636161E-01 -6.46442339E-09  9.56508072E-01  9.54940391E-01  7.45087923E-01
 -1.18860011E-01  3.80803069E-07 -1.33706758E-07 -1.12805557E-02 -7.10692806E-03
  1.17764412E-01  6.03153218E-02 -1.07957907E-01 -5.77814492E-02 -1.12817739E-02
 -7.07308318E-03  1.17764489E-01  6.03200396E-02 -1.07956567E-01 -5.78113873E-02
  9.38632063E-02 -9.44510773E-01  2.96969841E-01 -2.59593975E-01 -2.64752750E-07
 -1.50378623E-01 -1.46219560E+00  7.89231683E-01  1.45680409E-06  4.94531429E-01
  4.39961612E-01  3.08544231E-01  1.20246861E-01  1.28166864E-07  2.47721012E-07
  2.21104044E-02 -2.21137508E-01 -1.19789832E-01 -7.50594755E-02  2.14726924E-07
 -3.33960386E-02 -6.85923947E-01  4.45801772E-01 -1.56489593E-06  8.97758587E-02
  1.29925881E-01  7.29109797E-02 -2.12616795E-01 -3.14448723E-07 -2.13424574E-07
 -7.41881414E-02  7.44597007E-01  2.46741959E-01  1.92192843E-01 -6.84892839E-07
  1.15900859E-01 -1.36926771E+00 -5.29986440E-02  4.01601763E-06 -4.16298062E-01
 -3.21705128E-01 -2.44203531E-01  1.58827252E-01  1.02772343E-07 -3.43140596E-07
 -9.38595187E-02  9.44478684E-01  2.96973391E-01 -2.59591473E-01 -2.22195403E-07
  1.50378992E-01 -1.46219770E+00  7.89227742E-01  7.09626842E-07 -4.94514321E-01
 -4.39944564E-01 -3.08531200E-01 -1.20245354E-01 -6.40497500E-08  3.95699476E-07
 -2.21151089E-02  2.21190503E-01 -1.19789535E-01 -7.50577297E-02  1.87575253E-08
  3.33863557E-02 -6.85920184E-01  4.45801459E-01 -2.04064850E-07 -8.98020831E-02
 -1.29948785E-01 -7.29280938E-02  2.12615915E-01 -1.09403601E-07 -5.89253639E-09
  7.41894722E-02 -7.44618293E-01  2.46740238E-01  1.92197167E-01  6.09291286E-07
 -1.15895115E-01 -1.36926748E+00 -5.30023692E-02 -3.59042744E-06  4.16307042E-01
  3.21712606E-01  2.44208705E-01 -1.58828494E-01  1.46262291E-07 -9.66088640E-08
 -8.53185600E-02  1.53943763E+00 -2.01385744E-02  3.45566998E-01  6.74910941E-02
 -1.19204781E+00  8.53164745E-02 -1.53943702E+00  2.01419144E-02 -3.45563232E-01
 -6.74925560E-02  1.19204655E+00  2.88259853E-02 -2.90331703E-01  1.67776982E-01
  1.83746204E-02  5.83736461E-07 -4.94388582E-02 -3.13652721E-03  8.83449530E-01
 -3.15408267E-06 -4.37523321E-02  3.31979333E-01  9.44554488E-02 -3.19395337E-02
  2.02077222E-07 -2.99885977E-07  9.79990203E-02 -9.80298029E-01 -1.72336059E-02
 -3.98098332E-01 -6.90096835E-07 -1.57327124E-01  3.40786246E-01  1.65916098E+00
  5.21987678E-06  5.91505927E-01  3.86268962E-01  3.22306744E-01  2.34330272E-02
  1.12058073E-08  6.25648176E-07  6.56484310E-02 -6.59251009E-01 -2.88397428E-01
 -3.04311548E-02  1.16475058E-06 -1.09468806E-01  8.44446779E-01  9.74543279E-01
 -6.45531432E-06  1.75684760E-01  4.80111155E-01  2.15461043E-01  5.54324061E-02
 -1.88683631E-07 -2.41422232E-07 -2.88304566E-02  2.90382610E-01  1.67775726E-01
  1.83759173E-02 -8.62245749E-07  4.94287935E-02 -3.13878863E-03  8.83446373E-01
  5.11732192E-06  4.37282756E-02 -3.32002375E-01 -9.44717605E-02  3.19378034E-02
  4.65257009E-07 -2.67789633E-07 -9.79956683E-02  9.80271496E-01 -1.72377951E-02
 -3.98098848E-01  1.17960149E-06  1.57324492E-01  3.40790870E-01  1.65915918E+00
 -7.43323596E-06 -5.91489888E-01 -3.86255314E-01 -3.22294952E-01 -2.34328366E-02
  8.76361514E-09  4.06607436E-07 -6.56465728E-02  6.59225888E-01 -2.88395282E-01
 -3.04346101E-02 -1.08967901E-06  1.09472702E-01  8.44442980E-01  9.74543692E-01
  6.00183002E-06 -1.75675661E-01 -4.80099455E-01 -2.15453943E-01 -5.54318069E-02
 -3.85052454E-07 -8.05436249E-08 -2.53622983E-02  4.89710137E-01 -8.64235839E-02
  1.57659579E+00 -5.78126724E-02  1.08957236E+00  2.53654938E-02 -4.89705795E-01
  8.64216766E-02 -1.57659309E+00  5.78110494E-02 -1.08957170E+00 -1.74327300E-01
  1.48313766E+00  1.50663489E-01 -1.11926805E-01  2.01904959E-07 -6.98621136E-02
 -1.47089450E-01  1.03436414E-01 -2.25937345E-07 -8.54425778E-01 -9.38948940E-01
 -5.98348911E-01 -1.43306669E-01 -3.07234029E-07 -3.26468015E-07  1.71600980E-01
 -1.46481516E+00  2.14468712E-02  1.89610678E-01  3.75564914E-07  7.59951946E-02
 -1.93401276E-02 -1.97634620E-01  4.07937655E-07  1.01407274E+00  7.54979406E-01
  5.89376289E-01 -3.07083408E-02 -4.14291544E-08  3.50419174E-07 -1.73229450E-01
  1.47588754E+00 -1.71866016E-01 -7.82421379E-02  4.31957602E-07 -7.23181040E-02
  1.73116043E-01  7.03758282E-02 -8.58352602E-07 -7.99714376E-01 -9.83941240E-01
 -5.94732209E-01  1.08733430E-01  4.03639744E-07 -1.30397721E-07  1.74327181E-01
 -1.48313684E+00  1.50665832E-01 -1.11923669E-01 -8.76126106E-08  6.98624666E-02
 -1.47089389E-01  1.03436464E-01  5.80691971E-07  8.54426167E-01  9.38947668E-01
  5.98348447E-01  1.43306963E-01 -2.76318193E-07 -2.60027761E-07 -1.71600876E-01
  1.46481436E+00  2.14506145E-02  1.89610362E-01 -2.68384507E-07 -7.59955734E-02
 -1.93399755E-02 -1.97634664E-01 -4.50574253E-08 -1.01407264E+00 -7.54978788E-01
 -5.89375843E-01  3.07075406E-02 -1.16072323E-07  3.70130947E-07  1.73229435E-01
 -1.47588735E+00 -1.71864665E-01 -7.82455025E-02 -2.79278978E-07  7.23182794E-02
  1.73116314E-01  7.03753690E-02  4.26706468E-07  7.99713831E-01  9.83941760E-01
  5.94732102E-01 -1.08732878E-01  3.70042846E-07 -1.50967136E-07  8.19967267E-02
  1.53347035E-01 -7.88034743E-02 -1.73519157E-01  8.06715859E-02  1.61006343E-01
 -8.19966803E-02 -1.53347177E-01  7.88034346E-02  1.73519273E-01 -8.06716015E-02
 -1.61006450E-01 -1.13267230E-01 -3.78148399E-02 -1.29609319E-01  9.48479792E-02
  2.20254569E-08  1.45126715E+00  1.51861114E+00 -1.11127535E+00  1.01535326E-06
 -3.27422485E-01 -3.26436432E-01 -3.60987359E-01  1.76575611E-03 -3.40619155E-07
  1.96058618E-07  1.13271906E-01  3.78084113E-02 -1.73359257E-02 -1.59667579E-01
  2.09082682E-07 -1.45132328E+00  2.03052545E-01  1.87081168E+00 -9.07936747E-07
  3.25366030E-01  3.28532363E-01  3.61001962E-01  3.91253304E-04  1.77842054E-07
  3.79029953E-08 -1.13268123E-01 -3.78102859E-02  1.46936466E-01  6.48286220E-02
 -7.52165175E-07  1.45124848E+00 -1.72167983E+00 -7.59550577E-01  5.74270571E-06
 -3.28035674E-01 -3.25837588E-01 -3.60989460E-01 -1.36162931E-03 -1.00177597E-07
 -2.02176059E-08  1.13267702E-01  3.78150931E-02 -1.29609092E-01  9.48498031E-02
  4.13669541E-07 -1.45127570E+00  1.51862031E+00 -1.11127567E+00 -3.28560451E-06
  3.27424187E-01  3.26437264E-01  3.60988926E-01 -1.76555483E-03  2.54168989E-07
  4.47822871E-08 -1.13272655E-01 -3.78089021E-02 -1.73347571E-02 -1.59669035E-01
  1.98655423E-07  1.45133582E+00  2.03060062E-01  1.87082215E+00 -1.18427093E-06
 -3.25368191E-01 -3.28534149E-01 -3.61004456E-01 -3.91694973E-04 -1.18644430E-07
 -4.91791544E-07  1.13268440E-01  3.78104635E-02  1.46937269E-01  6.48281732E-02
  4.00064287E-07 -1.45125432E+00 -1.72168062E+00 -7.59560403E-01 -2.99794749E-06
  3.28036252E-01  3.25838695E-01  3.60990515E-01  1.36185778E-03 -3.40852687E-07
 -1.35613269E-07 -1.15762577E-01 -1.60403907E+00  1.15755633E-01  1.60406181E+00
 -1.15757212E-01 -1.60403548E+00  1.15763273E-01  1.60404568E+00 -1.15756848E-01
 -1.60407094E+00  1.15757627E-01  1.60403986E+00 -9.64728910E-02 -3.40406640E-02
 -2.90718519E-01  1.96210667E-01  2.22407347E-07  2.17415685E+00  2.40570584E+00
 -1.70009207E+00 -9.45263243E-07 -2.74933114E-01 -2.66277064E-01 -3.19882846E-01
  1.85185408E-02 -1.62401523E-07  2.78802954E-07  4.33689719E-02  1.52925360E-02
  1.86351618E-01 -1.78690712E-01 -6.20238942E-08 -9.77333290E-01 -6.00263146E-01
  1.39690949E+00  1.47551530E-06  1.16856003E-01  1.26458416E-01  1.43800951E-01
  1.52230627E-02 -1.72839053E-07  3.03308085E-07  5.31038098E-02  1.87400624E-02
 -2.53692785E-01  9.70414002E-02  5.14692278E-07 -1.19678294E+00  1.76546881E+00
  1.51738950E-02 -3.83241042E-06  1.46889920E-01  1.51014665E-01  1.76081704E-01
  1.63888143E-02  3.11805131E-07  8.90758937E-08 -9.64725661E-02 -3.40401669E-02
  2.90717854E-01 -1.96211296E-01 -6.37308081E-07  2.17415253E+00 -2.40569652E+00
  1.70009843E+00  3.94546911E-06 -2.74931304E-01 -2.66277348E-01 -3.19881816E-01
  1.85187557E-02 -3.71513443E-07  3.70867905E-08  4.33694837E-02  1.52957611E-02
 -1.86352920E-01  1.78691085E-01 -2.76280290E-07 -9.77347109E-01  6.00270443E-01
 -1.39690938E+00  9.12210872E-07  1.16855019E-01  1.26459040E-01  1.43802692E-01
  1.52225915E-02  3.09705194E-07  2.80542433E-07  5.31049589E-02  1.87436029E-02
  2.53694663E-01 -9.70419254E-02  2.84105770E-07 -1.19680658E+00 -1.76548241E+00
 -1.51704484E-02 -1.54344671E-06  1.46892295E-01  1.51015492E-01  1.76085490E-01
  1.63887186E-02 -3.18568199E-07 -2.59869460E-07 -2.46725761E-01 -2.25693031E+00
  1.10875553E-01  1.01452954E+00  1.35837726E-01  1.24237568E+00 -2.46725509E-01
 -2.25692706E+00  1.10876579E-01  1.01452656E+00  1.35839797E-01  1.24238367E+00
 -5.62866566E-03 -1.98083036E-03  1.18384988E-01  1.96356780E-01  3.16215165E-09
  1.26802111E-01 -3.54531449E-01 -7.75141197E-01  7.94273227E-07 -2.88333291E-02
 -2.75423142E-03 -1.86620505E-02 -3.52919395E-03 -2.49983190E-07  1.18823553E-08
  8.63739664E-02  3.04638365E-02 -1.35952563E-01 -3.00787061E-01  2.19057992E-07
 -1.94639680E+00  6.57661609E-01  2.58060896E+00 -1.53574881E-06  2.26281894E-01
  2.58309251E-01  2.86392163E-01 -3.02621394E-03  2.44235205E-07 -2.05884222E-08
 -8.07438595E-02 -2.84795887E-02  2.17595051E-01  2.33394025E-01 -7.78675494E-07
  1.81959918E+00 -2.06966964E+00 -1.41542177E+00  5.82979954E-06 -2.41428604E-01
 -2.11568686E-01 -2.67725301E-01 -6.20339164E-03 -3.19086489E-07 -9.52920699E-08
 -5.62900897E-03 -1.98422665E-03 -1.18385993E-01 -1.96356785E-01  1.12948298E-07
  1.26811405E-01  3.54539124E-01  7.75140259E-01 -1.67757227E-06 -2.88326711E-02
 -2.75344755E-03 -1.86632093E-02 -3.52800333E-03 -8.36926348E-08  1.73419117E-07
  8.63731830E-02  3.04617746E-02  1.35951813E-01  3.00786956E-01 -5.76445009E-07
 -1.94638501E+00 -6.57651958E-01 -2.58060382E+00  3.70161028E-06  2.26280812E-01
  2.58307568E-01  2.86389666E-01 -3.02724492E-03 -1.65361280E-07  4.09094376E-07
 -8.07428794E-02 -2.84770426E-02 -2.17594502E-01 -2.33392489E-01 -4.38854123E-07
  1.81958092E+00  2.06966375E+00  1.41540983E+00  2.53458362E-06 -2.41427184E-01
 -2.11566806E-01 -2.67722101E-01 -6.20256043E-03  4.42269095E-07  4.23431674E-08
 -1.43483607E-02 -1.31558491E-01  2.20749967E-01  2.02034366E+00 -2.06409586E-01
 -1.88879925E+00 -1.43485697E-02 -1.31550853E-01  2.20749377E-01  2.02033811E+00
 -2.06408010E-01 -1.88879168E+00 -8.05769669E-02 -2.87814167E-01 -1.44571683E-01
  1.68721387E-01  1.31510198E-07  4.60498208E+00 -2.94552290E-01 -1.40157630E+00
 -3.49844150E-06  3.46634798E-04 -1.00535256E-01 -2.64254563E-01  6.24005327E-02
  4.44039460E-07  3.94409868E-07 -1.67759369E-02 -5.97257949E-02  1.59561815E-01
  2.78528678E-02 -7.17267730E-08  9.57655915E-01 -3.99359798E+00  3.10018878E-01
  1.74766950E-06 -4.59364219E-02  2.46985342E-02 -5.49997784E-02 -2.24135935E-01
 -7.50373962E-07  2.50567389E-07  6.38473891E-02  2.27783948E-01 -1.14258045E-01
 -1.65187858E-01  1.24528379E-07 -3.64730358E+00 -6.61893598E-01  2.65786664E+00
  1.89071116E-06 -3.93360808E-02  1.19254198E-01  2.09363971E-01  1.27606684E-01
  8.46663330E-07 -2.40273923E-07  8.05748918E-02  2.87806418E-01 -1.44572623E-01
  1.68722306E-01  1.33705917E-07 -4.60492368E+00 -2.94513760E-01 -1.40156754E+00
 -2.97318032E-07 -3.46660789E-04  1.00531438E-01  2.64248341E-01 -6.23998609E-02
  5.42497204E-07  1.08224672E-07  1.67802348E-02  5.97422063E-02  1.59562079E-01
  2.78503374E-02 -2.37548592E-08 -9.57776323E-01 -3.99359529E+00  3.10069929E-01
 -1.33215879E-06  4.59405306E-02 -2.46948723E-02  5.50124832E-02  2.24136020E-01
 -6.65574917E-07  2.47692315E-07 -6.38495840E-02 -2.27792465E-01 -1.14257266E-01
 -1.65186480E-01 -2.26959475E-07  3.64736481E+00 -6.61927608E-01  2.65787908E+00
 -5.77521833E-07  3.93358065E-02 -1.19257905E-01 -2.09370338E-01 -1.27608430E-01
  6.42726082E-07 -4.06668437E-07 -2.68669309E-01 -7.84506964E-01 -5.59928946E-02
 -1.63115665E-01  2.12949594E-01  6.21244037E-01  2.68668008E-01  7.84509509E-01
  5.59961351E-02  1.63113173E-01 -2.12951083E-01 -6.21243465E-01 -2.71326061E-02
 -9.72299520E-02 -1.47352708E-01 -7.76234221E-02  1.36380561E-08  1.55275347E+00
  2.44589759E+00  3.00614652E+00  1.94625760E-06 -2.03304066E-01  1.70164409E-01
 -8.90078928E-02 -5.30203339E-02 -1.22697266E-07  6.51854192E-08 -8.33405836E-02
 -2.97813956E-01 -6.71981385E-03  2.25900452E-01 -5.31865916E-08  4.76428665E+00
  7.34417378E-01 -6.92376712E-01  3.72288479E-06 -6.69114716E-03 -9.67477191E-02
 -2.73311731E-01  3.56616404E-02  1.35198659E-07  2.73331204E-07 -5.61409146E-02
 -2.00978337E-01  1.86017303E-01 -4.74225268E-02 -1.22655434E-07  3.21146239E+00
 -1.61304281E+00  2.63886186E+00  5.15733810E-07 -1.64074278E-01  9.50990036E-02
 -1.84146577E-01  9.60871996E-02 -3.76718869E-07 -2.89496068E-07  2.71372034E-02
  9.72473537E-02 -1.47350747E-01 -7.76247173E-02  1.15931567E-07 -1.55288281E+00
  2.44586007E+00  3.00618239E+00 -2.87505504E-06  2.03308674E-01 -1.70160625E-01
  8.90215837E-02  5.30209816E-02 -4.48941927E-08  9.80976473E-08  8.33391441E-02
  2.97808787E-01 -6.72041757E-03  2.25901114E-01 -2.20156477E-07 -4.76424558E+00
  7.34382382E-01 -6.92388354E-01  8.65557169E-08  6.69021029E-03  9.67456728E-02
  2.73307411E-01 -3.56587936E-02 -4.78306253E-09  5.21036337E-07  5.61378628E-02
  2.00966668E-01  1.86019446E-01 -4.74223395E-02  2.10735670E-07 -3.21137712E+00
 -1.61306931E+00  2.63882489E+00 -1.68868293E-06  1.64069941E-01 -9.51002785E-02
  1.84137639E-01 -9.60857734E-02 -1.45333826E-07 -2.65219659E-07 -9.04129547E-02
 -2.64325271E-01 -2.77883574E-01 -8.10559024E-01 -1.87109098E-01 -5.46529166E-01
  9.04170118E-02  2.64324425E-01  2.77882619E-01  8.10558762E-01  1.87107522E-01
  5.46532718E-01 -1.68211281E-01 -6.57310249E-01  2.14397747E-01 -4.86553092E-02
 -9.70102263E-08  6.15271642E+00 -3.10265633E+00  2.49272630E+00 -1.50592650E-06
 -1.63723043E-01 -6.69911625E-02 -4.98146024E-01  2.15312670E-02  4.72328937E-07
  8.92410972E-08  2.87929230E-02  1.12498228E-01 -2.23640160E-01  5.90138648E-02
  3.43051816E-09 -1.05300493E+00 -1.42957950E+00 -5.29442231E-01 -1.73234352E-06
 -1.73262068E-02  5.68402685E-02  8.52688717E-02 -1.64570994E-01  2.85028341E-07
 -2.37307117E-07  1.39424982E-01  5.44772580E-01  2.14612059E-01 -7.21514681E-02
 -3.94338669E-07 -5.09950911E+00 -2.81399196E+00 -1.78585910E+00  5.80292092E-06
  1.72314274E-01  1.89996073E-02  4.12899378E-01 -3.86772454E-02  2.65639547E-07
 -2.32431896E-07 -1.68210883E-01 -6.57309064E-01 -2.14398729E-01  4.86536172E-02
  3.39224048E-07  6.15268718E+00  3.10271867E+00 -2.49262885E+00 -2.63563674E-06
 -1.63717027E-01 -6.69960420E-02 -4.98144767E-01  2.15328470E-02  2.28066199E-08
 -2.23652413E-07  2.87943585E-02  1.12502630E-01  2.23639822E-01 -5.90114598E-02
  7.68580409E-08 -1.05313213E+00  1.42961709E+00  5.29445052E-01 -1.90175297E-07
 -1.73264336E-02  5.68433124E-02  8.52737345E-02 -1.64572429E-01 -3.19612870E-07
 -5.07158892E-08  1.39426405E-01  5.44777455E-01 -2.14609605E-01  7.21519922E-02
 -3.28078693E-07 -5.09961564E+00  2.81396505E+00  1.78593026E+00  3.91429925E-06
  1.72318878E-01  1.89973717E-02  4.12903975E-01 -3.86794849E-02 -1.75906973E-07
  2.37719695E-07  9.31194902E-02  1.18685300E+00 -1.60021451E-02 -2.03201588E-01
 -7.72421076E-02 -9.83729706E-01  9.31200885E-02  1.18685100E+00 -1.59976121E-02
 -2.03197262E-01 -7.72377085E-02 -9.83722840E-01  6.40681130E-02  2.50411220E-01
  6.94155454E-02  2.24971117E-01 -7.26887676E-08 -2.34367523E+00  1.76894871E+00
 -1.47185468E-01  1.52701669E-06 -7.14294579E-02  1.59208020E-01  1.89731935E-01
 -5.70702784E-02 -5.22734389E-07  2.46487949E-07 -1.77718615E-01 -6.94463270E-01
 -5.77724401E-02 -2.08117921E-01 -1.36663533E-07  6.50047118E+00  1.22830321E-01
  4.21221275E+00  5.47243461E-06 -9.45745451E-02 -1.49159933E-01 -5.26304599E-01
 -4.03152100E-02  1.68838036E-07  9.81565324E-07  1.13638557E-01  4.44106617E-01
  5.19627919E-02  2.19875309E-01 -4.58712607E-07 -4.15688526E+00 -2.87820160E+00
 -1.31063128E-01  5.33468113E-06  7.87774162E-03  1.47900112E-01  3.36532539E-01
  1.07669687E-01  4.43197227E-07  1.82392281E-07  6.40692167E-02  2.50414621E-01
 -6.94162689E-02 -2.24969535E-01 -2.42401975E-07 -2.34378135E+00 -1.76898622E+00
  1.47151492E-01  3.60683872E-07 -7.14302183E-02  1.59210934E-01  1.89735721E-01
 -5.70723460E-02  2.08835507E-07 -2.21545064E-08 -1.77718387E-01 -6.94462810E-01
  5.77738525E-02  2.08117563E-01 -5.80213504E-07  6.50045981E+00 -1.22938331E-01
 -4.21219727E+00  6.32555648E-06 -9.45730563E-02 -1.49160438E-01 -5.26303890E-01
 -4.03090848E-02  4.53267633E-08 -4.76214230E-07  1.13636995E-01  4.44101605E-01
 -5.19647572E-02 -2.19876611E-01 -4.04581046E-07 -4.15676931E+00  2.87817354E+00
  1.31115181E-01  3.86805503E-06  7.87773081E-03  1.47897029E-01  3.36527467E-01
  1.07666425E-01 -3.96915123E-07 -1.39618475E-07 -3.53996280E-02 -4.52100317E-01
  9.83800759E-02  1.25411987E+00 -6.28055573E-02 -8.01922394E-01 -3.53960599E-02
 -4.52100352E-01  9.83800689E-02  1.25411867E+00 -6.28099662E-02 -8.01929619E-01
 -5.01611302E-03 -1.99200817E-02 -4.25987061E-02 -6.81366189E-02 -4.34585615E-07
  1.85070528E-01  3.30575589E+00  4.71997148E+00  7.96415849E-06 -2.33341372E-01
  2.27034912E-01 -1.48597488E-02 -8.27420113E-02 -6.12473670E-07 -7.70013375E-08
 -3.46170052E-03 -1.37643205E-02 -9.98141891E-02  6.76558747E-03  1.04140669E-07
  1.27693099E-01  5.64189060E+00 -5.29317288E-01 -1.30530330E-06  4.78439456E-02
 -5.21714452E-02 -1.02531748E-02  2.57846676E-01  1.00676208E-06 -1.76327437E-07
  8.47883839E-03  3.36912017E-02 -2.65560517E-02  8.47322749E-02  2.73136585E-07
 -3.12780356E-01  2.12487697E+00 -5.31709015E+00 -4.86631527E-06  1.81202582E-01
 -1.70570324E-01  2.51159650E-02 -1.81823531E-01 -5.55431734E-07  5.67704448E-07
 -5.01747142E-03 -1.99276003E-02  4.25973281E-02  6.81372357E-02 -4.00839335E-07
  1.85086118E-01 -3.30573198E+00 -4.71998669E+00  6.56974470E-06 -2.33341506E-01
  2.27033782E-01 -1.48628008E-02 -8.27436615E-02  2.90803185E-07 -2.72261405E-07
 -3.46024003E-03 -1.37566827E-02  9.98138694E-02 -6.76725828E-03  1.16791555E-07
  1.27669132E-01 -5.64189087E+00  5.29349678E-01 -2.58813860E-06  4.78459960E-02
 -5.21717531E-02 -1.02497883E-02  2.57846582E-01 -5.23599405E-07  1.91478068E-07
  8.47740304E-03  3.36838766E-02  2.65579009E-02 -8.47312020E-02  2.77886857E-07
 -3.12759607E-01 -2.12491128E+00  5.31707923E+00 -5.02916277E-06  1.81202381E-01
 -1.70572117E-01  2.51126776E-02 -1.81822985E-01  4.14411339E-07 -2.30048987E-07
  2.89903051E-03  3.56605148E-02  2.01073186E-03  2.46602473E-02 -4.90051395E-03
 -6.03166302E-02  2.89609369E-03  3.56643018E-02  2.01294175E-03  2.46546876E-02
 -4.90128921E-03 -6.03088536E-02 -1.95181386E-01 -9.71793687E-01  5.86839738E-02
 -4.29389402E-02 -9.99382944E-08  1.49044522E+01 -7.67908327E+00  5.61920909E+00
 -5.67894072E-06 -2.20849956E-02  3.01110478E-03 -4.20445005E-01  4.56177246E-02
  1.13255336E-06 -6.86445107E-07  1.95182083E-01  9.71788911E-01  7.85121032E-03
  7.22971348E-02 -4.84291534E-07 -1.49044160E+01 -1.02674559E+00 -9.45985357E+00
 -1.08733129E-05 -3.09521209E-02  5.00443346E-02  4.20446512E-01  1.02669797E-02
 -5.22445294E-07 -1.91312770E-06 -1.95181572E-01 -9.71789942E-01 -6.65348442E-02
 -2.93443384E-02  7.00074367E-07  1.49044636E+01  8.70590780E+00  3.84071390E+00
 -1.59521729E-05 -3.74969001E-02  1.84139022E-02 -4.20445771E-01 -3.53457477E-02
 -8.46128285E-07 -4.13250991E-07  1.95181637E-01  9.71794970E-01  5.86837853E-02
 -4.29395358E-02 -2.39259682E-07 -1.49044670E+01 -7.67915824E+00  5.61912102E+00
  4.61780154E-06  2.20835250E-02 -3.00976042E-03  4.20445681E-01 -4.56183253E-02
 -5.72775257E-07  6.47916800E-09 -1.95182312E-01 -9.71790082E-01  7.85048841E-03
  7.22970944E-02  1.80510938E-07  1.49044445E+01 -1.02685575E+00 -9.45984915E+00
  9.65386414E-06  3.09528970E-02 -5.00449602E-02 -4.20447023E-01 -1.02656604E-02
  1.28362738E-07 -2.20264480E-07  1.95181769E-01  9.71790958E-01 -6.65353515E-02
 -2.93436707E-02 -4.24544786E-08 -1.49044726E+01  8.70587235E+00  3.84081050E+00
  1.04384921E-05  3.74975504E-02 -1.84146563E-02  4.20446310E-01  3.53450448E-02
 -4.95084610E-08 -4.37838467E-08  3.02231866E-01  2.42813145E+00 -3.02237815E-01
 -2.42810715E+00  3.02235256E-01  2.42812812E+00 -3.02232083E-01 -2.42813372E+00
  3.02237741E-01  2.42810624E+00 -3.02235462E-01 -2.42813038E+00
Total SCF Density                          R   N=        5253
  2.05262799E+00 -6.34970025E-02  3.29774088E-01 -3.46342646E-04 -4.84326177E-03
  4.21722211E-01  2.52862716E-04  3.54532290E-03 -8.20858888E-04  4.21203133E-01
 -1.92712071E-08  7.43324040E-08  3.28120190E-08  5.64170131E-08  3.29570782E-01
 -1.67205544E-01  2.56522057E-01  7.80750346E-03 -5.71625367E-03 -1.55682041E-07
  2.26590576E-01 -3.34362214E-03  2.19998279E-02  1.24758472E-01  4.04634024E-03
  1.29056232E-07  1.69366062E-02  4.25739577E-02  2.44672568E-03 -1.60984435E-02
  4.04492555E-03  1.27324200E-01 -2.33240759E-07 -1.23944629E-02  2.92024254E-03
  4.44262606E-02 -2.41910636E-08  9.88120377E-08 -5.51792490E-08 -5.42287526E-08
  2.23026885E-01 -7.70462030E-08  7.59890623E-08 -1.94228424E-07  1.52236356E-01
 -1.91846933E-02  4.67016187E-04 -6.77443186E-04 -1.67749088E-02 -1.06673022E-08
  1.82628961E-03 -1.00137462E-04 -4.01439745E-03 -3.97525702E-09  1.22627162E-03
 -1.78703884E-02 -1.75496379E-03  7.45425098E-03  1.18157143E-02  2.09145096E-08
 -1.48992649E-03  1.66499118E-03  2.86923601E-03  1.02569619E-08 -5.51382621E-04
  1.03423545E-03 -1.12816432E-02 -1.60154571E-02 -5.50241091E-04  4.02546644E-04
 -1.40523306E-08 -1.13456347E-02 -1.17756226E-03  8.61673791E-04 -1.13332066E-08
  3.48467430E-05  1.75109895E-04  9.16139713E-04  2.39059698E-03 -4.04174012E-03
 -1.81666351E-02  6.96322383E-03 -1.29804275E-08 -6.03150035E-03 -4.59007875E-03
  1.86050667E-03 -7.89767191E-09 -3.41988810E-04 -7.28056925E-06  2.55138655E-04
  1.66857027E-03 -4.30390886E-09  8.33947955E-09 -3.88428906E-08 -1.75394695E-09
 -6.12844093E-03  1.17781881E-08 -1.22576452E-08  6.28218976E-11 -3.92778547E-03
 -1.60206463E-10 -1.23638374E-09  5.93250426E-10  1.43431871E-09  3.97613040E-04
 -6.18420174E-09  1.63873565E-08 -1.43811748E-08 -7.46045983E-09  4.48473831E-03
  1.40747092E-08 -1.59666606E-09 -8.28454640E-09  2.87428560E-03 -3.75400048E-10
 -5.38257863E-10 -3.07071370E-11  1.63662566E-10  2.27079866E-04  5.41787487E-04
  1.70284206E-02 -3.42890843E-02  7.32765009E-02  3.16320685E-02  1.36004861E-07
  3.64322123E-03  8.88507028E-03  6.89492756E-03  5.96970473E-08 -5.05527361E-03
  1.41563099E-03  1.89240010E-03 -4.34608833E-03 -1.39687410E-08 -6.44901894E-09
  2.05262794E+00 -3.42891544E-02  5.98179527E-02 -1.49626685E-01 -6.93762591E-02
 -3.13794324E-07  2.52181913E-02 -3.70581474E-02 -9.99993233E-03 -1.58694816E-07
  8.95124005E-03 -4.40576067E-03 -4.34233772E-03  8.25264261E-03  2.79070251E-08
  1.06761495E-08 -6.34972656E-02  3.29775198E-01 -7.27628764E-02  1.52111279E-01
 -2.63767117E-01 -1.25782429E-01 -3.88667072E-07  1.07527185E-01 -6.52525022E-02
 -6.62391534E-02 -1.63597077E-07 -5.17309563E-04 -5.71029837E-03 -5.39990526E-03
  9.95908817E-03  3.44899710E-08  1.96967298E-08  4.64964925E-05  6.47413536E-04
  4.20620763E-01 -3.27952889E-02  6.37399897E-02 -1.20557215E-01 -3.89136325E-02
 -3.86021508E-07  8.38377429E-02 -3.48955956E-02  7.06525598E-03 -2.22847447E-07
  1.00056470E-02 -1.17457772E-02 -3.25170516E-03 -5.29469701E-03  2.12749463E-08
 -3.19615021E-09  4.26293663E-04  5.96831841E-03  1.83953489E-04  4.22304113E-01
 -6.22669599E-08  1.23714131E-07 -2.98346645E-07 -3.07821959E-07  2.14081269E-01
 -1.13704150E-07 -2.34225111E-08 -1.65789033E-07  1.40116737E-01  3.03897958E-08
 -2.93606537E-09 -3.26186393E-08  9.50665088E-09 -1.13176308E-02 -5.44073311E-03
  1.28283943E-08 -4.44701984E-08 -6.68625270E-08  7.02856447E-08  3.29570460E-01
  3.64375821E-03  2.52171048E-02 -1.34408926E-01 -2.28962894E-02 -1.11372425E-07
 -5.40028522E-03 -2.94877857E-02  5.22930586E-03 -1.68443886E-08  5.73425486E-03
 -3.08689586E-03 -2.27912162E-03  9.89048320E-03  2.46687193E-08  1.08162414E-08
 -1.67204910E-01  2.56521493E-01 -1.04483134E-03 -9.62144746E-03 -7.07566785E-08
  2.26588991E-01 -1.10821170E-02  3.23682272E-02 -7.61592091E-02 -5.62823164E-02
 -9.44625568E-08  1.60177662E-02 -1.71918413E-02 -2.46349818E-02 -3.08607218E-08
  5.59078403E-04 -2.33565146E-03 -1.06892791E-03  3.62525920E-03  8.50491224E-09
  5.63622729E-09  4.47089411E-04 -2.94138783E-03  1.30185838E-01 -9.11218424E-04
  3.34106526E-08 -2.26483108E-03  4.64919927E-02 -1.91371129E-03  2.06281530E-02
 -2.49358425E-02  1.79755548E-02  2.74525541E-08  2.53046357E-02 -5.61237516E-03
  1.04184855E-02  4.04348247E-08  1.24906313E-03 -2.60701254E-03 -9.17712447E-04
 -1.65609182E-03  6.40822175E-09  3.11763849E-10  4.11983321E-03 -2.71029665E-02
 -9.11372363E-04  1.21893361E-01 -2.41435993E-08 -2.08666081E-02 -6.57871001E-04
  4.05065066E-02 -6.02620647E-09  3.36814871E-08 -1.14749074E-07 -1.32618096E-07
  1.40116798E-01 -1.42285778E-07  1.50429054E-08 -9.92203359E-08  9.27150022E-02
  1.26912830E-08  5.56864560E-09 -1.94884120E-08  8.55368782E-09 -7.65313759E-03
 -4.25124507E-03  2.59392576E-08 -1.17517349E-07 -5.64212312E-08 -1.30896464E-07
  2.23027229E-01 -8.42679220E-08  2.13119996E-08 -4.49882264E-08  1.52236938E-01
 -5.27354269E-03  8.78221878E-03  1.21446238E-03 -8.20164080E-03 -2.23143172E-08
  9.45213735E-03  2.65842897E-04 -3.09470301E-03 -1.28157317E-08  4.23057572E-04
 -4.11739253E-04 -3.73554510E-04 -5.93570136E-04  1.48456630E-09  9.38814414E-10
 -1.64060333E-02 -4.23069080E-03  4.46351146E-03  1.20498800E-02 -2.47772788E-08
 -5.18438741E-03  1.09348020E-03  3.19344279E-03 -2.35031908E-08  1.25376661E-03
  1.63400965E-03 -4.23695210E-03  4.26963343E-03  1.16280098E-02  7.42377134E-09
 -6.80492322E-03  1.93494768E-03  3.49137656E-03  2.97356855E-09 -6.65994113E-04
  7.81415616E-04  1.69932136E-04  5.00878547E-04 -5.83268124E-10 -2.31379519E-11
 -2.06489447E-02  2.94259840E-03 -5.36981718E-03 -2.03985818E-02 -2.04663996E-08
  5.52070365E-03 -1.30275286E-03 -5.12123962E-03 -3.39376127E-09 -9.84858389E-04
  1.87368289E-03  1.89241384E-03 -4.34235542E-03  6.04201834E-03  1.79594705E-03
  3.50029693E-08 -2.27918550E-03  1.39846410E-03  1.70771368E-04  1.97458070E-08
 -3.34695256E-04  1.31063900E-04  2.88410904E-04 -3.39658575E-04 -2.49304591E-09
 -8.43803646E-10 -1.12816915E-02 -1.60153511E-02  7.36274868E-05  6.77948159E-04
  3.91873494E-08 -1.13454729E-02  1.57468919E-04  1.45073696E-03  2.92669056E-08
  3.31398974E-04 -1.21438642E-04  9.16129905E-04 -4.11595091E-03  8.43055924E-03
 -1.15045895E-02  5.23172404E-03 -1.78761939E-08  5.97183266E-03 -2.87073108E-03
 -7.97825668E-05 -1.07518012E-08 -5.14698994E-04  1.54042051E-04 -2.98710476E-04
  6.67702677E-04  1.42004020E-09  5.93752745E-10 -5.38117184E-04  9.09733017E-04
  1.59393753E-02 -5.98099205E-03 -1.01510397E-08  1.35769902E-03  3.76382469E-03
 -1.49605367E-03 -4.50523535E-09 -8.23187099E-05  1.60936203E-04 -5.74343887E-05
  1.09059701E-03 -1.45934824E-08  3.02750855E-08 -3.08141729E-08 -1.77772339E-08
  1.16483636E-02  1.51807713E-08 -9.56526125E-10 -2.12994433E-08  8.29933719E-03
 -6.45604827E-10 -8.28301497E-11 -9.73180376E-10 -1.41892876E-10  5.08048704E-05
  3.77442747E-04 -5.01501484E-10 -1.53033699E-09  4.01027057E-08 -8.74607072E-09
  8.19204770E-04  1.07713412E-08  1.15479077E-08  8.37190800E-09  5.25040983E-04
  4.35782548E-10 -2.02912692E-10 -1.80091518E-10  1.23191243E-09  7.02399742E-04
 -3.83575857E-09  8.54259842E-09 -1.56024356E-08  1.03234864E-08  4.69099045E-03
  1.75617849E-09 -2.81533819E-09  4.53512103E-09  2.78639040E-03  5.42319443E-10
 -6.20982400E-12 -1.09210773E-09  9.44164646E-10 -2.69024699E-04 -4.81483106E-05
 -8.61299712E-09  1.50771881E-08 -5.24612424E-09  2.37395777E-09  7.54963440E-03
  9.64353562E-09 -6.95273219E-10 -3.05684967E-09  4.83863560E-03 -1.36203281E-09
  6.57246813E-10  2.55004775E-10 -1.97451693E-11 -5.11206946E-05  2.36993727E-04
 -3.19217690E-03  8.62869955E-03 -1.48914121E-02 -3.58447135E-04 -1.25555750E-08
 -5.88738498E-03 -3.93616569E-05 -8.98955604E-03  4.41654580E-09 -1.78131547E-03
  1.00368681E-03  1.38024611E-04  1.24646221E-03  8.74233556E-10  2.00405598E-09
  1.70286761E-02 -3.42898577E-02  6.40328940E-02 -4.76436932E-02 -5.49560525E-08
  3.64373521E-03  1.04136779E-02 -4.24647735E-03  1.25075924E-08 -3.46165835E-03
 -1.77891539E-04  1.89240352E-03  5.40850548E-03  1.39295746E-08 -6.22192697E-09
  2.05262800E+00  8.62861338E-03 -2.02814738E-02  3.90824970E-02  2.71081597E-03
  1.56242672E-08 -7.74591949E-03  1.09358463E-02  1.34491668E-02 -2.92396996E-09
  3.89184639E-03 -1.78239763E-03  4.21339665E-05 -2.86573970E-03 -4.61204650E-09
 -3.40627370E-09 -3.42898448E-02  5.98196775E-02 -1.34895268E-01  9.48936436E-02
  1.08859533E-07  2.52175776E-02 -2.71892613E-02  2.70918908E-02 -1.08515448E-09
  5.12300157E-03 -5.77683638E-04 -4.34234582E-03 -1.08048287E-02 -2.63927523E-08
  1.37832298E-08 -6.34972234E-02  3.29774997E-01  1.44676439E-02 -3.75907435E-02
  5.00705346E-02  5.45110998E-03  7.19428277E-08 -4.99482488E-02  2.43161668E-02
  3.80667119E-02  4.35307750E-08  9.59128760E-03 -3.70691058E-03 -3.88028077E-04
 -4.57204898E-03 -2.55360281E-08 -2.63804821E-08 -6.47838375E-02  1.31258604E-01
 -2.01794826E-01  1.56338399E-01  6.54717681E-07  1.26366843E-01 -5.48064221E-02
  4.09230276E-02  3.91254733E-07 -7.37319525E-03  2.75219309E-03 -5.51598244E-03
 -1.09141039E-02 -2.60104789E-08  2.94737125E-08  3.92176086E-04  5.49277715E-03
  4.22043946E-01 -3.54501481E-03  1.10327628E-02 -1.49486197E-02  6.83510529E-03
 -1.52528698E-08 -2.99625422E-02  1.62316319E-02 -2.47638365E-03  4.28723074E-08
 -5.14910753E-03  2.29563936E-03  1.15505878E-04  3.14688382E-03  7.88139858E-10
  8.84616757E-09  4.66172728E-02 -9.98631124E-02  1.61562358E-01 -1.00885474E-01
 -2.13517766E-07 -5.12029446E-02  7.22694279E-02 -3.38014803E-03 -3.49501345E-08
 -7.78724387E-03  1.23104596E-02  3.05063050E-03  2.44678022E-03  2.61611340E-08
  2.63584525E-09  1.73151968E-04  2.42274162E-03  6.35590633E-04  4.20882430E-01
 -1.20183768E-08  6.34695525E-09 -1.43745450E-07 -1.62062811E-08 -1.68926168E-02
 -2.04602616E-09 -1.12716778E-07  8.72163405E-08 -2.57011011E-02  3.43959422E-09
  5.41715258E-09 -1.83478003E-08  3.20651922E-08 -8.61666095E-03 -7.41726865E-03
  1.40684462E-07 -2.70090999E-07  4.28133061E-07 -3.98121494E-07  2.14084035E-01
 -4.72018611E-07  1.61947504E-07 -3.31355616E-07  1.40118295E-01 -2.14443937E-08
 -1.26448763E-09  4.40143860E-08  2.84326270E-08 -1.03708242E-02  7.08094610E-03
 -1.74005571E-08  3.07671208E-08 -1.15929717E-07 -1.44132324E-09  3.29570595E-01
 -5.88695646E-03 -7.74690433E-03  4.23568166E-02 -3.99840686E-02 -1.67481593E-07
  7.98969250E-03  1.39047361E-02 -8.10266190E-04 -1.32423361E-07  4.90461605E-03
 -3.62809205E-03 -2.64084163E-05 -3.23644167E-03  4.69219457E-10  3.51358827E-09
  3.64383336E-03  2.52175184E-02 -8.70338854E-02  1.04953931E-01 -3.86573820E-08
 -5.40165469E-03 -1.02150516E-02  2.81504646E-02 -1.16955688E-07  6.53626723E-03
 -3.88898037E-03 -2.27905746E-03 -9.35585667E-03 -2.80321952E-08  8.56321156E-09
 -1.67204906E-01  2.56521068E-01 -8.85478188E-03 -3.90592116E-03  1.29186118E-07
  2.26588769E-01 -1.89011073E-03 -7.79599668E-03  1.17041480E-02 -1.93482343E-02
 -1.35782792E-07 -1.37549299E-02  6.17114941E-03  2.70237930E-03 -1.08045354E-07
  3.44467829E-03 -1.71843600E-03 -1.93616486E-04 -1.57600564E-03 -1.47152051E-08
 -1.72140246E-08 -7.19785438E-03  3.40478608E-02 -4.07268013E-02  4.53914982E-02
  3.71127143E-07  2.99214643E-02 -9.58132819E-03  1.00047879E-02  2.30197910E-07
 -1.94510758E-03 -1.19207170E-04 -1.32915564E-03 -2.58267111E-03 -2.22942183E-08
  1.36704428E-08  3.79148917E-03 -2.49428347E-02  1.23177098E-01 -3.13403636E-03
  3.77667276E-07 -1.92035232E-02  4.14331471E-02 -8.78829139E-03  1.54814514E-02
 -4.11812057E-02  1.01347160E-02 -7.26746719E-08  2.19249353E-03 -3.51560884E-03
  2.47265888E-03 -2.96233734E-08 -1.68296770E-03 -1.55238170E-04 -2.85127857E-04
  2.86114086E-03  3.71911430E-09  3.57642247E-09  8.64093050E-03 -1.77184100E-02
  7.67383706E-02 -1.74576481E-02 -5.24221717E-08 -1.21995182E-03  2.90283546E-02
  2.80814993E-03 -1.25016837E-08 -2.40122710E-03  3.26082237E-03  4.66912260E-04
  2.27312628E-03  7.25617844E-09  3.37551361E-09  1.67267041E-03 -1.10038918E-02
 -3.13522036E-03  1.28902199E-01  8.38367163E-08 -8.47169373E-03 -2.26269986E-03
  4.55651588E-02  3.59298582E-08 -7.17755003E-08  1.64405123E-08  7.23652207E-08
 -2.57012054E-02 -8.45384488E-08 -3.17637674E-08  1.30260157E-07 -2.63269271E-02
  6.90628356E-09  4.46962610E-09 -1.07352586E-08  1.93748090E-08 -5.71408105E-03
 -5.67021265E-03  3.59126433E-08 -8.92779567E-08  5.60580379E-08 -1.97674665E-07
  1.40118391E-01 -2.01717119E-07  4.69462376E-08 -1.93820354E-07  9.27158243E-02
 -2.52731632E-08  9.28863272E-09  2.42961924E-08  8.12082830E-09 -7.50835896E-03
  4.50215107E-03 -1.33935477E-08  6.68687708E-08  3.08877302E-07  8.92754517E-08
  2.23026634E-01  9.25202299E-08  3.58836800E-07  7.84606820E-08  1.52236062E-01
 -2.10549888E-03  4.67070700E-03 -1.16671588E-02 -3.52771288E-03 -1.52407756E-08
  5.68656243E-03 -4.25995523E-03 -1.77862725E-03 -1.06096325E-08  2.47856080E-04
 -4.15179800E-04 -1.91305885E-04  2.52751244E-04  1.15695304E-09  7.64368889E-11
 -3.17990183E-03  5.34091219E-03  6.61361287E-03  9.73383860E-03  1.95767557E-08
  1.73836641E-03  1.22819655E-03  1.44286327E-03  3.79326649E-09  8.00102671E-04
 -9.81210299E-04 -1.89974370E-04  3.25170679E-04 -8.49783144E-10  3.18018706E-10
 -1.99919135E-02  1.83179763E-03 -1.00033338E-02 -1.62176636E-02  3.58854155E-08
  3.86285464E-03 -2.54708099E-03 -3.91763174E-03  8.32411421E-09  1.52664252E-03
  1.32792162E-03 -2.56135087E-03  5.30765938E-03  2.00307948E-03  1.20457123E-08
 -4.41007280E-03  2.17950384E-03  3.53549386E-04  7.59059687E-09 -2.81985601E-04
  3.82754382E-04  1.04428283E-04  1.14440825E-04 -1.35079794E-09 -5.88799601E-10
 -4.59656436E-04 -7.95589916E-04 -9.04222089E-04 -1.27698599E-02  8.15148467E-09
  9.08952324E-04  2.15729553E-04 -3.15036987E-03  1.36395836E-08 -6.53092351E-04
  9.60933136E-04 -1.36509166E-05  2.74821711E-05  1.20489773E-10  4.44812297E-10
 -1.70631234E-02 -3.11985867E-03  2.32008528E-03  1.28281361E-02  1.29105882E-08
 -3.52654796E-03  7.72929215E-04  3.13493159E-03  1.53614105E-08 -7.33829394E-04
  1.09875293E-03  1.38018246E-04  4.21536246E-05  4.03747768E-04  2.95277785E-05
 -1.29597185E-08 -2.64488459E-05  1.27967093E-04 -3.20058401E-04 -7.51594391E-09
 -1.87864694E-04  1.00981246E-04  4.17639756E-05  4.61098353E-05  8.21270184E-10
  3.50070497E-10  1.89239228E-03 -4.34232670E-03  4.57650682E-03 -4.33446080E-03
 -3.02809516E-08 -2.27906734E-03  8.47146915E-04 -1.12561518E-03 -1.60343405E-08
 -2.40115991E-04  3.64906376E-05  2.88407014E-04  4.02717963E-04  1.26531113E-09
 -1.42515490E-09 -1.12817053E-02 -1.60153788E-02  6.23888305E-04  2.75154063E-04
 -2.54001908E-08 -1.13454722E-02  1.33511463E-03  5.88995876E-04 -1.71673659E-08
 -5.13046056E-05  2.61265722E-04  9.16132029E-04 -4.57806924E-04  1.22888807E-03
 -1.13809728E-03 -8.30925129E-04 -2.25666962E-08  8.73800559E-04 -6.55382277E-04
 -2.13723803E-03 -1.71528398E-08 -3.91499688E-04  5.85282720E-05  2.80318133E-05
  5.27029059E-05  7.48172607E-10  6.56250773E-10  5.51176146E-03 -1.07249258E-02
  9.96106255E-03 -2.65499439E-03 -2.51382647E-08 -1.11143956E-02  4.02135283E-03
 -2.99190271E-04 -1.66613651E-08  4.77904544E-04 -2.45526850E-04  4.21094822E-04
  2.96682539E-04 -5.45137850E-10 -9.58136180E-10 -1.85238126E-03  3.13169268E-03
 -1.79039586E-02  4.54304603E-03  3.58309755E-08  4.67367963E-03 -4.49248653E-03
  9.62719087E-04  6.18257813E-09  4.24306668E-04 -1.53663403E-04 -1.97702619E-04
  1.42531060E-03  1.17239015E-09 -7.14938639E-10  3.10580761E-09  7.40542009E-10
  6.82456947E-03 -1.34804587E-08  5.54489939E-09 -4.94649477E-10  4.36444262E-03
 -2.56902329E-11  8.54568292E-10 -7.48356743E-10  2.39983874E-10 -3.40519181E-04
 -1.09790265E-04  8.87323260E-09 -1.66965624E-08  7.17075717E-09 -2.63009207E-08
  9.88675764E-03 -4.12632644E-09  3.60095095E-09 -6.23473579E-09  6.56281251E-03
 -3.90435381E-09  2.08082423E-09  2.10454276E-09  6.14982762E-10  2.35201010E-05
  2.53279140E-04  2.67894687E-08 -5.55551502E-08  6.06539334E-08  4.41644970E-08
  6.94793648E-03 -5.08207134E-08  2.66959874E-08  1.47786914E-08  4.45300134E-03
 -3.56392699E-09  2.91148286E-09  2.02825296E-09 -2.96645019E-09  3.09077083E-04
  4.19206166E-09 -8.90197069E-09  2.04021393E-08  1.96426265E-08 -9.09326853E-03
  3.42935125E-09  1.18159961E-09  2.09592630E-08 -6.76415181E-03  4.35603405E-10
 -2.32003412E-10  6.48280466E-10 -5.63936088E-10  2.19788145E-04  1.60213728E-04
 -1.19021114E-08  2.36946549E-08 -2.62718558E-08  6.72539461E-09 -7.74237835E-03
  1.52388166E-08 -1.14356711E-08 -7.48555503E-09 -5.79433872E-03 -1.40990830E-09
  1.65712134E-09 -1.20110316E-09 -2.89477580E-10 -3.93173874E-04 -2.08804117E-05
  6.98999491E-09 -1.32668717E-08  5.17663106E-08  1.07002174E-09  3.06514330E-03
 -2.51336529E-09  2.15931899E-08  3.81439802E-09  1.96445892E-03 -1.61704704E-09
  5.08820379E-10  1.01105661E-09 -2.19745017E-09 -1.75969911E-04  6.30323229E-04
 -3.62390460E-03  6.17115787E-03 -6.83440848E-03  5.00086290E-03 -1.81536283E-08
  2.73845473E-02 -1.07465454E-02  7.86370196E-03 -1.98604346E-08  4.02834180E-05
 -1.10498248E-04 -4.37695510E-04 -2.74241260E-04  1.77189424E-09  2.83319395E-11
 -3.19217881E-03  8.62868035E-03 -7.75605916E-03  1.27171516E-02 -5.18074123E-09
 -5.88705381E-03 -7.80463774E-03 -4.46047056E-03 -3.29507901E-08  1.24232097E-03
 -2.01990144E-03  1.38033030E-04  7.69272238E-04 -2.71821095E-09 -1.65272136E-09
  1.70285525E-02 -3.42894439E-02 -9.24405531E-03 -7.92757159E-02  3.12999249E-08
  3.64422309E-03  1.52904389E-03 -1.11417371E-02 -8.12067564E-09  3.05752220E-03
 -6.69708630E-03  1.89243573E-03 -1.06235046E-03 -3.69472417E-09  4.78586499E-09
  2.05262798E+00  6.17115666E-03 -1.28373808E-02  1.47365564E-02 -1.07829837E-02
  1.96248643E-08 -3.95845201E-02  1.46917833E-02 -1.07505079E-02  2.36115544E-08
 -2.81978153E-04  2.45210254E-04  5.15382087E-04  9.58851095E-04 -3.32942385E-09
 -1.81089079E-09  8.62871486E-03 -2.02816699E-02  2.18888418E-02 -3.24913548E-02
  1.45188674E-08 -7.74668016E-03  1.71147846E-02 -2.74650699E-03  6.03436723E-08
 -2.51320683E-03  4.62258174E-03  4.21247982E-05 -1.40423310E-03  3.43010472E-09
  1.07018384E-09 -3.42893752E-02  5.98184373E-02  1.47318107E-02  1.64268661E-01
 -3.01707485E-08  2.52163183E-02  9.86805010E-03  3.70923833E-02  1.47547026E-08
 -7.25608219E-03  1.18014198E-02 -4.34239604E-03  2.55202329E-03  8.59031503E-09
 -9.41493305E-09 -6.34969564E-02  3.29773970E-01  6.83433242E-03 -1.47363891E-02
  4.40150436E-03 -2.90613269E-02 -2.39413244E-07 -4.49116645E-02  1.05006899E-05
 -1.96864488E-02 -2.05361083E-07  1.43520558E-03 -1.39159669E-03  1.31190167E-04
  9.00579765E-04  2.49406077E-09  2.70907485E-09  4.16378695E-03 -9.24092203E-03
  1.35314448E-02 -6.14739808E-03 -4.57823925E-08 -5.09241743E-02  2.77339857E-02
 -1.42587049E-02 -7.14768438E-08  5.14473667E-04 -4.35566021E-05 -9.40386305E-05
 -3.20476034E-04 -2.14376383E-08  9.51184466E-10  7.97976193E-03 -2.08550527E-02
  1.15416440E-02 -3.83919469E-02  3.58253253E-07  1.88407596E-02  3.27782295E-02
 -2.17033139E-02  1.62545658E-07  3.91677185E-03 -2.31015127E-03 -1.16192931E-04
  1.29029248E-02 -1.12732586E-08 -2.36838005E-09  3.46182792E-04  4.84351760E-03
  4.21722708E-01 -5.00096631E-03  1.07832270E-02 -2.90616957E-02 -1.40486114E-02
 -1.18064473E-07  3.28620779E-02 -1.96861973E-02 -1.24885554E-02 -1.20738462E-07
  2.11608228E-03 -2.14795622E-03 -9.59942279E-05  5.01546672E-04  5.46044901E-09
 -3.15516162E-09 -1.43018421E-02  3.80707539E-02 -2.65471067E-02  4.33740441E-02
  7.27966414E-08  2.82761225E-02 -3.60933058E-02 -5.89305004E-03  7.69562266E-10
  4.69817309E-03 -1.12208620E-02  3.93779983E-04  4.85305549E-03 -1.03876174E-08
 -9.96828370E-09  7.94128408E-02 -1.63604063E-01 -3.31672739E-02 -3.14222775E-01
  9.55252047E-08 -1.35038297E-01  9.64256007E-03 -9.09642596E-02 -6.45432949E-08
  1.14581949E-02 -5.19462865E-03  6.30235059E-03 -4.69758761E-03 -9.82672222E-09
  7.42615539E-09 -2.53084873E-04 -3.54496073E-03 -8.20673512E-04  4.21202445E-01
  2.76990893E-08 -9.35704826E-08  2.25656700E-07  2.11335758E-07 -1.32380184E-01
  1.40878240E-07 -5.41787177E-08  3.30362546E-07 -1.08610983E-01  7.23939798E-09
 -3.76039842E-09  7.92945039E-10 -2.76554403E-09 -7.26490798E-04  5.31567425E-04
 -1.25819542E-08  7.47469967E-08 -7.77535956E-08  1.03233999E-08 -1.68923831E-02
 -1.61578283E-07 -5.99354250E-08 -2.46085296E-07 -2.57015451E-02 -2.04007439E-08
  1.67654662E-08  1.08346884E-08  5.21933480E-09 -1.07318519E-02  3.75359808E-03
 -4.04876620E-08  9.16248290E-08  5.02572726E-07  2.49261920E-07  2.14082159E-01
  2.77785211E-07  4.21500864E-07  1.66831307E-07  1.40116570E-01 -6.19090412E-09
  1.44261185E-08 -1.09468296E-08 -4.17462983E-09  9.46897270E-04  1.25218497E-02
  2.17350855E-09 -5.23975216E-09 -1.13278347E-07 -6.28236406E-08  3.29570621E-01
  2.73845436E-02 -3.95845242E-02  4.49117025E-02 -3.28621627E-02  2.46361660E-07
 -6.42787986E-02  2.00913009E-02 -1.47011994E-02  1.76555416E-07  7.74854780E-04
  9.77250381E-04  1.36642826E-03  3.68013310E-04 -1.07547004E-08 -2.14870881E-09
 -5.88732342E-03 -7.74615294E-03 -1.34486522E-02 -5.66737629E-02  1.64195294E-07
  7.98922626E-03  6.25042802E-03 -1.24473564E-02  1.72089972E-07 -3.92232987E-03
  5.19886196E-03 -2.64721566E-05 -2.64808041E-03  9.57238633E-09  1.20646269E-09
  3.64391215E-03  2.52169121E-02  4.73761004E-02  1.27849838E-01 -1.24415379E-07
 -5.40231825E-03  1.92724747E-02  2.29217285E-02 -2.19826418E-08 -8.29950887E-03
  1.09468503E-02 -2.27916790E-03 -5.34668542E-04  2.05466580E-08 -1.02865232E-08
 -1.67205520E-01  2.56521927E-01 -7.80776938E-03  5.71604464E-03 -1.39901409E-07
  2.26590451E-01  1.07466068E-02 -1.46918644E-02  1.04578148E-05 -1.96861261E-02
 -1.43529286E-07 -2.00912736E-02 -1.72535444E-03 -5.61638985E-03 -1.20441871E-07
  1.83501797E-03 -1.25572844E-03  2.99097361E-04 -2.96683084E-05  2.66453926E-09
  3.61275494E-09 -8.55625562E-03  9.51005604E-03 -1.56831881E-02  2.53703512E-02
 -4.79352656E-08 -4.97919787E-03  3.04541378E-03  1.71065148E-03 -7.05051176E-08
  5.88327251E-04 -1.31716924E-03 -3.43774337E-04 -1.47421622E-03 -1.27150452E-08
  2.02561273E-09  3.88381592E-03  1.68027588E-03  2.96101637E-02 -3.61294341E-02
  1.19124770E-07  1.39051398E-02  1.66133532E-02 -1.39052583E-02  7.02560229E-08
  1.81820487E-03 -2.10594314E-03 -2.60308474E-04  2.56961085E-03 -5.55412496E-09
  9.84928869E-09  3.34371417E-03 -2.20001387E-02  1.24757709E-01  4.04624104E-03
  1.45174700E-07 -1.69368788E-02  4.25736083E-02 -7.86361152E-03  1.07503952E-02
 -1.96865678E-02 -1.24884269E-02 -1.25661417E-07  1.47011778E-02 -5.61659785E-03
 -5.29150262E-03 -9.50984665E-08  1.58760763E-03 -2.01147418E-03 -2.18850810E-04
  1.09577958E-03  2.46944460E-09 -2.65066734E-09 -2.75715389E-03  1.44920272E-02
  3.53587304E-03  3.75216921E-02  5.48374150E-08  1.30082608E-02 -4.50741316E-03
  5.59859695E-03  1.33622626E-08  2.19842811E-03 -4.61250269E-03  2.51543077E-05
  1.21993798E-03 -7.78600833E-09 -1.59114208E-09  1.05544555E-02 -3.83462263E-02
 -4.78376669E-03 -8.77954007E-02  1.08870233E-07 -2.65235982E-02  5.11776031E-03
 -2.33866879E-02  3.98017083E-08  3.95121297E-03 -1.73363286E-03  1.38460741E-03
 -1.06175514E-03 -4.46054733E-09  2.55974017E-09 -2.44658795E-03  1.60980306E-02
  4.04461550E-03  1.27324840E-01  3.19973750E-08  1.23941393E-02  2.92015062E-03
  4.44265314E-02  1.84420930E-08 -6.89337395E-08  1.96820342E-07  1.77820878E-07
 -1.08610973E-01  8.57942922E-08 -2.35537310E-08  2.42198281E-07 -8.58488087E-02
  3.05840779E-09 -2.01499550E-09  1.68935631E-09 -6.79734591E-10 -4.96526905E-05
  3.63237381E-05 -8.83662355E-09  4.77558701E-08 -4.93975013E-08 -3.09107916E-08
 -2.57017965E-02 -1.23729001E-07 -3.15990301E-08 -1.79227210E-07 -2.63278154E-02
 -1.45295474E-08  1.54120681E-08  5.09575343E-09  4.91473754E-09 -7.76754969E-03
  2.11341342E-03 -1.72498947E-08  3.64735255E-08  3.34800843E-07  1.86295769E-07
  1.40116403E-01  1.86584107E-07  2.95104632E-07  1.17113557E-07  9.27141649E-02
 -5.45726923E-09  1.00761975E-08 -5.13088591E-09  3.01191846E-09  1.44796257E-04
  8.75351563E-03  7.24251382E-09 -1.13534459E-08  1.01919415E-07 -7.00023788E-08
  2.23026761E-01 -1.18632324E-07  1.46038039E-07  1.64743732E-08  1.52236262E-01
  4.02887967E-05 -2.81987837E-04 -1.43520995E-03 -2.11609236E-03  3.11914878E-09
  7.74827873E-04 -1.83500650E-03 -1.58760678E-03  9.27924693E-10 -1.17537100E-06
  1.23917572E-04 -1.98652956E-05 -2.73528158E-04  9.74716552E-11 -2.74820469E-10
  1.26173080E-04  1.68387345E-04  1.02697332E-04 -1.83483719E-04  4.23981932E-09
 -1.23044068E-03 -1.50459463E-03 -9.58755118E-04  1.76567336E-09  2.00997835E-04
 -4.16986227E-04  5.15106378E-05  2.40884782E-04  2.66229010E-10 -6.60517573E-10
  2.99405926E-03 -7.30506635E-03 -3.68811433E-03 -1.18820743E-02  4.15325224E-10
 -7.21946825E-03 -1.85712586E-04 -4.13122823E-03 -7.99936434E-09  4.78907426E-04
 -1.19011351E-04  2.58085169E-04 -5.09025194E-05 -3.21158574E-10 -3.70258133E-10
 -1.91847439E-02  4.67140352E-04  6.77256092E-04  1.67748928E-02 -1.04835081E-08
  1.82637441E-03  1.00068142E-04  4.01444056E-03 -9.23426126E-09  1.22627375E-03
 -1.10503651E-04  2.45219932E-04  1.39160066E-03  2.14796343E-03 -1.92730775E-09
  9.77274905E-04  1.25573190E-03  2.01149253E-03 -6.49142522E-10  1.23916119E-04
 -1.49486061E-04 -5.61071021E-06  3.78883608E-06  1.88503705E-10  4.82520117E-10
 -9.03838061E-04  1.94115823E-03 -4.60283507E-03  4.92893924E-03 -8.52400476E-09
  2.50703776E-03 -7.69777429E-04  2.04798177E-03 -8.32093685E-09  4.15500842E-05
  1.07877170E-04 -1.38397036E-04 -4.23634334E-04 -5.26330698E-10  6.88439374E-10
 -6.63371398E-03  1.18505882E-02  3.91376987E-03  5.41959338E-03 -1.27279114E-08
  9.86689116E-03 -5.71060351E-04  2.02699835E-03 -7.72018861E-10 -1.92862567E-04
 -4.02929725E-05 -4.61717969E-04 -2.09067406E-04 -1.17746303E-09  8.30289297E-10
 -1.78703468E-02 -1.75508011E-03 -7.45417933E-03 -1.18158647E-02  2.00874802E-08
 -1.49000130E-03 -1.66493942E-03 -2.86930483E-03  1.16924839E-08 -5.51389235E-04
  1.03424606E-03 -4.37695719E-04  5.15382376E-04 -1.31192257E-04  9.59933904E-05
 -5.18456325E-09  1.36642831E-03 -2.99093494E-04  2.18856330E-04 -4.01399125E-09
 -1.98658288E-05 -5.61019678E-06 -1.25950762E-07  2.59294299E-05 -3.09131708E-10
 -5.21710557E-10  1.38024391E-04  4.21359366E-05  2.27492036E-04 -3.34901746E-04
  8.14202282E-09 -2.64282666E-05 -2.13193053E-04 -2.70828595E-04  4.87082266E-09
  6.33576153E-05 -1.50235592E-04  4.17657812E-05  1.21376460E-04 -5.80142814E-10
  4.40472540E-11  1.89243194E-03 -4.34239514E-03 -1.46558514E-03 -6.13071789E-03
  1.76083585E-08 -2.27911596E-03 -5.51277006E-04 -1.29648994E-03  1.05673347E-08
  2.69380741E-04 -4.73006115E-04  2.88413867E-04 -6.30545397E-05  2.06872914E-10
  2.30233308E-10 -1.12816478E-02 -1.60154515E-02  5.50214064E-04 -4.02579206E-04
  2.01191291E-09 -1.13456286E-02  1.17756901E-03 -8.61664656E-04  2.62586555E-09
  3.48397199E-05  1.75116879E-04  9.16139388E-04 -2.74240382E-04  9.58850100E-04
 -9.00559924E-04 -5.01516174E-04 -3.55304159E-09  3.68009996E-04  2.96750934E-05
 -1.09577485E-03 -2.94768344E-09 -2.73524273E-04  3.78531107E-06  2.59295799E-05
  3.20726299E-04  1.44906381E-09  2.15387115E-09  1.94565834E-03 -4.23059788E-03
  7.28286130E-03 -6.25285865E-03 -3.83428273E-08 -5.48522810E-03  3.62239884E-03
 -2.00473743E-03 -2.65243169E-08  1.88351050E-04  1.12187155E-04  1.33852120E-04
  2.67195154E-04  7.81642082E-10 -8.59182387E-10 -1.39572624E-03  2.29413571E-03
 -1.29645872E-02  2.60645624E-03  5.12077692E-10  5.14244520E-03 -3.11778871E-03
  1.10618185E-03 -1.39329446E-08  3.56084889E-04 -2.27810026E-04 -1.22386435E-04
  1.17827694E-03 -2.89490453E-09 -1.64578635E-09  2.39058094E-03 -4.04169751E-03
  1.81666406E-02 -6.96310586E-03 -2.59812186E-08 -6.03147225E-03  4.59003747E-03
 -1.86050793E-03 -7.96065397E-09 -3.41999737E-04 -7.27114753E-06  2.55135985E-04
  1.66856084E-03 -2.97281367E-11  7.16492111E-10  3.83992873E-09  2.27202109E-09
  7.26481141E-04  6.15577618E-09 -1.38730470E-09  2.49691524E-09  4.96353498E-05
 -1.26413602E-10 -2.28325214E-10  3.06812136E-10 -1.03678261E-09  1.59312358E-04
  4.01460697E-04 -1.51601785E-09  2.44781912E-09 -4.12324078E-09  4.72140723E-09
 -4.46269204E-03 -4.37176319E-09 -1.20608218E-09 -2.03732911E-09 -3.67568463E-03
  2.27132688E-10  3.35432304E-10 -1.86981077E-10 -3.52102963E-10  8.26609757E-05
  2.45377285E-05 -3.18947884E-11  1.84395509E-09  2.80422443E-09  4.38731341E-09
 -1.76162203E-03  1.17908927E-08 -1.28104077E-09  2.04751916E-09 -1.73656867E-03
 -1.60842318E-10 -1.09811289E-09  1.59818163E-10  6.73485126E-10 -7.03572162E-05
  3.38979742E-04  1.30547827E-08 -2.99460935E-08  2.14403447E-08 -2.21310221E-08
  6.12858035E-03 -2.58426517E-08  1.43178494E-08 -9.70887086E-09  3.92787521E-03
 -8.74251357E-10  7.82905947E-10  9.63138577E-10  1.94161175E-09  3.97616525E-04
  7.53574064E-11  6.11382368E-10  3.16482932E-09 -2.45544215E-09 -5.31571780E-04
  7.43534222E-09  3.64522401E-10 -3.74018635E-09 -3.63406585E-05 -8.44687407E-11
 -4.01778532E-10  8.75652132E-10 -1.67152344E-09  4.01460377E-04  4.14180829E-04
 -5.14462179E-09  1.19304867E-08 -1.39384599E-08  2.02906279E-08 -1.04569741E-02
  1.74033211E-08 -9.64199363E-09  1.08542098E-08 -7.16183646E-03  1.52307885E-09
 -1.01360585E-09 -1.59721407E-09 -5.49495841E-10  3.54124303E-04 -2.62965897E-04
  6.28043170E-09 -1.26690313E-08 -5.94770319E-09 -1.96063842E-08 -1.24334346E-02
 -1.34027896E-08 -1.62012770E-08 -8.58800788E-09 -8.58074106E-03 -5.25127634E-10
 -7.96483180E-10  1.43353904E-09 -1.79134542E-09 -3.07485842E-04  7.30007868E-05
 -3.42627888E-09  5.05860186E-09 -3.32872205E-08  3.16946405E-08 -4.48455516E-03
  7.89043959E-09 -7.59522299E-09  5.93753817E-09 -2.87416794E-03  1.62975823E-09
 -2.29575705E-10 -1.09298899E-09 -1.49285652E-09  2.27080563E-04  5.41783464E-04
 -3.19218062E-03  8.62870359E-03 -4.16378200E-03  1.43017798E-02  3.12784192E-09
 -5.88725135E-03  8.55608193E-03  2.75699941E-03  5.39510116E-09  1.26177364E-04
 -9.03833571E-04  1.38021524E-04  1.94567100E-03 -1.25700214E-10  1.07021018E-09
 -3.62393579E-03  6.17129301E-03  9.13905111E-04  8.41932527E-03  2.12073747E-08
  2.73846700E-02  1.43686177E-03  1.32385148E-02  2.58559350E-08 -2.78451277E-04
  2.08288593E-04 -4.37665624E-04  6.17221582E-05  5.86895994E-10  3.06165224E-09
 -3.19217192E-03  8.62876206E-03  7.13534395E-03  1.30755411E-02 -7.32915539E-09
 -5.88700852E-03 -7.76546082E-03  4.52888517E-03  2.87180780E-08 -6.27391400E-04
 -1.50197534E-04  1.38058281E-04 -2.01575433E-03  2.66644021E-09  2.21717932E-09
  1.70286043E-02 -3.42894800E-02 -7.32768220E-02 -3.16322859E-02  6.41204379E-08
  3.64307128E-03 -8.88490513E-03 -6.89498898E-03  9.81952693E-09 -5.05523731E-03
  1.41565411E-03  1.89241783E-03 -4.34608311E-03  2.81105437E-09  3.06204701E-09
  2.05262793E+00  8.62870228E-03 -2.02816863E-02  9.24090900E-03 -3.80706356E-02
  2.44889619E-08 -7.74635914E-03 -9.50973537E-03 -1.44917840E-02  1.16226052E-08
  1.68381016E-04  1.94115498E-03  4.21421508E-05 -4.23062358E-03 -6.32124167E-10
 -1.38834785E-09  6.17129423E-03 -1.28378308E-02 -1.97069954E-03 -1.81542010E-02
 -1.45405437E-08 -3.95850862E-02 -1.96441972E-03 -1.80985890E-02 -2.44755709E-08
  8.32487487E-04 -8.69342781E-04  5.15325117E-04 -2.15802874E-04  4.58949083E-11
 -4.52574277E-09  8.62878894E-03 -2.02820409E-02 -1.71941019E-02 -3.52023292E-02
  2.68647386E-08 -7.74702671E-03  6.17934338E-03 -1.61954403E-02 -4.42663694E-08
  1.78546576E-03  3.23937923E-04  4.20743789E-05  4.27004049E-03 -4.72934261E-09
 -5.44867809E-09 -3.42895500E-02  5.98186949E-02  1.49627177E-01  6.93766334E-02
 -1.39091077E-07  2.52185754E-02  3.70578770E-02  1.00001427E-02 -3.63314652E-08
  8.95117336E-03 -4.40580458E-03 -4.34237169E-03  8.25263443E-03 -3.69387695E-09
 -4.78501634E-09 -6.34972075E-02  3.29775042E-01  7.75611157E-03 -2.18889354E-02
  1.35313917E-02 -2.65470670E-02  9.55052141E-08  1.34487208E-02 -1.56828659E-02
  3.53633682E-03  9.81383299E-08 -1.02741671E-04  4.60286244E-03 -2.27488747E-04
 -7.28292317E-03 -8.47632382E-09 -1.25920863E-08 -9.13773049E-04  1.97039079E-03
 -3.46043849E-02  6.54184638E-03  1.05877359E-07  6.00447175E-03 -2.64129540E-02
  4.43058754E-03  8.31606459E-08 -6.16019443E-04  6.10230579E-04 -1.75217519E-05
 -2.99543862E-03  7.57754565E-09  7.66367352E-10 -1.03039773E-02  2.83502824E-02
  2.17566739E-02  3.12962535E-02 -1.43171641E-07 -9.73624424E-04 -1.92900607E-02
  8.94522387E-03 -1.02271422E-08 -3.19103193E-03 -2.22224734E-03  2.94074112E-04
 -9.05390176E-03  1.29071377E-08  8.56235215E-09  7.27632688E-02 -1.52111927E-01
 -2.63766859E-01 -1.25782925E-01  2.43467949E-07 -1.07527569E-01 -6.52516117E-02
 -6.62387914E-02  4.66779052E-08  5.17375922E-04  5.71032117E-03  5.39995129E-03
 -9.95908788E-03  7.65178985E-09  8.75940458E-09 -4.62541390E-05 -6.47787557E-04
  4.20620762E-01 -1.27171934E-02  3.24914469E-02 -6.14733836E-03  4.33740616E-02
  6.17915366E-09  5.66741773E-02  2.53700935E-02  3.75215572E-02  7.55768899E-09
  1.83484961E-04 -4.92894118E-03  3.34898729E-04  6.25290719E-03  8.87254659E-09
  2.32002667E-08 -8.41933970E-03  1.81542339E-02  6.54221525E-03  2.49574536E-02
 -2.20342939E-07  5.53264247E-02  4.43163560E-03  1.39343575E-02 -1.85496432E-07
 -3.44589944E-04  2.91054734E-04 -1.61522996E-04  4.22609951E-04  2.06622073E-09
  8.20839861E-09 -1.07568519E-02  2.70384770E-02  1.08960868E-02  3.51492472E-02
 -4.29739173E-08  5.82393436E-02 -1.28906565E-02  4.11299433E-02  1.79752381E-08
 -1.67559989E-03 -1.99357116E-03  2.78396608E-04 -5.09016969E-03 -1.13916226E-09
  2.64903621E-08  3.27953850E-02 -6.37401351E-02 -1.20557199E-01 -3.89129358E-02
  4.45779775E-07 -8.38372894E-02 -3.48952726E-02  7.06498932E-03  2.98388733E-07
 -1.00056598E-02  1.17458318E-02  3.25172401E-03  5.29472999E-03  1.12095377E-08
 -3.48592697E-09 -4.26301458E-04 -5.96831077E-03  1.84515385E-04  4.22303852E-01
  1.06379916E-08 -3.56672186E-08  6.86066113E-08 -7.17563362E-08 -1.68923191E-02
  1.56622211E-07 -9.97754191E-08  2.62663021E-08 -2.57019619E-02  1.55656711E-09
 -6.32009809E-09  1.02846332E-08 -3.00275440E-08  4.46265346E-03  1.04569163E-02
 -2.25329973E-08  9.41439535E-08 -4.33757644E-08  1.51009407E-07 -1.32380634E-01
 -1.27608350E-07 -6.44335894E-08 -1.06121463E-07 -1.08611246E-01  1.30084722E-08
 -5.19554994E-09 -3.84059455E-09 -2.64328766E-09  9.71854494E-05  8.94969295E-04
 -3.55656805E-10 -2.40118768E-08 -5.22607595E-08 -5.46935399E-08 -1.68923116E-02
  1.81441362E-07  1.80315084E-09 -2.08964258E-08 -2.57014044E-02  4.50282569E-09
 -1.07494213E-08  1.37508543E-09  1.43154553E-08 -2.11527127E-03  1.11709645E-02
  1.22636623E-08 -5.62172752E-08  2.51196547E-07  1.56324794E-07  2.14083654E-01
 -8.76201269E-08  2.71545358E-07 -3.84232225E-09  1.40118238E-01  1.68748656E-08
 -1.37033191E-09 -1.10075361E-08  9.08840839E-09  1.13176796E-02  5.44074538E-03
 -8.61693756E-09  3.45934723E-08  6.13884512E-09 -1.23519746E-07  3.29570213E-01
 -5.88714359E-03 -7.74645598E-03  5.09236757E-02 -2.82759131E-02 -1.64147468E-07
  7.98924165E-03  4.97938579E-03 -1.30080697E-02 -1.14149100E-07 -1.23047676E-03
  2.50704645E-03 -2.64358190E-05 -5.48525633E-03  3.55749623E-11 -5.55223888E-09
  2.73846444E-02 -3.95850299E-02 -6.00438146E-03 -5.53263860E-02 -2.24292252E-07
 -6.42784147E-02 -2.68595474E-03 -2.47496226E-02 -1.38715781E-07  1.20258739E-03
  5.49458018E-04  1.36636956E-03 -8.27811729E-05 -6.10838176E-09 -1.09630562E-08
 -5.88716628E-03 -7.74670921E-03 -5.58052552E-02 -1.66900392E-02  2.61271952E-08
  7.98927891E-03 -7.65374460E-03 -1.16366948E-02 -4.74627840E-08  9.32411853E-04
  3.44087303E-04 -2.65110105E-05  5.88459324E-03 -1.35360176E-08 -6.05531768E-09
  3.64358925E-03  2.52175305E-02  1.34408875E-01  2.28968452E-02 -1.47356211E-07
 -5.40021571E-03  2.94873443E-02 -5.22920169E-03 -1.99139693E-08  5.73420179E-03
 -3.08691149E-03 -2.27914457E-03  9.89044129E-03 -2.64533750E-09 -8.54452255E-09
 -1.67204909E-01  2.56521381E-01  1.04520486E-03  9.62138868E-03 -8.96677708E-08
  2.26588872E-01  7.80487418E-03 -1.71151937E-02  2.77338268E-02 -3.60938200E-02
  2.23492106E-08 -6.25072838E-03  3.04541468E-03 -4.50736405E-03  2.70853646E-08
  1.50459186E-03  7.69798437E-04  2.13206035E-04 -3.62242380E-03 -6.80851884E-09
 -6.41222781E-09 -1.43696281E-03  1.96454599E-03 -2.64130018E-02  4.43149102E-03
  8.52729381E-08  2.68597691E-03 -9.26412395E-03  1.26372031E-03  6.12356908E-08
 -5.03702378E-04  4.26270534E-04 -3.99736572E-05 -2.79822944E-03 -8.23546101E-10
  1.37503220E-09 -6.66576368E-03  1.73053487E-02  3.67375834E-02  2.67282559E-02
 -2.69830526E-08  8.77594070E-03  3.74939694E-03  4.91375012E-03  3.89565517E-08
 -2.70074071E-03  2.45713282E-04 -1.50097198E-04 -3.58525487E-03  9.23986882E-09
  5.85349611E-09  1.10820607E-02 -3.23682216E-02 -7.61586102E-02 -5.62816777E-02
  1.34876854E-07 -1.60175607E-02 -1.71913754E-02 -2.46347202E-02  5.63394639E-08
 -5.58997692E-04  2.33561247E-03  1.06893116E-03 -3.62526217E-03  2.30393963E-09
  3.51039717E-10 -4.47256182E-04  2.94191071E-03  1.30185572E-01 -9.11940547E-04
  1.67105919E-09  2.26525838E-03  4.64918528E-02  4.46051492E-03  2.74639141E-03
 -1.42585124E-02 -5.89313563E-03  8.41639898E-08  1.24472966E-02  1.71068107E-03
  5.59859239E-03  4.65511223E-08  9.58767720E-04 -2.04798865E-03  2.70837974E-04
  2.00476093E-03  8.90216309E-09  2.19677329E-08 -1.32384746E-02  1.80985227E-02
  4.43061717E-03  1.39343162E-02 -1.67333289E-07  2.47495962E-02  1.26392219E-03
  2.24683971E-03 -1.56393437E-07  2.92702198E-04 -1.00623949E-03 -3.68412180E-04
  1.51798347E-04  6.57099397E-09  2.91919237E-09  6.03147199E-03 -9.90159506E-04
  4.89423119E-03 -1.48995129E-02 -1.04836788E-07  1.08155959E-02 -1.30449700E-03
  4.89416399E-03 -8.89078511E-08  6.88314941E-04 -1.26411598E-03  3.10320324E-04
 -1.82090544E-03 -3.25922589E-09  1.67200997E-08  1.91357757E-03 -2.06278670E-02
 -2.49353955E-02  1.79754863E-02  2.64469046E-07 -2.53042569E-02 -5.61216975E-03
  1.04184594E-02  1.66753871E-07 -1.24909862E-03  2.60702752E-03  9.17705799E-04
  1.65613137E-03  1.56649760E-08  9.25364132E-09 -4.11978591E-03  2.71028707E-02
 -9.11849263E-04  1.21893531E-01  3.51795687E-07  2.08665563E-02 -6.58113855E-04
  4.05065772E-02 -1.79742795E-08  2.29083694E-08  8.60140702E-08  4.71410613E-08
 -2.57012665E-02  1.76557771E-07 -3.31708059E-08  7.12433734E-08 -2.63277672E-02
 -1.48733690E-09 -7.49543101E-09  7.70097652E-09 -1.84652085E-08  3.67565502E-03
  7.16179832E-03 -1.09609524E-08  6.48028637E-08 -4.48445011E-08  1.44356006E-07
 -1.08611217E-01 -5.51204415E-08 -4.75953124E-08 -4.15153326E-08 -8.58490208E-02
  1.01021573E-08 -5.31992447E-10 -5.47242070E-09 -2.06353269E-09  6.68171689E-06
  6.11991514E-05 -2.61650403E-08  3.58747327E-08 -3.19469898E-08  4.12657859E-08
 -2.57012539E-02  1.95348453E-07 -2.53427367E-08  2.98425952E-08 -2.63273771E-02
 -1.37972816E-09 -9.19621874E-09  1.61896356E-09  7.89139670E-09 -2.05354154E-03
  7.78371263E-03  4.53804856E-08 -9.17822015E-08  9.98285318E-08 -4.12394717E-09
  1.40118279E-01 -1.44914637E-07  1.60154857E-07 -2.25209946E-08  9.27159148E-02
 -5.25994846E-11  1.05946381E-08 -5.09094948E-09  1.31995774E-08  7.65317078E-03
  4.25125714E-03 -5.00759795E-09 -8.85928958E-09 -7.30089987E-09  2.41920595E-07
  2.23027026E-01 -4.64058082E-08 -4.43311745E-09  3.19024043E-07  1.52236772E-01
  1.24230587E-03 -2.51318041E-03 -5.14464314E-04 -4.69809979E-03 -1.30262836E-08
 -3.92229782E-03 -5.88334739E-04 -2.19840531E-03 -8.38397812E-09  2.00996177E-04
  4.15525604E-05  6.33568614E-05  1.88350607E-04 -2.18353226E-10 -1.19347338E-09
 -2.78450257E-04  8.32486295E-04  6.15990896E-04  3.44592596E-04  1.45363842E-08
  1.20258256E-03  5.03683979E-04 -2.92703177E-04  1.21755347E-08  4.44048183E-05
 -2.35193894E-04  1.02764768E-05 -7.03952453E-05 -6.92347870E-10 -5.45942121E-10
  8.12931379E-04 -1.67504108E-03  1.18111864E-04 -2.28239631E-03  7.14411158E-09
 -2.54129176E-03  7.02141076E-04 -1.63070525E-03  4.89264085E-09  5.84423080E-05
  2.25036400E-04  9.47019030E-06 -5.23757180E-05  1.23756701E-10 -1.12878300E-09
 -5.27351232E-03  8.78216669E-03 -1.21450265E-03  8.20164727E-03 -1.66828464E-08
  9.45207688E-03 -2.65861642E-04  3.09471245E-03 -1.39130409E-08  4.23064731E-04
 -4.11746594E-04 -3.73553156E-04 -5.93568550E-04 -2.25499568E-09  5.99315260E-10
 -1.64060504E-02 -4.23065369E-03 -4.46351689E-03 -1.20498479E-02 -1.39155203E-08
 -5.18435905E-03 -1.09345046E-03 -3.19343091E-03 -2.19873917E-08  1.25376058E-03
 -2.01989789E-03  4.62257179E-03  4.35568411E-05  1.12208083E-02  8.55369824E-09
  5.19886039E-03  1.31716073E-03  4.61247060E-03  6.49234884E-09 -4.16985464E-04
  1.07875175E-04 -1.50236389E-04  1.12187002E-04 -1.97677535E-10  1.01103947E-10
  2.08286629E-04 -8.69339780E-04 -6.10197801E-04 -2.91056473E-04 -4.82472498E-09
  5.49463893E-04 -4.26275417E-04  1.00624519E-03 -2.02710355E-09 -2.35194131E-04
  5.23148175E-04 -3.57448061E-05  1.31112868E-04  3.23288342E-10  9.69037867E-10
 -1.59048699E-03  3.78437735E-03  1.74122938E-03  8.55204781E-03 -1.04803870E-09
  3.81770649E-03 -8.96133767E-04  4.14489209E-03  6.01715870E-09 -3.66690151E-04
  1.66497994E-05 -9.63431244E-05 -1.32086097E-04  6.81146212E-10  8.32834271E-10
  1.63403833E-03 -4.23700860E-03 -4.26966432E-03 -1.16280495E-02  1.40336455E-08
 -6.80493264E-03 -1.93493586E-03 -3.49142767E-03  1.19480481E-08 -6.65998073E-04
  7.81423832E-04  1.69935781E-04  5.00875897E-04  5.41048766E-10 -1.51738413E-09
 -2.06489375E-02  2.94256871E-03  5.36999527E-03  2.03985280E-02 -3.03831493E-08
  5.52068546E-03  1.30274752E-03  5.12122651E-03 -1.10771743E-09 -9.84853986E-04
  1.87367973E-03  1.38036295E-04  4.21174998E-05  9.40414146E-05 -3.93786025E-04
  1.31789890E-08 -2.64672759E-05  3.43761524E-04 -2.51588553E-05  8.01430803E-09
  5.15108791E-05 -1.38395834E-04  4.17658592E-05  1.33852078E-04 -3.10458868E-12
  1.01169944E-09 -4.37665438E-04  5.15324803E-04  1.75221593E-05  1.61523380E-04
  1.95649469E-09  1.36637288E-03  3.99665093E-05  3.68415185E-04  6.06863585E-11
  1.02763821E-05 -3.57446797E-05 -1.19755780E-07 -5.83316786E-06  4.93544724E-10
  3.25912465E-10  1.38070638E-04  4.20498637E-05 -1.76387634E-04 -3.64580722E-04
 -1.11928457E-09 -2.65052633E-05 -3.41175616E-04  4.91758099E-05 -1.28749053E-09
 -5.80263421E-06 -8.10731595E-05  4.17716390E-05 -1.67480679E-04  2.43972898E-10
  5.21673182E-10  1.89243213E-03 -4.34239037E-03 -6.04206792E-03 -1.79596622E-03
  1.37591026E-08 -2.27920547E-03 -1.39846038E-03 -1.70779355E-04  5.56601710E-09
 -3.34692514E-04  1.31066331E-04  2.88412164E-04 -3.39659837E-04  1.12428923E-09
  6.04037267E-10 -1.12816973E-02 -1.60153440E-02 -7.35814893E-05 -6.77946229E-04
  2.34643283E-08 -1.13454688E-02 -1.57478952E-04 -1.45073264E-03  1.56301924E-08
  3.31397071E-04 -1.21436725E-04  9.16129573E-04  7.69273729E-04 -1.40423490E-03
  3.20502890E-04 -4.85302467E-03  3.34675500E-09 -2.64805636E-03  1.47421332E-03
 -1.21992018E-03  3.33300320E-09  2.40885316E-04 -4.23633391E-04  1.21377127E-04
  2.67197081E-04  8.68533243E-11  8.21596755E-10  6.17277389E-05 -2.15812727E-04
  2.99544555E-03 -4.22614219E-04  9.40590637E-10 -8.28130996E-05  2.79823157E-03
 -1.51810398E-04  2.54770062E-10 -7.03982428E-05  1.31117156E-04 -5.83250584E-06
 -1.58096288E-04  2.36886937E-10  2.29481357E-10 -1.48781862E-03  3.00163658E-03
  1.92412039E-03  8.03246769E-03  1.86463541E-09  4.61138479E-03  1.44815675E-03
  2.50326464E-03  1.87652496E-09 -2.38112780E-04  2.70541349E-04 -1.61882325E-04
  4.23037846E-04  1.81453957E-10 -5.69746825E-10 -4.11594122E-03  8.43054235E-03
  1.15046002E-02 -5.23177023E-03 -9.32629429E-09  5.97180952E-03  2.87069912E-03
  7.97130168E-05 -7.95179177E-10 -5.14705953E-04  1.54049766E-04 -2.98710198E-04
  6.67709394E-04  5.61684722E-11 -1.25872115E-09 -5.38160052E-04  9.09849151E-04
 -1.59393340E-02  5.98112079E-03 -9.20143178E-09  1.35777217E-03 -3.76381788E-03
  1.49613533E-03 -4.76447414E-10 -8.23302131E-05  1.60942838E-04 -5.74416249E-05
  1.09060185E-03 -1.50323628E-09  5.80185159E-09 -1.86439806E-08 -1.53475299E-08
  1.07319233E-02 -3.39816739E-09 -1.59052471E-09 -1.97189254E-08  7.76759953E-03
 -4.56905803E-10  3.91060424E-10 -4.20515727E-12 -3.18624180E-10  8.26610381E-05
  3.54123806E-04  7.00676651E-10 -2.77874459E-09  7.74059726E-09  1.28370399E-11
 -9.71671481E-05  7.00151791E-09  3.08838821E-09  9.96394613E-09 -6.65032309E-06
  1.14320101E-09 -1.03657827E-09 -2.22560095E-10 -3.65189072E-10  6.98140209E-04
 -9.03676702E-05  7.31867100E-10 -3.14773346E-09 -3.14046115E-08 -7.52255107E-09
 -1.12872606E-02 -9.16381290E-09 -2.61500720E-08 -6.49243199E-09 -8.04009493E-03
  3.55115660E-10 -1.09634961E-09  3.80432542E-10  5.40040260E-11 -1.25969275E-05
 -4.09114229E-04  4.57178367E-09 -9.60561943E-09 -8.29513540E-09 -3.33848499E-09
 -1.16484144E-02  1.45789409E-09 -5.51324420E-09 -6.39584535E-09 -8.29937510E-03
  7.15502781E-10 -5.33146619E-10 -1.41225109E-10  1.22397106E-09  5.07958880E-05
  3.77434065E-04 -8.67677776E-10  3.13605736E-09  1.15315522E-08 -1.81140555E-08
 -8.19441550E-04 -3.53607343E-09 -1.61521749E-10  9.57597476E-10 -5.25192725E-04
  3.07057359E-10 -1.19496347E-09  3.90295275E-10 -4.88730681E-10  7.02400098E-04
  3.17410411E-09 -6.76610590E-09 -1.10521620E-09 -1.35965138E-08 -3.75361242E-03
 -1.19807923E-08 -1.70470798E-09 -6.36130891E-09 -2.11342034E-03  6.28723895E-10
 -1.91208915E-10  2.26218492E-10  3.18396189E-10  2.45375221E-05 -2.62966188E-04
 -1.88812126E-09  3.47463303E-09  2.49156980E-09  5.85784005E-09 -8.94965855E-04
  4.29216073E-09  1.37171103E-09  3.90702648E-09 -6.11980851E-05  5.77179484E-10
 -8.68031438E-10 -5.60673202E-10 -4.94050397E-11 -9.03675210E-05 -1.24643706E-04
  2.61520319E-09 -5.53453322E-09 -2.49445948E-09 -1.56002511E-08 -1.36369123E-03
 -1.24856480E-08  9.51292635E-10 -8.64335826E-09 -3.97693861E-04  6.22426397E-10
 -5.08838466E-11  3.84788489E-10  4.17727247E-11 -7.95325649E-05 -1.67706957E-04
 -2.05428203E-09  5.15509866E-09 -2.17541679E-09  1.45111089E-08 -4.69101582E-03
  1.24846203E-08 -2.86007626E-09  5.88346596E-09 -2.78640529E-03  5.62334453E-10
 -1.66563868E-09  2.42522948E-10 -2.21578759E-09 -2.69025258E-04 -4.81486889E-05
  2.08676706E-08 -4.39828101E-08 -1.30885971E-08 -6.46636037E-08 -7.54961231E-03
 -3.35008788E-08 -4.19729361E-09 -3.06193272E-08 -4.83862125E-03  3.54872869E-09
 -4.20887447E-09  1.56399880E-09 -6.61690412E-10 -5.11168579E-05  2.36993099E-04
  1.70287152E-02 -3.42897250E-02 -7.97985917E-03 -7.94131453E-02 -3.74932249E-08
  3.64377326E-03 -3.88389065E-03 -1.05543150E-02 -1.00082084E-08  2.99407856E-03
 -6.63367965E-03  1.89244992E-03 -1.39572884E-03  4.23631906E-10 -2.14590461E-10
 -3.19216905E-03  8.62880197E-03  1.03040269E-02  1.07568762E-02  1.07074255E-08
 -5.88724761E-03  6.66597861E-03 -6.03157773E-03 -1.62836298E-08  8.12914674E-04
 -1.59048089E-03  1.38073582E-04 -1.48781252E-03 -2.04409355E-11 -2.11315962E-09
 -3.62388363E-03  6.17115613E-03  7.74810819E-03  3.41827427E-03 -2.94246370E-09
  2.73847260E-02  1.21834505E-02  5.37490412E-03 -1.60149052E-08  1.32916564E-04
 -2.03084795E-04 -4.37668562E-04  2.12514368E-04 -1.48347717E-09 -4.69908445E-10
 -3.19218097E-03  8.62868930E-03  1.48913568E-02  3.58428538E-04 -2.33783753E-09
 -5.88730211E-03  3.92700466E-05  8.98933107E-03  1.41601278E-08 -1.78131643E-03
  1.00369776E-03  1.38021658E-04  1.24647372E-03  2.62723933E-11 -1.81856075E-09
  1.70285254E-02 -3.42895344E-02 -6.40326025E-02  4.76435382E-02 -5.18515729E-08
  3.64387468E-03 -1.04137181E-02  4.24660710E-03  1.97097665E-08 -3.46168099E-03
 -1.77918992E-04  1.89238608E-03  5.40851028E-03 -9.31148885E-09  2.64151087E-09
  2.05262800E+00 -3.42897961E-02  5.98190952E-02  2.08552243E-02  1.63604532E-01
  7.04342256E-08  2.52172407E-02 -1.68004831E-03  3.83460224E-02  1.01666567E-08
 -7.30510324E-03  1.18505258E-02 -4.34242902E-03  2.29414178E-03 -1.11345733E-09
 -1.64025158E-09  8.62873334E-03 -2.02820192E-02 -2.83503607E-02 -2.70385081E-02
 -4.28953613E-08 -7.74647126E-03 -1.73057087E-02  9.90377382E-04  1.20350269E-08
 -1.67501022E-03  3.78435962E-03  4.20429921E-05  3.00162162E-03 -2.49781821E-10
  1.81424480E-09  6.17115531E-03 -1.28374824E-02 -1.67068324E-02 -7.37050675E-03
 -1.20403293E-08 -3.95850265E-02 -1.66561283E-02 -7.34810736E-03  8.20864441E-09
 -6.05801875E-04  5.68957337E-04  5.15328400E-04 -7.43009692E-04  2.14584875E-09
  6.29609841E-10  8.62864210E-03 -2.02814895E-02 -3.90823898E-02 -2.71078569E-03
 -7.33908885E-10 -7.74616354E-03 -1.09357235E-02 -1.34487494E-02 -2.58891488E-08
  3.89185418E-03 -1.78241774E-03  4.21412138E-05 -2.86576273E-03 -5.35994731E-10
  3.44938749E-09 -3.42895211E-02  5.98190749E-02  1.34894774E-01 -9.48934009E-02
  8.80928363E-08  2.52172935E-02  2.71892361E-02 -2.70921671E-02 -2.69577604E-08
  5.12304157E-03 -5.77631843E-04 -4.34231281E-03 -1.08048339E-02  1.65383703E-08
 -4.09514272E-09 -6.34971998E-02  3.29774939E-01  9.24404875E-03 -1.47317907E-02
  1.15423738E-02 -3.31671366E-02 -4.01700951E-07 -4.73757184E-02  2.96099050E-02
 -4.78388980E-03 -2.75859666E-07  3.68814358E-03 -3.91378148E-03  1.46559141E-03
  1.29646449E-02  3.07536154E-09 -1.94809442E-09 -7.13534685E-03  1.71941070E-02
  2.17566796E-02  1.08961104E-02  3.10111635E-08  5.58049323E-02  3.67375636E-02
  4.89415916E-03  4.03472919E-08 -1.18122932E-04 -1.74121193E-03  1.76390128E-04
 -1.92413238E-03 -2.52300932E-08 -1.05518322E-09 -7.74816458E-03  1.67069730E-02
  1.57322476E-02  2.25200183E-02  2.97129978E-07  5.09161608E-02  7.68521336E-03
  1.52548333E-02  2.55048149E-07 -5.82525310E-04  5.33192626E-04 -1.48659932E-04
  1.14763852E-03 -4.82859471E-09 -2.20558926E-09 -1.44676955E-02  3.75908194E-02
  5.00704961E-02  5.45115745E-03 -2.63588103E-08  4.99486463E-02  2.43160396E-02
  3.80661881E-02  2.85905333E-08 -9.59131768E-03  3.70695224E-03  3.88021387E-04
  4.57209171E-03 -1.71870931E-08 -2.14230874E-08  6.47835792E-02 -1.31258140E-01
 -2.01795053E-01  1.56338262E-01 -5.27213747E-07 -1.26366983E-01 -5.48066668E-02
  4.09235932E-02 -2.61842585E-07  7.37313371E-03 -2.75221566E-03  5.51594379E-03
  1.09140974E-02 -1.47845426E-08  1.94198692E-08 -3.92255965E-04 -5.49266208E-03
  4.22043563E-01  7.92761248E-02 -1.64269396E-01 -3.83922880E-02 -3.14222738E-01
 -1.64304012E-07 -1.27850198E-01 -3.61294633E-02 -8.77944738E-02 -6.12545269E-08
  1.18821099E-02 -5.41951538E-03  6.13076758E-03 -2.60647131E-03  4.11685088E-09
 -2.01671452E-09 -1.30754769E-02  3.52022266E-02  3.12962472E-02  3.51492985E-02
  1.38388879E-07  1.66899482E-02  2.67288822E-02 -1.48997733E-02  4.67004502E-08
  2.28233767E-03 -8.55201316E-03  3.64585468E-04 -8.03240544E-03 -4.53272148E-10
 -1.32505436E-08 -3.41814636E-03  7.37020661E-03  2.25196481E-02 -2.53790576E-02
 -6.26402817E-08  2.24637132E-02  1.52559384E-02 -2.01627382E-02 -6.07753780E-08
  1.90730414E-03 -1.92896666E-03 -6.55942393E-05 -1.77464796E-03 -2.47806826E-09
 -7.33173575E-09  3.54505770E-03 -1.10328309E-02 -1.49485979E-02  6.83506908E-03
 -5.66516992E-08  2.99627585E-02  1.62318874E-02 -2.47611121E-03 -9.82297993E-08
  5.14914412E-03 -2.29569468E-03 -1.15503660E-04 -3.14690250E-03  3.19490494E-10
  9.35767756E-09 -4.66170204E-02  9.98626641E-02  1.61561770E-01 -1.00885909E-01
  2.34646571E-07  5.12024763E-02  7.22699715E-02 -3.38039647E-03  6.76080760E-11
  7.78722296E-03 -1.23103908E-02 -3.05060017E-03 -2.44680571E-03  2.04276434E-08
  8.50832936E-09 -1.72991142E-04 -2.42295775E-03  6.35920568E-04  4.20882733E-01
 -4.62419960E-08  1.38309641E-07 -2.75649985E-07 -1.34274209E-07  2.14084583E-01
  5.03213768E-08  4.93973851E-09 -2.23226092E-07  1.40117941E-01 -4.12255393E-09
 -9.97835927E-09  3.36851298E-09  4.63756349E-09  1.76163610E-03  1.24334963E-02
  7.74977826E-10  5.99820127E-09  9.72673281E-08  1.94197282E-08 -1.68924575E-02
  1.07279904E-07  6.00071343E-08  6.44570076E-08 -2.57011552E-02  1.09553300E-08
 -1.09377457E-08  5.10639299E-09 -6.26673600E-09  1.12873322E-02  1.36369132E-03
 -1.66034628E-08  1.84638377E-09 -3.38650361E-07  4.16223088E-08 -1.32379407E-01
  1.09875023E-07 -3.14071377E-07  5.47892880E-09 -1.08610132E-01  1.08508041E-09
 -1.30925550E-08 -1.26140494E-09  6.15015621E-09  8.23604568E-04  3.63351374E-04
 -4.86856118E-09 -1.20672715E-08  9.78074479E-08 -4.62787151E-10 -1.68924449E-02
  8.13231510E-08  1.00556252E-07 -3.06621417E-08 -2.57011783E-02 -7.26745492E-09
  9.93332182E-09 -1.22248921E-08  3.89486174E-08  8.61661283E-03  7.41721321E-03
  6.56786982E-08 -1.07261532E-07 -4.05900045E-07  4.79474638E-07  2.14081600E-01
 -2.99791420E-07 -1.63325363E-07  4.89353815E-07  1.40116753E-01 -1.83760656E-08
 -6.33439812E-09  3.04130731E-08  2.49866617E-08  1.03707630E-02 -7.08091575E-03
  4.02472224E-09 -3.44263720E-08  1.27883496E-07  8.83380777E-09  3.29570545E-01
  3.64407203E-03  2.52166442E-02 -1.88402094E-02  1.35038187E-01  3.82001075E-07
 -5.40232445E-03 -1.39049462E-02  2.65231241E-02  2.28990328E-07 -7.21946171E-03
  9.86682711E-03 -2.27913554E-03  5.14242717E-03 -2.15192160E-09  5.37818385E-09
 -5.88690888E-03 -7.74727351E-03  9.73733334E-04 -5.82398022E-02  1.26530926E-07
  7.98925983E-03 -8.77617301E-03 -1.08154702E-02  1.30648867E-07 -2.54125987E-03
  3.81770097E-03 -2.64963843E-05  4.61134657E-03  1.51528700E-08  2.82434089E-09
  2.73847256E-02 -3.95850362E-02 -5.09162789E-02 -2.24636509E-02 -3.26872364E-08
 -6.42786698E-02 -2.27769921E-02 -1.00489617E-02 -5.96649799E-08  6.50573262E-04
  1.10147276E-03  1.36639722E-03 -2.85175263E-04  6.56068483E-09 -1.30437343E-08
 -5.88703920E-03 -7.74669862E-03 -4.23565945E-02  3.99837299E-02 -2.25185711E-07
  7.98968644E-03 -1.39046493E-02  8.10544255E-04 -2.00101755E-07  4.90463856E-03
 -3.62814173E-03 -2.64136678E-05 -3.23645343E-03 -4.08740847E-09  7.54395711E-09
  3.64398601E-03  2.52172090E-02  8.70335819E-02 -1.04954254E-01  5.81623589E-08
 -5.40162787E-03  1.02152418E-02 -2.81508680E-02 -7.88079625E-08  6.53631135E-03
 -3.88897331E-03 -2.27903606E-03 -9.35588349E-03  2.88859098E-08  3.30914091E-09
 -1.67204896E-01  2.56521000E-01  8.85462906E-03  3.90646822E-03  2.33432384E-07
  2.26588712E-01 -1.52914296E-03 -9.86778910E-03  3.27778219E-02  9.64272236E-03
 -4.27566070E-07 -1.92722194E-02  1.66132414E-02  5.11778281E-03 -2.98208242E-07
  1.85715085E-04  5.71028821E-04  5.51268936E-04  3.11784689E-03 -3.89079812E-09
 -1.74186848E-08  7.76526623E-03 -6.17897039E-03 -1.92896401E-02 -1.28903924E-02
 -2.52971590E-08  7.65401086E-03  3.74942995E-03 -1.30446777E-03  1.49966594E-08
 -7.02149443E-04  8.96127064E-04  3.41158836E-04 -1.44814417E-03 -2.77927809E-08
 -1.70682571E-09 -1.21834101E-02  1.66560809E-02  7.68525732E-03  1.52560224E-02
  2.92374434E-07  2.27769498E-02  4.64063934E-04  4.35243950E-03  2.53533290E-07
 -1.44407988E-03  7.87398887E-04 -3.39074495E-04  3.03874277E-04 -2.86446048E-09
  4.32683584E-09  1.89011293E-03  7.79596043E-03  1.17041082E-02 -1.93480926E-02
  1.27931998E-07  1.37549255E-02  6.17112658E-03  2.70233240E-03  1.22651709E-07
 -3.44470149E-03  1.71846311E-03  1.93620866E-04  1.57601782E-03 -1.28836435E-08
 -1.78063703E-08  7.19795944E-03 -3.40480567E-02 -4.07272245E-02  4.53919173E-02
 -3.66741761E-07 -2.99218595E-02 -9.58158464E-03  1.00050852E-02 -2.09532275E-07
  1.94508799E-03  1.19220073E-04  1.32915871E-03  2.58269149E-03 -2.11022840E-08
  1.13445020E-08 -3.79140887E-03  2.49426109E-02  1.23177447E-01 -3.13426957E-03
 -4.15258793E-07  1.92033469E-02  4.14332536E-02  1.11416643E-02 -3.70923264E-02
 -2.17030703E-02 -9.09635566E-02 -1.61235078E-07 -2.29214739E-02 -1.39052111E-02
 -2.33861692E-02 -8.99248645E-08  4.13120387E-03 -2.02693585E-03  1.29649117E-03
 -1.10621184E-03  3.28353246E-09 -3.84619061E-09 -4.52871966E-03  1.61951757E-02
  8.94480194E-03  4.11299260E-02  2.57268088E-08  1.16365129E-02  4.91379751E-03
  4.89415290E-03 -6.10776896E-09  1.63069045E-03 -4.14486690E-03 -4.91698940E-05
 -2.50323793E-03 -4.03926748E-09 -4.13076535E-09 -5.37499359E-03  7.34822289E-03
  1.52547460E-02 -2.01627018E-02 -1.69979359E-08  1.00489812E-02  4.35223424E-03
 -7.48048220E-03 -2.95068129E-09  1.36589412E-03 -1.65556694E-03 -1.49580645E-04
 -1.97696169E-03 -3.12161133E-09  1.43725890E-09  8.78853685E-03 -1.54818752E-02
 -4.11816936E-02  1.01343278E-02  5.33473724E-08 -2.19277931E-03 -3.51558583E-03
  2.47261502E-03  5.46874056E-09  1.68298650E-03  1.55235953E-04  2.85143226E-04
 -2.86114958E-03 -2.00449850E-09  5.13054591E-09 -8.64092888E-03  1.77182958E-02
  7.67389304E-02 -1.74575932E-02  4.64640433E-08  1.21998094E-03  2.90286507E-02
  2.80802076E-03 -5.66790749E-09  2.40119364E-03 -3.26074914E-03 -4.66905509E-04
 -2.27317449E-03  2.51554575E-09  4.02750058E-09 -1.67283357E-03  1.10044028E-02
 -3.13576997E-03  1.28901775E-01 -1.00404567E-07  8.47213441E-03 -2.26284363E-03
  4.55649976E-02 -5.84691544E-08  1.28445735E-07 -1.38577467E-07 -2.28443701E-08
  1.40118051E-01  9.62671703E-08  4.90284356E-09 -1.40392208E-07  9.27150839E-02
 -9.17197148E-09 -1.59312587E-09  1.74155766E-09 -7.82795469E-09  1.73658404E-03
  8.58078624E-03  1.83848610E-08 -3.27800831E-08  3.35828603E-08 -2.58563637E-08
 -2.57017635E-02  2.67580955E-08  6.54287148E-09  4.99082456E-08 -2.63274882E-02
  9.79050071E-09 -3.95123548E-09  1.61285686E-09 -2.86194454E-09  8.04014201E-03
  3.97690746E-04 -1.95783111E-08  7.71363414E-09 -3.16197100E-07  3.21479822E-08
 -1.08610131E-01  5.15640569E-08 -2.68048284E-07 -4.80651463E-09 -8.58480234E-02
 -1.08537776E-09 -9.88466830E-09  4.68420187E-10  4.70829686E-09  5.62874460E-05
  2.48667132E-05  2.47147893E-08 -5.81152345E-08 -5.12724576E-09 -4.95044017E-08
 -2.57008279E-02 -8.18212534E-09  3.02038474E-08 -6.70199948E-08 -2.63267999E-02
 -3.86110180E-10  6.62335896E-09 -7.95313211E-09  2.72892120E-08  5.71405160E-03
  5.67017386E-03 -1.28658716E-08  2.08765040E-08 -1.06338236E-07  2.68320323E-07
  1.40116892E-01 -8.49138937E-08 -7.03638367E-08  3.09091814E-07  9.27148967E-02
 -2.08607302E-08  2.68474454E-09  1.58932483E-08  8.68836859E-09  7.50831073E-03
 -4.50213225E-03  4.32150210E-09 -8.08327819E-10 -2.16274432E-07 -4.55009523E-08
  2.23026592E-01  1.56005170E-07 -3.64227010E-07 -8.03433179E-08  1.52236028E-01
  3.05754920E-03 -7.25613821E-03 -3.91677267E-03 -1.14582428E-02 -1.06366366E-08
 -8.29952445E-03 -1.81822352E-03 -3.95119798E-03 -7.14033873E-09  4.78913237E-04
 -1.92863497E-04  2.69384112E-04  3.56081754E-04  5.85109599E-10  4.58456954E-10
 -6.27391776E-04  1.78547013E-03  3.19102317E-03  1.67561746E-03  6.55618431E-09
  9.32393045E-04  2.70075707E-03 -6.88326665E-04  1.88302210E-09  5.84408571E-05
 -3.66689956E-04 -5.80219389E-06 -2.38112476E-04 -4.75040947E-10 -4.24832083E-10
  1.32913850E-04 -6.05797632E-04  5.82518691E-04 -1.90728276E-03  8.20005671E-09
  6.50592269E-04  1.44409295E-03 -1.36589998E-03  1.55866231E-09  2.41036294E-04
 -2.72255775E-05 -2.86181011E-05  3.43918875E-04 -4.98570409E-10 -7.54181811E-10
 -2.10549856E-03  4.67070129E-03  1.16671109E-02  3.52768612E-03 -1.09686119E-08
  5.68655138E-03  4.25992074E-03  1.77860944E-03 -5.90360625E-09  2.47855294E-04
 -4.15180642E-04 -1.91307081E-04  2.52749429E-04  5.42107305E-11 -2.04756577E-10
 -3.17993517E-03  5.34097271E-03 -6.61354426E-03 -9.73383597E-03  1.91999696E-08
  1.73839625E-03 -1.22811396E-03 -1.44284142E-03  1.18359550E-09  8.00095920E-04
 -9.81206703E-04 -1.89977516E-04  3.25165140E-04  1.10667077E-09  1.21656786E-09
 -1.99918979E-02  1.83174537E-03  1.00032226E-02  1.62177764E-02  2.13391316E-08
  3.86282979E-03  2.54704176E-03  3.91761784E-03  3.00033216E-09  1.52664028E-03
 -6.69705987E-03  1.18013797E-02  2.31015395E-03  5.19462455E-03  1.23816182E-08
  1.09468057E-02  2.10593176E-03  1.73360600E-03  9.22957431E-09 -1.19016767E-04
 -4.02889705E-05 -4.73004963E-04 -2.27808115E-04  2.67601262E-10  1.27333141E-09
 -1.50182664E-04  3.23910941E-04  2.22222308E-03  1.99354461E-03 -9.14920040E-09
  3.44074185E-04 -2.45716111E-04  1.26411680E-03 -8.10379752E-09  2.25037047E-04
  1.66510294E-05 -8.10718007E-05  2.70540327E-04  1.34488246E-09  5.14466431E-10
 -2.03082039E-04  5.68952995E-04 -5.33189329E-04  1.92894997E-03 -1.15097636E-08
  1.10145162E-03 -7.87403220E-04  1.65555107E-03 -8.00793410E-09 -2.72252482E-05
 -8.94192043E-05  3.14920935E-06 -1.34901976E-04  4.89489999E-11  7.73431163E-10
  1.32790805E-03 -2.56132556E-03 -5.30758974E-03 -2.00303507E-03  1.16726061E-08
 -4.41003144E-03 -2.17947496E-03 -3.53550843E-04  7.51820247E-09 -2.81984638E-04
  3.82754280E-04  1.04427857E-04  1.14443276E-04  7.48165551E-10  3.67600878E-10
 -4.59672931E-04 -7.95561957E-04  9.04199458E-04  1.27698132E-02  2.54324545E-09
  9.08977015E-04 -2.15781385E-04  3.15035824E-03  1.40767183E-08 -6.53085795E-04
  9.60926664E-04 -1.36520451E-05  2.74880988E-05 -3.58889525E-10 -2.52000554E-09
 -1.70631441E-02 -3.11980088E-03 -2.32002986E-03 -1.28281322E-02  1.82545114E-08
 -3.52651675E-03 -7.72895492E-04 -3.13490745E-03  1.74234253E-08 -7.33824193E-04
  1.09874432E-03  1.89245319E-03 -4.34242995E-03  1.16187390E-04 -6.30240376E-03
 -7.06473528E-09 -2.27918831E-03  2.60300479E-04 -1.38460774E-03 -2.44769817E-09
  2.58088359E-04 -4.61716344E-04  2.88415217E-04 -1.22388039E-04 -2.14634324E-10
 -8.05019123E-10  1.38054729E-04  4.20826594E-05 -2.94070402E-04 -2.78388686E-04
  2.13139984E-09 -2.65171526E-05  1.50107374E-04 -3.10330859E-04  2.12439776E-09
  9.46930561E-06 -9.63439140E-05  4.17715495E-05 -1.61882994E-04 -2.62031655E-10
 -4.03098757E-10 -4.37668744E-04  5.15328612E-04  1.48661538E-04  6.55929001E-05
 -2.14385560E-09  1.36639684E-03  3.39077796E-04  1.49572977E-04 -4.29836318E-10
 -2.86176295E-05  3.14871953E-06 -1.21441799E-07 -2.00890143E-05 -1.40631465E-10
 -5.46077621E-10  1.38021694E-04  4.21462384E-05 -4.03753595E-04 -2.95258563E-05
 -1.25078712E-08 -2.64407334E-05 -1.27965402E-04  3.20043227E-04 -7.21720566E-09
 -1.87863238E-04  1.00981457E-04  4.17639433E-05  4.61100132E-05 -7.64324267E-10
 -2.53284069E-10  1.89237439E-03 -4.34229265E-03 -4.57646502E-03  4.33442707E-03
 -2.66701660E-08 -2.27904867E-03 -8.47140788E-04  1.12562103E-03 -1.35562939E-08
 -2.40116827E-04  3.64869064E-05  2.88405614E-04  4.02717075E-04 -8.40963196E-10
  9.79664235E-10 -1.12817072E-02 -1.60153766E-02 -6.23908207E-04 -2.75107905E-04
 -1.89790077E-08 -1.13454692E-02 -1.33511141E-03 -5.89003937E-04 -1.23108542E-08
 -5.13007055E-05  2.61261776E-04  9.16131907E-04 -1.06234274E-03  2.55200805E-03
 -1.29029745E-02  4.69757780E-03 -1.60809056E-09 -5.34665711E-04 -2.56968008E-03
  1.06171418E-03  5.93379554E-10 -5.08954070E-05 -2.09072467E-04 -6.30534619E-05
  1.17828591E-03  1.21101782E-09  5.10613892E-10 -2.01576300E-03  4.27006009E-03
  9.05397545E-03  5.09018954E-03  1.64171614E-08  5.88462411E-03  3.58528302E-03
  1.82092508E-03  1.02563272E-08 -5.23741555E-05 -1.32086698E-04 -1.67480081E-04
  4.23038636E-04  6.55821390E-10  6.58527563E-10  2.12518565E-04 -7.43017128E-04
 -1.14765381E-03  1.77466706E-03  9.45755399E-09 -2.85202944E-04 -3.03886098E-04
  1.97696124E-03  5.05118547E-09  3.43922644E-04 -1.34905160E-04 -2.00884696E-05
  1.19206296E-04 -7.07793937E-11 -1.39228436E-09 -4.57798381E-04  1.22887055E-03
  1.13806927E-03  8.30936687E-04 -2.17779907E-08  8.73800913E-04  6.55374652E-04
  2.13722642E-03 -1.52864315E-08 -3.91499485E-04  5.85294873E-05  2.80322459E-05
  5.27030574E-05 -9.07616722E-10 -6.93353561E-10  5.51175969E-03 -1.07249139E-02
 -9.96104116E-03  2.65497862E-03 -2.62237808E-08 -1.11144099E-02 -4.02136059E-03
  2.99207903E-04 -1.72467720E-08  4.77905264E-04 -2.45530548E-04  4.21093163E-04
  2.96677009E-04  7.88532381E-10  1.87706099E-09 -1.85240208E-03  3.13175487E-03
  1.79039633E-02 -4.54293672E-03  2.30663916E-08  4.67371283E-03  4.49252670E-03
 -9.62709748E-04  1.30913365E-09  4.24304061E-04 -1.53664290E-04 -1.97706838E-04
  1.42531739E-03  2.82256146E-09 -6.67733990E-09 -1.14845639E-08 -7.73222279E-09
 -9.46895048E-04 -1.74607088E-08 -2.14060209E-09 -5.30228981E-09 -1.44790984E-04
  2.98782532E-10  8.73440996E-10 -1.34475631E-10  2.25540193E-09 -7.03558112E-05
 -3.07483022E-04 -1.19448678E-09  2.58480041E-09  1.01662083E-08  1.19774609E-09
  2.11525339E-03  1.00433649E-08  7.17881907E-09  3.58496196E-09  2.05352753E-03
 -5.39530492E-11 -5.77780524E-10 -2.42313596E-10 -4.51231091E-12 -1.25965484E-05
 -7.95326105E-05  1.27951842E-09 -2.46345812E-09 -3.47292210E-09 -4.37213991E-09
 -8.23617601E-04 -7.96361639E-09 -1.67800721E-09 -2.77257417E-09 -5.63052522E-05
  4.74059352E-10  2.20419922E-11  1.64246343E-10  2.16050671E-11  2.79323437E-06
 -3.11092787E-04 -2.56395458E-09  5.75864273E-09  2.56174591E-09  3.98048126E-09
 -6.82460882E-03  1.11132919E-08 -2.64526363E-09  3.59758609E-09 -4.36446724E-03
  3.24220615E-10 -8.13887236E-10  8.33056139E-11 -3.09656756E-10 -3.40519070E-04
 -1.09789896E-04 -5.67193317E-09  9.57664429E-09  6.52643457E-09 -2.33022043E-08
 -9.88670551E-03  3.13891574E-09  1.67841886E-09 -1.56980766E-08 -6.56277634E-03
  3.05015772E-09 -1.48869127E-09 -1.34604501E-09 -5.29940552E-10  2.35269839E-05
  2.53277447E-04 -2.04039715E-08  4.35652383E-08  4.67223119E-08  3.36864958E-08
 -6.94783739E-03  3.75614353E-08  2.29171083E-08  1.19249372E-08 -4.45293847E-03
  2.79456266E-09 -2.34471299E-09 -1.50322059E-09  2.57983293E-09  3.09074173E-04
  5.99654167E-10 -2.45131391E-09  6.44375629E-11  1.64289510E-09 -1.25219231E-02
  5.67190973E-09 -4.89017575E-09  1.01812009E-08 -8.75356911E-03  4.37385682E-10
 -9.42691603E-10  7.66193817E-10  1.08176126E-09  3.38973882E-04  7.29896863E-05
 -5.35175768E-09  1.40764675E-08  1.38509097E-08  2.12052062E-08 -1.11708914E-02
  5.71326599E-09  4.42674931E-09 -1.25552544E-09 -7.78366456E-03  1.19233074E-09
 -5.99801853E-10 -1.40485069E-09  5.83455369E-10 -4.09115000E-04 -1.67706730E-04
  3.35209658E-10 -6.68719972E-10 -3.96550523E-09 -2.65128920E-09 -3.63315298E-04
  1.23622732E-08  4.55539925E-09  1.90719011E-09 -2.48215723E-05  7.86890750E-10
 -7.74954103E-10  5.45053408E-10  1.36649110E-09 -3.11092589E-04  5.70711108E-04
 -8.78062776E-10  1.28873720E-09  2.09933652E-08  1.18877454E-08  9.09332976E-03
 -6.22691771E-09  1.40175687E-08  8.78535592E-09  6.76419491E-03 -3.70969908E-10
  1.09037693E-10 -3.87663654E-11  6.17272238E-10  2.19787344E-04  1.60212468E-04
  7.71305905E-09 -1.44450616E-08 -2.38006443E-08  1.71629020E-09  7.74231722E-03
 -1.02635215E-08 -7.44661250E-09  5.29245918E-09  5.79429044E-03  1.21005242E-09
 -1.65596224E-09  5.92390453E-10  3.48600256E-10 -3.93184605E-04 -2.08774046E-05
 -4.06887573E-09  7.79457091E-09  4.13427601E-08  6.62968636E-09 -3.06537572E-03
 -3.71533333E-09  1.88790034E-08  5.46784527E-09 -1.96460644E-03  1.84664132E-09
 -8.08267920E-10 -7.79920921E-10  1.47301216E-09 -1.75967021E-04  6.30325921E-04
 -6.04170547E-02  1.14400108E-01  2.16282850E-01 -1.58264661E-01 -9.17494233E-09
  1.04330538E-01  6.83708577E-02 -5.00298402E-02  5.37826862E-09  7.10247595E-03
 -1.18884625E-03 -6.10405616E-03 -1.50808285E-02 -1.62569743E-08 -6.87018757E-10
  1.27300445E-02 -2.70939003E-02 -4.82210472E-02  1.49399879E-03  6.63474865E-09
 -5.39196056E-02 -1.29751291E-02 -5.33381204E-03 -9.70811817E-09  7.47405865E-03
 -4.70443062E-03  7.72569172E-04 -5.67534522E-03 -5.45896817E-10 -8.44476988E-09
 -8.20174354E-03  1.90191471E-02  2.95570855E-02 -1.92974605E-02 -9.95701867E-08
  3.81488705E-02  1.57204046E-02 -2.43376166E-02 -5.46674669E-08 -2.64967312E-03
  3.15719766E-04 -1.14773330E-04 -6.27987549E-04  5.34071587E-11  3.23258778E-09
 -8.42257776E-04  1.69055382E-03  3.21001268E-03 -2.34897389E-03  4.59305157E-08
  1.59695689E-02  2.74208354E-03 -2.00643351E-03  3.40358427E-08  7.00254298E-04
  6.16760723E-05  3.01419899E-05 -1.16142141E-03  2.84295915E-09  5.36421253E-09
 -8.20180269E-03  1.90193263E-02  2.73357973E-02 -2.23338599E-02  1.05902002E-07
  3.81490006E-02  2.79537094E-02 -7.62025262E-03  6.54086962E-08  3.57962658E-04
 -2.69191903E-03 -1.14768955E-04  4.74381965E-04 -3.06999995E-09  2.24867310E-09
  1.27300608E-02 -2.70938425E-02 -1.60134425E-02  4.55091207E-02 -9.40860310E-08
 -5.39192039E-02  1.15778551E-03  1.39805164E-02 -3.48556088E-08 -7.55025048E-04
  3.52458384E-03  7.72598846E-04 -8.69167565E-03 -8.14631364E-09 -1.46591557E-09
  2.17445706E-01 -1.38877580E-02  2.61039057E-02  1.95159742E-01 -1.42808408E-01
 -7.83233205E-08  3.45793973E-02  5.36990765E-02 -3.92939328E-02 -5.84090518E-08
  6.76436353E-03 -9.28535769E-04 -2.24308755E-03 -1.39923755E-02 -1.78202167E-08
 -7.95530081E-09  1.61011018E-02 -2.88154579E-02 -9.74338003E-02  9.35301499E-03
  1.15517434E-08 -4.97919036E-02 -2.67587654E-02 -3.97121651E-03 -6.39976906E-09
  4.84339189E-03 -3.88773927E-03  1.25591854E-03 -7.98957362E-03 -1.30403203E-08
 -7.40281465E-09 -1.33930461E-02  2.84860498E-02  6.13928307E-02 -3.46374230E-02
 -6.09934241E-08  3.78261131E-02  2.27976234E-02 -3.13327772E-02  8.01169911E-09
 -3.25771535E-03  2.95226752E-04 -4.22220475E-04 -2.07057440E-03  1.07881708E-09
  1.08696728E-08  1.29233751E-03 -1.82133392E-03  1.92743417E-03 -1.41080397E-03
  1.70430663E-07  1.98781055E-02  7.38978295E-03 -5.40741258E-03  1.13756937E-07
  1.50408935E-03 -4.37253299E-05 -1.23472715E-04 -2.81515816E-03  4.10252252E-09
  5.09296541E-09 -1.33931490E-02  2.84863737E-02  5.15894746E-02 -4.80370484E-02
  1.77539808E-07  3.78262937E-02  3.67626665E-02 -1.22495819E-02  8.76461814E-08
  1.00423831E-03 -3.96673533E-03 -4.22214608E-04 -5.08508710E-04 -8.05998615E-09
  4.09196862E-09  1.61011401E-02 -2.88154273E-02 -3.83941280E-02  9.00387148E-02
 -2.01670964E-07 -4.97911645E-02 -4.31147292E-03  2.67060367E-02 -1.08635112E-07
  9.02031200E-04  5.35577894E-05  1.25596032E-03 -9.43431610E-03 -7.54939456E-09
  6.46297188E-10  1.72459615E-01  1.57536693E-01  1.27299885E-02 -2.70937015E-02
  3.14058821E-02  3.66228239E-02  1.06993045E-07 -5.39204222E-02  1.26874045E-02
  5.98734930E-03  6.13774721E-08 -4.06407146E-03  6.83352567E-03  7.72558049E-04
  6.48560697E-03 -3.33512598E-09  4.70644676E-09 -6.04168745E-02  1.14399331E-01
 -2.89191749E-02 -2.66439281E-01 -1.30460790E-07  1.04330814E-01 -9.14147347E-03
 -8.42247580E-02  1.69841483E-09 -1.04266555E-02  1.63403361E-02 -6.10410639E-03
  3.39488034E-03  1.82410233E-09  5.14977801E-09  1.27300856E-02 -2.70941963E-02
 -2.28169915E-02  4.25076575E-02  8.00044579E-08 -5.39198528E-02 -1.11061849E-02
  8.57006497E-03  8.31665617E-08 -5.91650863E-03  8.68603988E-03  7.72511279E-04
 -3.25164392E-03  1.22383995E-08  1.05064432E-08 -8.20182955E-03  1.90193845E-02
 -1.93342992E-03 -3.52461638E-02  6.84631181E-08  3.81491978E-02 -1.32171367E-02
 -2.57833564E-02  7.65808051E-08 -8.96674045E-04 -1.43738836E-03 -1.14784676E-04
  1.79676214E-03 -3.65024360E-10 -7.64194893E-09 -8.42338834E-04  1.69079573E-03
 -4.29123155E-04 -3.95471723E-03 -5.28426561E-08  1.59699285E-02 -3.66579355E-04
 -3.37787517E-03 -4.48263674E-08 -6.49701889E-04  1.41166423E-03  3.01663964E-05
  2.61437084E-04 -4.18948701E-09 -4.22487450E-09 -8.20176244E-03  1.90193416E-02
 -5.67368679E-03 -3.48401446E-02 -4.31618203E-08  3.81489517E-02  7.37760911E-03
 -2.80184443E-02 -9.20238401E-09 -1.57367950E-03 -7.60284311E-04 -1.14747102E-04
 -1.76218894E-03 -2.01156671E-09 -7.31899241E-09 -2.19959563E-02 -2.30453025E-02
  2.17445852E-01  1.61010372E-02 -2.88152497E-02  5.87799794E-02  7.82699004E-02
  2.41631166E-07 -4.97927295E-02  2.09737251E-02  1.70865177E-02  1.45565151E-07
 -6.81017099E-03  7.76561199E-03  1.25590373E-03  4.29291569E-03 -1.08197330E-08
  6.71275610E-10 -1.38871898E-02  2.61022187E-02 -2.60947428E-02 -2.40420117E-01
 -6.98226353E-08  3.45790236E-02 -7.17986553E-03 -6.61510187E-02  6.31586387E-08
 -9.49965963E-03  1.53355639E-02 -2.24313469E-03  3.14989424E-03  5.58890836E-09
  3.52759313E-09  1.61015757E-02 -2.88166868E-02 -4.06190277E-02  8.90574601E-02
  9.53458644E-08 -4.97927602E-02 -1.68181483E-02  2.11885584E-02  8.84332147E-08
 -7.69738429E-03  8.65294414E-03  1.25588602E-03 -3.70786159E-04  1.83985671E-08
  1.03413833E-09 -1.33931409E-02  2.84863916E-02  6.99923759E-04 -7.04868879E-02
 -2.08491574E-08  3.78264913E-02 -1.57366566E-02 -3.54103016E-02  1.69711972E-08
 -2.14599539E-03 -8.16643938E-04 -4.22230191E-04  2.81189678E-03 -1.87919423E-09
 -1.22102085E-08  1.29211974E-03 -1.82080986E-03 -2.57968042E-04 -2.37530334E-03
 -1.61575876E-07  1.98788872E-02 -9.88302239E-04 -9.10348412E-03 -1.03627534E-07
 -1.76809004E-03  3.22845344E-03 -1.23455745E-04  6.33681827E-04 -1.82702628E-09
 -5.63876027E-09 -1.33932181E-02  2.84866491E-02 -1.58066253E-02 -6.86962972E-02
 -5.36681402E-08  3.78266331E-02  7.77294316E-03 -3.79619376E-02  8.18596591E-10
 -3.10540757E-03  1.42870113E-04 -4.22200813E-04 -2.23135218E-03 -2.43696222E-09
 -1.48025255E-08 -2.30452986E-02 -2.46002106E-02  1.72460781E-01  1.57539048E-01
 -8.20175876E-03  1.90191725E-02 -3.30094435E-02 -1.25067110E-02 -1.30858954E-07
  3.81483697E-02 -2.05760942E-02 -2.03983976E-02 -1.18850924E-07 -2.28525621E-03
 -4.87286136E-05 -1.14783103E-04  1.28774701E-03  4.90227062E-09  1.96855767E-09
  1.27301458E-02 -2.70942798E-02  4.74187615E-02 -8.88697163E-03 -9.88387468E-09
 -5.39192855E-02  1.15288634E-02 -7.99255447E-03 -4.99086185E-08  8.97338705E-03
 -6.20390702E-03  7.72540741E-04  2.20604487E-03 -1.59935258E-08 -3.65552337E-09
 -6.04169066E-02  1.14399436E-01 -2.45202882E-01 -1.08174421E-01  5.43945827E-07
  1.04330855E-01 -7.75117198E-02 -3.41956805E-02  1.24253270E-07  1.21946945E-02
 -6.28103645E-03 -6.10407843E-03  1.16860488E-02 -6.04546261E-08 -3.26925692E-08
  1.27300702E-02 -2.70939516E-02  2.54044021E-02  4.10137111E-02 -5.78612892E-08
 -5.39198262E-02  1.86843172E-03  1.39038071E-02 -4.47004991E-08  2.59660878E-03
  1.72889490E-04  7.72560823E-04  8.92709576E-03 -3.83147406E-09 -1.47849118E-08
 -8.20180198E-03  1.90194625E-02 -3.14909543E-02 -1.59485949E-02  1.98321520E-08
  3.81488708E-02 -2.89375410E-02 -1.44487072E-03 -1.39065847E-08  4.54083040E-05
 -2.37934534E-03 -1.14729289E-04 -1.16872265E-03  3.43219833E-09  3.43162622E-09
 -8.42245728E-04  1.69055777E-03 -3.63934336E-03 -1.60534569E-03 -2.10044682E-09
  1.59698879E-02 -3.10877378E-03 -1.37135081E-03  1.65746940E-08  1.09243249E-03
 -3.30470460E-04  3.01646115E-05  9.00001444E-04  2.74858045E-09  6.03290884E-09
 -1.03926552E-02 -2.26311959E-02 -2.19962061E-02 -2.30451322E-02  2.17445841E-01
 -1.33929519E-02  2.84858291E-02 -6.73952735E-02 -2.06598300E-02 -2.19193845E-07
  3.78256853E-02 -2.89898025E-02 -2.57126814E-02 -1.62672436E-07 -2.34265437E-03
 -6.19854926E-04 -4.22217199E-04  2.73970698E-03  1.16535051E-08  3.48675493E-09
  1.61015305E-02 -2.88164952E-02  9.71728753E-02 -1.17707059E-02 -9.58989652E-08
 -4.97920517E-02  2.52841679E-02 -9.61915875E-03 -9.45828650E-08  7.34139363E-03
 -6.38591063E-03  1.25591600E-03  5.14142317E-03 -7.29459282E-09 -8.33659122E-09
 -1.38872529E-02  2.61024557E-02 -2.21257225E-01 -9.76105587E-02  4.33413608E-07
  3.45792835E-02 -6.08784202E-02 -2.68578467E-02  5.47134937E-08  1.14890708E-02
 -5.65319712E-03 -2.24309941E-03  1.08427027E-02 -4.58057076E-08 -2.83277729E-08
  1.61013529E-02 -2.88159990E-02  5.68174178E-02  7.97052522E-02 -1.45272095E-07
 -4.97920079E-02  9.94061560E-03  2.51596826E-02 -8.42184677E-08  4.28720438E-03
 -3.33170350E-03  1.25593595E-03  8.36056982E-03 -4.46574972E-09 -9.30361708E-09
 -1.33932604E-02  2.84868229E-02 -6.06941004E-02 -3.58498062E-02  1.88199606E-08
  3.78265063E-02 -3.85343620E-02 -4.07635087E-03 -3.00786932E-08  9.60000192E-04
 -3.92253459E-03 -4.22169162E-04 -7.41248229E-04  4.90316882E-09  8.18830658E-09
  1.29233465E-03 -1.82126634E-03 -2.18569710E-03 -9.63311225E-04 -1.36650242E-08
  1.98786136E-02 -8.37792664E-03 -3.69579862E-03 -6.55109499E-10  2.45466283E-03
 -9.94285145E-04 -1.23444279E-04  2.18146110E-03  5.60137831E-09  1.01148272E-08
 -2.26311097E-02 -3.63922739E-02 -2.30454107E-02 -2.45997650E-02  1.72460621E-01
  1.57538719E-01 -8.42256338E-04  1.69055379E-03 -3.21011194E-03  2.34883432E-03
 -5.87120510E-09  1.59695163E-02 -2.74214167E-03  2.00631730E-03 -5.69453762E-09
  7.00238750E-04  6.16913791E-05  3.01426161E-05 -1.16142632E-03 -3.56210599E-09
 -7.36136478E-09 -8.20177274E-03  1.90192610E-02 -2.73356845E-02  2.23336556E-02
  1.08297168E-07  3.81491386E-02 -2.79536637E-02  7.62025424E-03  8.16990377E-08
  3.57967122E-04 -2.69192191E-03 -1.14769432E-04  4.74386437E-04 -1.37267575E-09
  9.82823929E-12  1.27300345E-02 -2.70938226E-02  1.60135015E-02 -4.55090958E-02
 -2.56892977E-08 -5.39195673E-02 -1.15812244E-03 -1.39804533E-02  1.07203809E-08
 -7.55046020E-04  3.52461230E-03  7.72585063E-04 -8.69164097E-03  9.35414356E-09
  1.09904635E-08 -6.04170596E-02  1.14400105E-01 -2.16283419E-01  1.58263834E-01
  2.66126325E-07  1.04330573E-01 -6.83707481E-02  5.00299414E-02  7.07970815E-08
  7.10260611E-03 -1.18897624E-03 -6.10405383E-03 -1.50807753E-02 -2.69926262E-08
  2.82862540E-08  1.27300785E-02 -2.70939262E-02  4.82210063E-02 -1.49391632E-03
  5.01905702E-08 -5.39193063E-02  1.29752774E-02  5.33354320E-03 -1.44283389E-08
  7.47405845E-03 -4.70443557E-03  7.72583094E-04 -5.67539650E-03 -9.46621526E-09
  8.88609264E-09 -8.20178128E-03  1.90192294E-02 -2.95573107E-02  1.92975189E-02
 -1.51998967E-07  3.81488280E-02 -1.57204375E-02  2.43376304E-02 -1.06518533E-07
 -2.64966960E-03  3.15711056E-04 -1.14772227E-04 -6.27984498E-04 -1.16098406E-09
 -1.05076095E-09  3.31003220E-03  8.00641439E-03 -1.03927178E-02 -2.26314825E-02
 -2.19963689E-02 -2.30457052E-02  2.17445717E-01  1.29233900E-03 -1.82133603E-03
 -1.92771923E-03  1.41038960E-03  2.59770864E-09  1.98780621E-02 -7.38983307E-03
  5.40731715E-03  7.03628556E-10  1.50407237E-03 -4.37081376E-05 -1.23472082E-04
 -2.81516253E-03 -2.64154445E-09 -8.15612061E-09 -1.33931448E-02  2.84863652E-02
 -5.15892098E-02  4.80368435E-02  9.99386138E-08  3.78264401E-02 -3.67624521E-02
  1.22495203E-02  5.63242633E-08  1.00425383E-03 -3.96676198E-03 -4.22219129E-04
 -5.08491142E-04 -2.02510346E-09 -5.50346496E-10  1.61011203E-02 -2.88154454E-02
  3.83939932E-02 -9.00388268E-02 -1.18053998E-07 -4.97915449E-02  4.31106410E-03
 -2.67060419E-02 -4.07309993E-08  9.02011035E-04  5.35688156E-05  1.25594315E-03
 -9.43427909E-03  6.07563105E-09  1.30311947E-08 -1.38877798E-02  2.61039438E-02
 -1.95160097E-01  1.42807943E-01  2.00275134E-07  3.45794674E-02 -5.36988038E-02
  3.92942981E-02  3.51891665E-08  6.76447783E-03 -9.28651987E-04 -2.24308697E-03
 -1.39923292E-02 -1.68623154E-08  2.81482212E-08  1.61011591E-02 -2.88155033E-02
  9.74336648E-02 -9.35314010E-03  7.82236831E-08 -4.97916269E-02  2.67588563E-02
  3.97084128E-03  7.99857682E-09  4.84341727E-03 -3.88774683E-03  1.25593683E-03
 -7.98962042E-03 -3.99250189E-09  8.61976345E-09 -1.33930606E-02  2.84860796E-02
 -6.13930491E-02  3.46376323E-02 -1.69749485E-07  3.78260641E-02 -2.27977262E-02
  3.13329487E-02 -8.99694957E-08 -3.25768612E-03  2.95201951E-04 -4.22214222E-04
 -2.07056571E-03 -2.13532127E-09 -3.17895918E-09  8.00641806E-03  1.88465189E-02
 -2.26315010E-02 -3.63930353E-02 -2.30457551E-02 -2.46004518E-02  1.72459652E-01
  1.57536732E-01 -8.20180710E-03  1.90193398E-02  1.93351170E-03  3.52459475E-02
  6.35419458E-08  3.81493113E-02  1.32171186E-02  2.57832897E-02  5.71798658E-08
 -8.96670387E-04 -1.43739528E-03 -1.14784255E-04  1.79676919E-03 -8.96278588E-10
  2.82711373E-09 -8.42340292E-04  1.69079743E-03  4.29293492E-04  3.95470107E-03
 -3.88428282E-09  1.59699384E-02  3.66689126E-04  3.37788289E-03 -6.50603781E-09
 -6.49705479E-04  1.41166833E-03  3.01667239E-05  2.61419583E-04  2.15497459E-09
  5.04690139E-09 -8.20180244E-03  1.90194389E-02  5.67378929E-03  3.48403625E-02
  8.75870391E-09  3.81489042E-02 -7.37764275E-03  2.80185111E-02  4.20470010E-08
 -1.57368153E-03 -7.60289654E-04 -1.14744955E-04 -1.76218498E-03  2.83184191E-09
  5.13226629E-09  1.27300218E-02 -2.70937394E-02 -3.14059079E-02 -3.66227134E-02
  6.56959097E-08 -5.39201243E-02 -1.26873003E-02 -5.98763312E-03  6.75205163E-08
 -4.06411567E-03  6.83357256E-03  7.72568792E-04  6.48561333E-03 -2.59657962E-09
 -1.23440164E-08 -6.04168485E-02  1.14399260E-01  2.89200686E-02  2.66439152E-01
 -3.91082040E-07  1.04330774E-01  9.14135797E-03  8.42248035E-02 -6.00284016E-08
 -1.04266250E-02  1.63403088E-02 -6.10410029E-03  3.39500321E-03 -1.04653464E-08
 -5.33708481E-08  1.27300564E-02 -2.70941646E-02  2.28169398E-02 -4.25076924E-02
  1.29524603E-08 -5.39201563E-02  1.11063442E-02 -8.56980910E-03  3.71625655E-08
 -5.91647721E-03  8.68601007E-03  7.72497863E-04 -3.25166671E-03 -4.73978277E-09
 -1.57526739E-08 -1.03927240E-02 -2.26314461E-02  3.30989552E-03  8.00613025E-03
 -1.03928245E-02 -2.26318121E-02 -2.19959702E-02 -2.30454214E-02  2.17445856E-01
 -1.33931552E-02  2.84864299E-02 -6.99942000E-04  7.04865950E-02  5.14847410E-08
  3.78266546E-02  1.57365693E-02  3.54100898E-02  4.30730285E-08 -2.14598720E-03
 -8.16670073E-04 -4.22234755E-04  2.81192354E-03 -2.00470882E-09  2.25204135E-09
  1.29210701E-03 -1.82079027E-03  2.58433032E-04  2.37527104E-03 -1.20154638E-09
  1.98789212E-02  9.88382720E-04  9.10351175E-03  5.48593165E-09 -1.76809358E-03
  3.22845742E-03 -1.23455997E-04  6.33662494E-04  4.77569468E-10  8.66692123E-09
 -1.33932335E-02  2.84867047E-02  1.58066604E-02  6.86966026E-02  5.09646698E-08
  3.78265918E-02 -7.77303226E-03  3.79621690E-02  9.60328785E-08 -3.10540237E-03
  1.42864277E-04 -4.22193694E-04 -2.23132779E-03  7.19654523E-09  8.94940708E-09
  1.61011121E-02 -2.88153504E-02 -5.87798214E-02 -7.82698722E-02  1.75974076E-07
 -4.97925005E-02 -2.09735104E-02 -1.70868408E-02  1.32300290E-07 -6.81020266E-03
  7.76567271E-03  1.25592012E-03  4.29293775E-03  6.54311578E-10 -1.40000381E-08
 -1.38872025E-02  2.61022337E-02  2.60952968E-02  2.40420125E-01 -3.36540274E-07
  3.45790523E-02  7.17946680E-03  6.61511354E-02 -2.78478624E-08 -9.49963934E-03
  1.53355464E-02 -2.24313320E-03  3.15000526E-03 -1.40114936E-08 -4.09146606E-08
  1.61015504E-02 -2.88166876E-02  4.06191586E-02 -8.90574627E-02  1.21245764E-08
 -4.97931080E-02  1.68183975E-02 -2.11882859E-02  1.96963910E-08 -7.69736318E-03
  8.65290993E-03  1.25586840E-03 -3.70801256E-04 -9.62338248E-09 -1.09976246E-08
 -2.26315570E-02 -3.63930459E-02  8.00612518E-03  1.88460468E-02 -2.26316815E-02
 -3.63935088E-02 -2.30454063E-02 -2.46004889E-02  1.72460875E-01  1.57539185E-01
  1.27301084E-02 -2.70940125E-02 -2.54042834E-02 -4.10137009E-02 -5.30695876E-08
 -5.39196256E-02 -1.86868443E-03 -1.39038145E-02 -3.91990101E-08  2.59664452E-03
  1.72866080E-04  7.72571061E-04  8.92713146E-03  7.41926140E-09  1.06632866E-08
 -8.20183096E-03  1.90195329E-02  3.14911235E-02  1.59487645E-02  3.65573447E-08
  3.81488360E-02  2.89376487E-02  1.44489023E-03  1.93620758E-08  4.54048875E-05
 -2.37934261E-03 -1.14728348E-04 -1.16871725E-03 -1.73319936E-09 -1.85611530E-09
 -8.42244234E-04  1.69055741E-03  3.63927356E-03  1.60549761E-03  2.61987376E-08
  1.59698363E-02  3.10872327E-03  1.37141066E-03  1.65748226E-08  1.09244295E-03
 -3.30481104E-04  3.01651070E-05  8.99989241E-04 -3.29137249E-09 -6.19040839E-09
 -8.20173386E-03  1.90191082E-02  3.30091992E-02  1.25067068E-02 -1.12115874E-07
  3.81484673E-02  2.05760150E-02  2.03982895E-02 -8.30742554E-08 -2.28526107E-03
 -4.87245457E-05 -1.14783952E-04  1.28774644E-03 -2.49667878E-09 -1.74548162E-09
  1.27301129E-02 -2.70942225E-02 -4.74188194E-02  8.88689333E-03 -4.17886585E-09
 -5.39195322E-02 -1.15286807E-02  7.99276212E-03 -4.25545377E-08  8.97335727E-03
 -6.20388750E-03  7.72531144E-04  2.20601056E-03  1.52860336E-08  8.93331791E-09
 -6.04169173E-02  1.14399452E-01  2.45202566E-01  1.08175115E-01  4.05760164E-07
  1.04330897E-01  7.75117385E-02  3.41955580E-02  8.55713131E-08  1.21946412E-02
 -6.28098390E-03 -6.10407828E-03  1.16861009E-02  4.72493578E-08  2.69985095E-08
 -2.19963769E-02 -2.30458660E-02 -1.03928182E-02 -2.26317381E-02  3.31008685E-03
  8.00654241E-03 -1.03926559E-02 -2.26311086E-02 -2.19961980E-02 -2.30450565E-02
  2.17445849E-01  1.61014361E-02 -2.88161310E-02 -5.68173728E-02 -7.97051329E-02
 -9.03934333E-08 -4.97918377E-02 -9.94094356E-03 -2.51596126E-02 -4.83584983E-08
  4.28724523E-03 -3.33170850E-03  1.25595299E-03  8.36061031E-03  1.04771019E-08
  1.04775278E-08 -1.33932468E-02  2.84868126E-02  6.06943183E-02  3.58499203E-02
  5.73624932E-08  3.78264122E-02  3.85346149E-02  4.07635332E-03  1.65745252E-08
  9.59991657E-04 -3.92251691E-03 -4.22162120E-04 -7.41227429E-04  9.12101782E-10
 -2.25583440E-09  1.29233731E-03 -1.82127004E-03  2.18552020E-03  9.63676359E-04
  2.87262271E-08  1.98785674E-02  8.37790052E-03  3.69581283E-03 -2.60838703E-09
  2.45467362E-03 -9.94295756E-04 -1.23443753E-04  2.18144725E-03 -5.18672334E-09
 -9.86716055E-09 -1.33929681E-02  2.84858392E-02  6.73949856E-02  2.06597652E-02
 -1.79506648E-07  3.78258212E-02  2.89895969E-02  2.57124685E-02 -1.13567062E-07
 -2.34267937E-03 -6.19841736E-04 -4.22223181E-04  2.73971329E-03 -3.15195225E-09
 -3.20300910E-09  1.61014692E-02 -2.88163983E-02 -9.71729300E-02  1.17707614E-02
 -4.04009867E-08 -4.97922659E-02 -2.52839833E-02  9.61944979E-03 -5.67539420E-08
  7.34135024E-03 -6.38589756E-03  1.25589998E-03  5.14139286E-03  1.20553403E-08
  1.18708880E-08 -1.38872687E-02  2.61024849E-02  2.21257013E-01  9.76110082E-02
  3.77147889E-07  3.45793339E-02  6.08785565E-02  2.68574879E-02  7.50726468E-08
  1.14890213E-02 -5.65315048E-03 -2.24309936E-03  1.08427481E-02  3.49536898E-08
  2.37086664E-08 -2.30457566E-02 -2.46006697E-02 -2.26317353E-02 -3.63934965E-02
  8.00654583E-03  1.88467171E-02 -2.26311569E-02 -3.63922297E-02 -2.30453542E-02
 -2.45995781E-02  1.72460622E-01  1.57538704E-01
Grdnt Energy                               R     -2.322486506068443E+02
Grdnt NVar                                 I               54
Grdnt IGetFC                               I                4
Internal Forces                            R   N=          54
 -8.72893358E-06 -5.70249318E-06  9.15108942E-06 -5.02601024E-06  9.23805235E-06
 -7.27094125E-06  8.72725256E-06 -7.22425929E-06  9.10822531E-06 -6.60950729E-06
  9.08822811E-06  8.74391478E-06 -4.33050738E-07 -4.33679215E-07  8.66729993E-07
  3.61177238E-08  2.69553883E-07 -3.05671465E-07  3.55763364E-07 -1.09281688E-07
 -2.46481661E-07 -3.71246006E-07  1.32100677E-06 -9.49760729E-07  5.50805452E-09
 -9.00347082E-08  8.45266494E-08  4.06907880E-07 -5.13597741E-07  1.06689864E-07
  6.59893807E-08 -4.62809126E-09  3.46036357E-08 -3.60138363E-08  3.34060030E-09
  7.03927405E-09  3.47253728E-08  3.84240465E-08 -8.36352029E-08 -9.94889646E-08
 -1.30172282E-08 -2.88709900E-08  3.19546892E-08  4.19508518E-10  4.78084141E-08
  1.62732334E-08  3.73751046E-08  2.70230867E-08  6.89123065E-08  5.85602886E-08
 -5.50213703E-08 -5.87197669E-08 -4.46693979E-08 -4.83677946E-08
Internal Force Constants                   R   N=        1485
  4.00890370E-01  1.88551557E-02  4.00892759E-01  6.13889201E-03  6.13963577E-03
  3.59163722E-01  1.88663796E-02 -1.11473524E-03 -3.56251800E-04  4.00897009E-01
  6.13937638E-03 -3.56548138E-04  7.03394324E-04  6.13941793E-03  3.59183748E-01
 -1.10858563E-03  7.88663712E-02 -3.51089257E-04  1.88669252E-02 -3.55558487E-04
  4.00886042E-01 -3.55035019E-04 -3.51378976E-04  2.07010261E-04  6.14057981E-03
  7.03215752E-04  6.13967685E-03  3.59160418E-01  7.88708210E-02 -1.10815117E-03
 -3.50365958E-04 -1.11502429E-03 -3.50456223E-04  1.88551717E-02 -3.55739726E-04
  4.00897504E-01 -3.50373599E-04 -3.51094068E-04  8.67481962E-05 -3.54974571E-04
  2.06863629E-04  6.13963344E-03  7.03214018E-04  6.13893920E-03  3.59163799E-01
 -1.11545958E-03  1.88669392E-02 -3.54993928E-04  7.88645974E-02 -3.50405264E-04
 -1.11517601E-03 -3.50539004E-04  1.88663636E-02 -3.56271992E-04  4.00890518E-01
 -3.50465488E-04 -3.55539680E-04  2.06864248E-04 -3.50412248E-04  8.66441223E-05
 -3.56562433E-04  2.06851441E-04  6.13945269E-03  7.03393310E-04  6.13943136E-03
  3.59183495E-01 -3.55749466E-04  6.13971965E-03  7.03208117E-04 -3.50539210E-04
  2.06850079E-04 -3.51384664E-04  8.67681692E-05 -3.55026559E-04  2.07011424E-04
  6.14055308E-03  7.03223285E-04  3.59160575E-01 -3.13188019E-02 -3.13215775E-02
 -9.75072315E-03 -1.21708836E-02  5.25769152E-03  4.34892325E-02 -5.31589068E-04
  4.34921810E-02  2.97748460E-04 -1.21741082E-02 -5.32021967E-04  5.25793610E-03
  8.28276713E-02  2.98047502E-02  1.51546227E-03  4.87312819E-03  6.19396675E-03
 -3.30653260E-03 -2.39494044E-02  9.92808185E-04 -1.95407607E-02 -1.48762813E-04
  5.97826598E-03 -4.60952158E-04 -1.95109739E-03 -4.14146888E-02  8.32134831E-02
  1.51405162E-03  2.98061152E-02  4.87759496E-03  5.97691684E-03 -1.95115892E-03
 -1.95398281E-02 -4.61219118E-04 -2.39514203E-02 -1.48985647E-04  6.19584226E-03
  9.92974125E-04 -3.30683871E-03 -4.14129825E-02 -4.17987943E-02  8.32117768E-02
 -3.13206912E-02 -1.21688832E-02  5.25827284E-03 -3.13265462E-02 -9.75050402E-03
 -1.21724510E-02  5.25787672E-03  4.34954960E-02 -5.31466899E-04  4.34937798E-02
  2.98078883E-04 -5.31318183E-04 -3.60578751E-02  2.12864107E-02  1.47714644E-02
  8.28322925E-02  2.98076728E-02  6.19414226E-03 -3.30703323E-03  1.51620143E-03
  4.87584189E-03  5.97543801E-03 -1.95115239E-03 -1.95426550E-02 -4.61265513E-04
 -2.39518537E-02 -1.48984768E-04  9.92359561E-04  2.12865443E-02 -1.32434957E-02
 -8.04304855E-03 -4.14162330E-02  8.32186621E-02  1.51301836E-03  5.97474093E-03
 -1.95123962E-03  2.98103447E-02  4.87466213E-03  6.19701301E-03 -3.30672432E-03
 -2.39528411E-02  9.92732412E-04 -1.95419261E-02 -1.49094115E-04 -4.61041378E-04
  1.47713308E-02 -8.04291498E-03 -6.72841583E-03 -4.14160595E-02 -4.18024291E-02
  8.32184886E-02 -1.21752472E-02  4.34948695E-02 -5.31366918E-04 -3.13186211E-02
  5.25803530E-03 -3.13211634E-02 -9.75107345E-03 -1.21714467E-02  5.25754036E-03
  4.34950195E-02 -5.31277444E-04  2.98180765E-04 -8.38832975E-03 -1.72195267E-03
  1.01102824E-02 -3.60577880E-02  1.47713513E-02  2.12864367E-02  8.28295060E-02
  6.19677389E-03 -2.39539749E-02  9.92448002E-04  2.98058350E-02 -3.30691240E-03
  1.51255175E-03  4.87756918E-03  5.97702731E-03 -1.95113505E-03 -1.95418103E-02
 -4.61225219E-04 -1.49234002E-04 -1.72225577E-03  5.31948704E-03 -3.59723128E-03
  2.12861746E-02 -8.04245689E-03 -1.32437177E-02 -4.14152040E-02  8.32138223E-02
  5.97847333E-03 -1.95408946E-02 -4.61081084E-04  1.51278607E-03 -1.95112291E-03
  2.98086117E-02  4.87350427E-03  6.19441939E-03 -3.30640531E-03 -2.39532092E-02
  9.92502663E-04 -1.48946763E-04  1.01105855E-02 -3.59753438E-03 -6.51305114E-03
  1.47716134E-02 -6.72889445E-03 -8.04271897E-03 -4.14143020E-02 -4.17986183E-02
  8.32129203E-02  4.34914806E-02  4.34898733E-02  2.97752320E-04 -1.21740097E-02
 -5.32027374E-04 -3.13208469E-02  5.25792613E-03 -3.13195675E-02 -9.75076538E-03
 -1.21709705E-02  5.25774144E-03 -5.31591988E-04  6.06364247E-03 -3.03278552E-03
 -3.03085695E-03 -8.38910477E-03  1.01128128E-02 -1.72370800E-03 -3.60559646E-02
  1.47710932E-02  2.12848714E-02  8.28277003E-02 -2.39510957E-02 -1.95401664E-02
 -1.48991368E-04  6.19579497E-03  9.92980401E-04  2.98058838E-02 -3.30683134E-03
  1.51453228E-03  4.87761768E-03  5.97699417E-03 -1.95118287E-03 -4.61213557E-04
 -3.03085085E-03  1.79378751E-03  1.23706334E-03 -1.72242491E-03 -3.59862082E-03
  5.32104573E-03  2.12845712E-02 -8.04201614E-03 -1.32425551E-02 -4.14131406E-02
  8.32119792E-02 -1.95403849E-02 -2.39497069E-02 -1.48760951E-04  5.97821477E-03
 -4.60953028E-04  1.51496313E-03 -1.95109479E-03  2.98050352E-02  4.87314770E-03
  6.19397637E-03 -3.30655857E-03  9.92805545E-04 -3.03279162E-03  1.23899801E-03
  1.79379361E-03  1.01115297E-02 -6.51419195E-03 -3.59733773E-03  1.47713934E-02
 -6.72907703E-03 -8.04231637E-03 -4.14145597E-02 -4.17988387E-02  8.32133984E-02
  4.34947608E-02 -1.21723655E-02 -5.31471687E-04  4.34943810E-02  2.98082945E-04
 -1.21689602E-02 -5.31322869E-04 -3.13214763E-02  5.25831206E-03 -3.13258360E-02
 -9.75057887E-03  5.25788127E-03 -8.38910036E-03  1.01115127E-02 -1.72241237E-03
  6.06377557E-03 -3.03195172E-03 -3.03182386E-03 -8.39128360E-03  1.01131001E-02
 -1.72181649E-03 -3.60579695E-02  1.47715713E-02  2.12863981E-02  8.28323404E-02
 -1.95422583E-02  5.97540307E-03 -4.61268547E-04 -2.39521405E-02 -1.48983066E-04
  6.19414600E-03  9.92358085E-04  2.98079918E-02 -3.30705283E-03  1.51572193E-03
  4.87589183E-03 -1.95115728E-03  1.01128323E-02 -6.51419501E-03 -3.59863734E-03
 -3.03195671E-03  1.23746033E-03  1.79449638E-03 -1.72254260E-03 -3.59809611E-03
  5.32063871E-03  2.12865501E-02 -8.04306215E-03 -1.32434879E-02 -4.14161340E-02
  8.32186507E-02 -2.39525025E-02  6.19696246E-03  9.92740234E-04 -1.95422406E-02
 -1.49099878E-04  5.97481422E-03 -4.61035216E-04  1.51348450E-03 -1.95125923E-03
  2.98101141E-02  4.87468704E-03 -3.30672399E-03 -1.72373198E-03 -3.59731772E-03
  5.32104971E-03 -3.03181887E-03  1.79449139E-03  1.23732748E-03  1.01138262E-02
 -6.51500398E-03 -3.59882222E-03  1.47714194E-02 -6.72850918E-03 -8.04291020E-03
 -4.14162063E-02 -4.18025166E-02  8.32187230E-02 -1.21715012E-02 -3.13219166E-02
  5.25753659E-03  4.34956795E-02 -5.31278376E-04  4.34941891E-02  2.98182545E-04
 -1.21751866E-02 -5.31368601E-04 -3.13178845E-02  5.25805796E-03 -9.75108797E-03
 -3.60560086E-02  1.47715036E-02  2.12845050E-02 -8.39130021E-03 -1.72252366E-03
  1.01138239E-02  6.06385997E-03 -3.03290812E-03 -3.03095185E-03 -8.38830394E-03
  1.01102738E-02 -1.72196985E-03 -3.60577625E-02  1.47712509E-02  2.12865116E-02
  8.28295153E-02  6.19443353E-03  2.98089041E-02 -3.30640462E-03 -2.39535158E-02
  9.92494990E-04 -1.95405283E-02 -1.48944153E-04  5.97844364E-03 -4.61087462E-04
  1.51231927E-03 -1.95113678E-03  4.87353930E-03  2.12848401E-02 -8.04233573E-03
 -1.32425044E-02 -1.72180828E-03  5.32063046E-03 -3.59882218E-03 -3.03095344E-03
  1.79374801E-03  1.23720543E-03  1.01105793E-02 -6.51305296E-03 -3.59752629E-03
  1.47715364E-02 -6.72880867E-03 -8.04272778E-03 -4.14141941E-02  8.32128250E-02
  5.97706763E-03  1.51301245E-03 -1.95113197E-03 -1.95421638E-02 -4.61216614E-04
 -2.39536608E-02 -1.49238392E-04  6.19674296E-03  9.92456063E-04  2.98055653E-02
 -3.30692118E-03  4.87754867E-03  1.47711685E-02 -6.72916787E-03 -8.04200064E-03
  1.01131085E-02 -3.59810679E-03 -6.51500170E-03 -3.03290653E-03  1.23916011E-03
  1.79374642E-03 -1.72227532E-03 -3.59722082E-03  5.31949614E-03  2.12862261E-02
 -8.04244224E-03 -1.32437838E-02 -4.14153212E-02 -4.17986309E-02  8.32139521E-02
  1.45958438E-08  6.69438254E-08  2.84166994E-09  7.11735632E-08  9.96522114E-09
 -6.20262117E-08 -8.08240363E-09 -6.27293962E-08  2.97667946E-09  5.46512397E-08
 -3.62134808E-09  1.54904714E-09 -2.75465853E-08  7.62759018E-09  2.72789610E-08
 -1.97869869E-08  9.20302316E-09  2.24335984E-08  6.23567096E-08 -2.06159485E-08
 -4.38110633E-08 -2.52624552E-08  1.19301601E-08  1.14950714E-08  3.46044621E-08
 -2.35742149E-08 -1.16292569E-08 -5.96937937E-09 -2.01880685E-09  9.56498926E-09
  9.34121100E-03 -3.46660644E-08  6.19374983E-08  3.66348879E-09  1.33581334E-08
 -2.32283349E-09 -6.23191030E-08 -4.12667797E-09 -4.16760409E-08 -7.90690158E-11
  6.17519111E-08 -6.46770664E-10  6.63768588E-10 -2.74609037E-08 -3.42908180E-09
  3.76297379E-08 -7.99249549E-09  6.70311037E-08 -6.93730554E-08  5.32712163E-08
 -6.00157010E-09 -4.88784925E-08 -1.24145793E-08  1.00589347E-08 -3.72608392E-10
 -6.68480120E-09 -2.62822284E-09  9.52116189E-09  2.43853885E-09 -1.20993328E-09
 -1.47002641E-10  3.42744144E-03  8.58502994E-03  4.27164444E-08 -6.28552767E-09
 -5.13659769E-09  7.88205945E-08  8.99290701E-09 -3.78993165E-08 -7.03014835E-09
 -8.77462963E-08  3.36083393E-09  4.30204453E-08 -5.42192265E-09  1.58275462E-09
 -1.58341908E-08  4.78732874E-08 -3.84560752E-08 -3.11959557E-08 -4.82265078E-09
  4.68697180E-08  4.43275278E-08 -2.20263220E-08 -2.37214915E-08 -3.08236756E-08
  1.65044205E-08  1.49570384E-08  5.23113174E-08 -3.54691216E-08 -1.77317305E-08
 -6.47363000E-09 -6.76136787E-09  1.44603895E-08  3.42760883E-03 -1.98783014E-03
  8.58353746E-03 -6.54546367E-09 -1.12918547E-08 -4.31477867E-09  2.10051648E-08
 -3.29514750E-09 -3.81922077E-08 -3.07442257E-09 -6.66929410E-08  3.05085513E-10
  5.01211168E-08 -2.44734526E-09  6.97476131E-10 -1.57485093E-08  3.68166154E-08
 -2.81052983E-08 -1.94014642E-08  5.30054298E-08 -4.49369358E-08  3.52420345E-08
 -7.41194357E-09 -2.87889207E-08 -1.79757996E-08  1.46331951E-08  3.08935867E-09
  1.10220542E-08 -1.45231295E-08  3.41868824E-09  1.93428823E-09 -5.95249433E-09
  4.74839763E-09 -2.48616073E-03  3.16975837E-03  3.16809849E-03  8.82401758E-03
  2.34567966E-08  7.54433559E-09 -7.05395354E-09  6.19183345E-08  4.61165181E-09
 -3.28130587E-08 -6.22821905E-09 -7.86834414E-08  2.99850247E-09  1.44694099E-09
 -6.02973902E-09  2.66642708E-09  3.93003238E-09 -1.00088670E-08 -1.28033094E-09
 -5.96471324E-08  3.60737755E-08  1.90967726E-08  4.71734543E-08 -2.50422589E-08
 -2.34707130E-08 -2.36925094E-08  9.61894379E-09  1.59100201E-08  4.22237994E-08
 -2.93267745E-08 -1.38224595E-08 -7.81577845E-09  6.34354833E-09 -2.70277876E-09
 -6.44262778E-03 -4.20850929E-03 -5.29668667E-04  1.70444982E-03  9.33972609E-03
  2.52543137E-09 -4.36631530E-08 -3.54423550E-09  7.90195309E-08  2.43594510E-09
  1.20603722E-08 -1.83860563E-09 -7.48910710E-08  2.33542774E-09  1.43218498E-08
 -2.81626718E-09  4.69642943E-09  5.39800744E-09 -2.21567916E-08  1.00189766E-08
 -3.32844693E-08  6.65581467E-09  2.35572230E-08  8.31228932E-09 -5.45923694E-09
 -2.38727295E-09 -2.30926389E-08  2.17121370E-08  4.10818429E-09  3.47480004E-08
 -2.86226971E-08 -6.84443180E-09  1.21345075E-09 -2.74401351E-08  2.98678432E-08
 -4.20967441E-03 -2.67682219E-03  1.20564153E-03  2.73849376E-03  3.42738329E-03
  8.58372667E-03  1.88093717E-08  5.73003513E-08  9.20580020E-10  5.44513000E-08
  4.45941382E-09 -6.05985185E-08 -6.07404088E-09 -5.00065855E-08  2.61453327E-09
  1.28971783E-08 -5.43551765E-09  3.75763901E-09 -7.78335158E-09  5.34706453E-08
 -3.92694680E-08 -4.28327261E-08  4.57846854E-08 -6.43001711E-09  5.53851707E-08
 -1.62334828E-08 -4.11412243E-08 -1.81328363E-08  5.50657775E-09  1.19876976E-08
  3.43357183E-08 -1.98508763E-08 -1.51197507E-08 -1.27157170E-08  1.54009454E-08
 -6.50882476E-09 -5.29005561E-04  1.20678064E-03 -5.68561477E-03 -3.94982857E-03
  3.42674694E-03 -1.98795102E-03  8.58337363E-03 -2.12199358E-09  6.09286264E-09
  4.43029794E-09  7.15524964E-08  2.28370710E-09 -1.57250877E-08 -1.68442745E-09
 -4.62142151E-08  1.95145842E-09  2.57720871E-08 -2.22204580E-09  5.78764130E-09
 -6.31537649E-09  4.13227207E-08 -2.79701605E-08 -1.64700630E-08  1.63667246E-08
 -1.96956673E-09  1.65240058E-08  3.34953914E-09 -2.00577843E-08 -1.75329657E-08
  1.75997709E-08  1.85861683E-10  2.68599193E-08 -1.91467989E-08 -8.14172294E-09
 -3.68648777E-09 -1.83827380E-08  2.60617972E-08  1.70394780E-03  2.73846775E-03
 -3.95030457E-03 -2.91578463E-03 -2.48559587E-03  3.16839237E-03  3.16867567E-03
  8.82266391E-03 -8.35554435E-08  2.18007647E-08  4.59981172E-09 -3.55335935E-08
 -8.50724328E-09 -7.63819989E-08 -2.47724149E-09 -3.51592749E-08  2.01956451E-09
  1.14926624E-07  2.01634938E-09 -1.62691952E-10 -5.38430128E-08  3.07980496E-08
  2.02639966E-08  2.37386174E-08 -3.48871080E-08 -7.00779008E-10  5.11381741E-08
 -1.94839479E-08 -2.61745512E-08 -3.35460233E-08  2.48087010E-08  5.89974163E-09
 -2.16640038E-08  4.41461010E-09  1.78483389E-08  9.99152931E-09 -9.26189909E-09
  2.91407923E-10 -6.44381621E-03 -5.30228779E-04 -4.20935883E-03  1.70422860E-03
  6.48120125E-04  2.09403981E-03 -1.58634483E-03 -1.40425146E-04  9.34094810E-03
 -8.70018677E-08 -2.92813360E-08  5.21083045E-09 -1.92992938E-08 -1.27676737E-08
 -2.67884930E-08 -2.97148115E-09 -1.37056006E-08 -1.00963066E-09  9.58930156E-08
  2.51401156E-09 -2.86925474E-09 -4.71245975E-08  2.35023912E-08  2.17141990E-08
  4.31272636E-08 -5.88120127E-08  4.83321764E-09  2.09475325E-08  2.49303806E-08
 -5.06560606E-08 -3.00712953E-08  3.24755221E-08 -4.60944061E-09 -2.80304800E-08
  5.99172587E-09  2.29282306E-08  3.04015384E-08 -2.06301781E-08 -1.01259226E-08
 -4.20983454E-03  1.20581399E-03 -2.67678451E-03  2.73886402E-03  2.09354078E-03
  1.59143554E-03  5.60485559E-04  5.83803165E-05  3.42804636E-03  8.58395733E-03
  3.50322247E-09  2.71002765E-08  1.96684377E-09 -1.55140120E-08  3.78243908E-09
 -7.63849711E-08 -4.62220206E-09 -5.03217637E-08  3.13302407E-09  1.01934663E-07
 -9.58073747E-10  2.66407382E-09 -4.52251645E-08  3.49074146E-08  8.15699456E-09
  1.19431058E-08  7.42913985E-08 -7.58997756E-08  5.15209999E-08 -2.71505255E-08
 -1.93522535E-08 -3.05822790E-08  1.47648478E-08  1.38708764E-08  1.96248723E-08
 -1.72753738E-08 -2.55769786E-09 -1.42275291E-08  1.84405083E-09  1.38997146E-08
 -5.30068895E-04 -5.68779787E-03  1.20605976E-03 -3.95166922E-03 -1.58598996E-03
  5.61193349E-04 -3.32212450E-03 -1.17494120E-03  3.42738292E-03 -1.98758179E-03
  8.58509249E-03  5.67982669E-11 -2.39818241E-08  2.57786243E-09  7.20287719E-10
 -4.77991375E-10 -2.67914651E-08 -5.11644173E-09 -2.88680894E-08  1.03828849E-10
  8.29010542E-08 -4.60411562E-10 -4.24889361E-11 -3.85067492E-08  2.76117561E-08
  9.60719702E-09  3.13317521E-08  5.03664938E-08 -7.03657789E-08  2.13303583E-08
  1.72638030E-08 -4.38337630E-08 -2.71075510E-08  2.24316690E-08  3.36169411E-09
  1.32583961E-08 -1.56982580E-08  2.52219387E-09  6.18248001E-09 -9.52422810E-09
  3.48238405E-09  1.70391278E-03 -3.95175510E-03  2.73863409E-03 -2.91703379E-03
 -1.40569295E-04  5.85890833E-05 -1.17529411E-03 -9.76135733E-04 -2.48551882E-03
  3.16832918E-03  3.17012778E-03  8.82397578E-03 -5.98733794E-08 -3.66958142E-08
  4.83606462E-09  1.68862188E-08 -6.81716708E-09  1.04582348E-08  5.38876424E-09
  3.90116692E-08 -3.76077418E-10  6.99505564E-08  4.12993746E-09 -4.35663996E-09
 -3.68440208E-08  1.38935508E-08  2.11516570E-08  7.91407264E-08 -2.61717099E-08
 -4.84931655E-08 -3.29268034E-08  1.14528113E-08  1.59947839E-08 -1.77992074E-09
 -8.71356034E-09  1.80066056E-08 -2.56579545E-08  7.75378614E-09  1.88297298E-08
  2.74739897E-08 -1.72745303E-08 -1.12201229E-08  6.47849495E-04 -1.58590303E-03
  2.09316387E-03 -1.40588660E-04  2.24926545E-03  8.03876296E-04  8.03946178E-04
 -6.41442974E-04 -6.44236565E-03 -5.29967606E-04 -4.20862153E-03  1.70377651E-03
  9.33973149E-03 -6.36935013E-08 -7.47236984E-08  2.66044531E-09  3.58732070E-08
 -5.67402924E-09  6.57502471E-08  3.93923849E-09 -9.62582070E-09 -5.63530373E-09
  5.91271815E-08  2.17027898E-09 -5.04338314E-09 -1.88871772E-08  7.24575722E-09
  1.22669038E-08  5.17335775E-08 -2.94542902E-08 -1.92085717E-08 -3.43180918E-08
  5.07226586E-09  2.42278385E-08 -9.15897967E-09  5.32132507E-08 -5.06062845E-08
 -2.00943720E-08  3.54856991E-09  1.72649250E-08  4.16571503E-08 -3.09984089E-08
 -1.21747093E-08  2.09378091E-03  5.61286000E-04  1.59121576E-03  5.87208493E-05
  8.03939451E-04 -1.34286365E-03  1.30650631E-03 -8.40296799E-04 -4.20913360E-03
  1.20557922E-03 -2.67664446E-03  2.73806836E-03  3.42675398E-03  8.58331804E-03
 -5.62919955E-08  1.16589883E-08  5.12307667E-09  1.81323844E-08 -3.39445446E-09
 -5.66164982E-08  5.88560393E-09  1.74239654E-08  3.49035936E-09  9.17090623E-08
  2.73414033E-09 -1.65027820E-09 -5.08728847E-08  2.66982941E-08  2.15028250E-08
  6.37774040E-08 -3.05867524E-09 -5.72406084E-08 -2.73773539E-09  4.42745451E-08
 -3.67582741E-08 -9.27863037E-09 -1.31675214E-08  2.93269143E-08 -1.19795859E-08
  6.66515783E-10  1.19481024E-08  7.06287109E-09 -5.56246607E-09 -1.14547864E-09
 -1.58611505E-03 -3.32193249E-03  5.60601295E-04 -1.17521615E-03  8.03855871E-04
  1.30647671E-03 -1.34286775E-03 -8.40246912E-04 -5.29509245E-04 -5.68583905E-03
  1.20630167E-03 -3.95002813E-03  3.42737879E-03 -1.98791732E-03  8.58366905E-03
 -6.01121175E-08 -2.63688959E-08  2.94745733E-09  3.71193725E-08 -2.25131667E-09
 -1.32448608E-09  4.43607812E-09 -3.12135246E-08 -1.76886701E-09  8.08856874E-08
  7.74481806E-10 -2.33702141E-09 -3.29160411E-08  2.00505004E-08  1.26180718E-08
  3.63702552E-08 -6.34125554E-09 -2.79560146E-08 -4.12902373E-09  3.78939997E-08
 -2.85252195E-08 -1.66576893E-08  4.87592896E-08 -3.92859757E-08 -6.41600343E-09
 -3.53870046E-09  1.03832977E-08  2.12460316E-08 -1.92863446E-08 -2.10006505E-09
 -1.40183630E-04 -1.17474346E-03  5.86531904E-05 -9.75906640E-04 -6.41470126E-04
 -8.40263242E-04 -8.40307620E-04 -1.03910074E-03  1.70372280E-03 -3.95029222E-03
  2.73827874E-03 -2.91573628E-03 -2.48559873E-03  3.16864673E-03  3.16837294E-03
  8.82261840E-03 -9.24175824E-08 -5.24458084E-08  1.28968070E-09  6.46404041E-08
 -5.30914807E-09  3.34932086E-08  4.06973382E-09  3.47637036E-08 -3.98636818E-09
  3.77058200E-08  3.27790138E-09 -5.55248447E-09 -1.35142740E-08  1.50334056E-09
  1.38105397E-08  4.65852869E-08 -3.33889010E-08 -1.02991960E-08 -2.88651393E-08
  2.44607213E-08  6.47381137E-09 -2.04351166E-08  8.82062397E-09  4.10059045E-09
 -1.19756383E-08  5.07426373E-09  4.45136564E-09  3.93664926E-08 -2.90441333E-08
 -1.18999066E-08  2.25072544E-03  8.04831636E-04  8.04773697E-04 -6.41120111E-04
  6.47843004E-04 -1.58616438E-03  2.09379965E-03 -1.40207734E-04  6.46677491E-04
 -1.58632344E-03  2.09256586E-03 -1.40435077E-04 -6.44262597E-03 -5.29036393E-04
 -4.20964216E-03  1.70394742E-03  9.34120569E-03 -4.67599297E-08 -6.00073024E-08
  6.14362080E-11  8.80460066E-08 -5.44245291E-10  3.17820188E-08  1.57859861E-09
 -1.71948079E-08  8.10226666E-10  2.06416569E-08  3.79365080E-09 -1.40012924E-09
 -2.56895265E-10  7.82360503E-09 -4.89432523E-09 -7.32353620E-09 -8.63613270E-09
  1.49530344E-08 -6.82056584E-09  5.84913829E-09  2.39092483E-09 -1.95765161E-08
 -3.54840173E-09  1.62441586E-08 -5.12393120E-09 -1.03128189E-08  1.75735101E-08
  3.75826187E-08 -3.36820123E-08 -5.12650685E-09  8.04850829E-04  1.30722956E-03
 -1.34236278E-03 -8.39984046E-04 -1.58594780E-03 -3.32197865E-03  5.61273082E-04
 -1.17475777E-03  2.09239625E-03  5.60672600E-04  1.59001941E-03  5.82957598E-05
 -4.20852908E-03  1.20676441E-03 -2.67681717E-03  2.73847632E-03  3.42743580E-03
  8.58509332E-03 -9.23334407E-08 -1.06823490E-08  3.46511315E-09  4.58376009E-08
 -5.22069584E-09  2.16550468E-09  4.37087580E-09  5.94368899E-08  1.27660971E-09
  4.83453634E-08  6.38570380E-09 -6.09741094E-09 -3.14694974E-08  8.62108937E-09
  2.22237100E-08  6.39681826E-08 -2.76365385E-08 -3.20293145E-08 -2.19568600E-08
  2.97292009E-08 -6.16416980E-09 -1.30543980E-08  5.27874382E-08 -3.31817610E-08
 -2.30580000E-08  1.36847760E-08  7.12965422E-09  3.52060888E-08 -1.77898405E-08
 -1.84984897E-08  8.04789548E-04 -1.34236405E-03  1.30672336E-03 -8.40430237E-04
  2.09317348E-03  5.60582217E-04  1.59123797E-03  5.86467073E-05 -1.58656147E-03
 -3.32187564E-03  5.60584043E-04 -1.17473013E-03 -5.29630137E-04 -5.68561643E-03
  1.20567073E-03 -3.95031556E-03  3.42759779E-03 -1.98787447E-03  8.58360006E-03
 -4.66757881E-08 -1.82438430E-08  2.23686866E-09  6.92432033E-08 -4.55793045E-10
  4.54314828E-10  1.87974051E-09  7.47837832E-09  6.07320454E-09  3.12812003E-08
  6.90145319E-09 -1.94505572E-09 -1.82121187E-08  1.49413538E-08  3.51884510E-09
  1.00593595E-08 -2.88377018E-09 -6.77708415E-09  8.77135233E-11  1.11176179E-08
 -1.02470564E-08 -1.21957974E-08  4.04184125E-08 -2.10381928E-08 -1.62062929E-08
 -1.70230662E-09  2.02517987E-08  3.34222149E-08 -2.24277195E-08 -1.17250899E-08
 -6.41085067E-04 -8.39966122E-04 -8.40413117E-04 -1.03929417E-03 -1.40617328E-04
 -1.17523205E-03  5.87113979E-05 -9.75903329E-04 -1.40842710E-04 -1.17487960E-03
  5.80375965E-05 -9.75999293E-04  1.70446676E-03 -3.94981562E-03  2.73849572E-03
 -2.91578666E-03 -2.48617210E-03  3.16978305E-03  3.16812779E-03  8.82408294E-03
 -1.56629274E-08 -6.15825720E-08  1.30459758E-09  1.09800603E-07  3.85658007E-09
  3.08645473E-08  1.71337830E-09 -6.86908674E-08  4.18557551E-09 -3.17675247E-08
 -1.97311443E-09  2.40428763E-10  3.77233691E-09  9.59313719E-09 -1.05860702E-08
 -3.51084769E-08  2.97227027E-09  2.92393999E-08 -9.75339958E-09  6.54348429E-09
  4.54988618E-09 -1.93297937E-08  2.06532785E-08  1.51562468E-09  1.73926391E-08
 -7.01992339E-09 -7.92276771E-09  2.60761442E-08 -1.16608820E-08 -1.02398676E-08
  6.46683454E-04  2.09238607E-03 -1.58651831E-03 -1.40815691E-04 -6.44236440E-03
 -5.29475369E-04 -4.20915507E-03  1.70373396E-03  2.25043985E-03  8.04529995E-04
  8.04742672E-04 -6.41167179E-04  6.48124466E-04 -1.58631083E-03  2.09402323E-03
 -1.40412063E-04 -6.44381705E-03 -5.30194173E-04 -4.20937483E-03  1.70424804E-03
  9.34095418E-03  5.16623955E-09 -2.36955442E-08 -1.56713623E-09  9.47758940E-08
  5.34793732E-09 -1.60867888E-08 -2.67639243E-09 -7.23804386E-08  5.53293604E-09
 -3.13228259E-08 -5.82487840E-09 -1.78765728E-09 -7.61932070E-10  2.23592514E-08
 -1.94372760E-08 -5.58997203E-08  2.81917046E-08  2.34060506E-08  2.91069796E-08
 -1.33006870E-08 -1.62716259E-08 -2.55001582E-08  9.93267727E-09  1.75153590E-08
  2.79355093E-08 -8.34247571E-09 -1.73493925E-08  1.70460336E-08 -3.67282356E-08
  1.60413973E-08 -1.58627891E-03  5.60692789E-04 -3.32183550E-03 -1.17486380E-03
 -5.29997760E-04 -5.68583954E-03  1.20556471E-03 -3.95027707E-03  8.04514333E-04
  1.30663726E-03 -1.34244929E-03 -8.40326360E-04  2.09351945E-03  5.60500933E-04
  1.59140037E-03  5.83818548E-05 -4.20980065E-03  1.20584368E-03 -2.67677739E-03
  2.73886694E-03  3.42804131E-03  8.58390388E-03 -6.25380230E-08 -5.39600145E-08
  2.93441403E-09  8.76134103E-08 -9.08310316E-10  3.25150830E-08  3.80307261E-09
 -2.45477028E-08 -2.36490055E-10 -6.88898579E-09 -2.48924068E-09 -4.28625932E-09
 -1.27541291E-08  4.07859908E-09  1.05821636E-08  1.87999259E-08 -2.16264413E-08
  3.83349757E-09 -2.85287038E-08  2.43493223E-08  6.16924253E-09 -2.19879946E-08
  3.33853352E-08 -9.19136841E-09  1.05413889E-08 -2.61630456E-08  1.34848774E-08
  2.96592850E-08 -7.38586515E-09 -1.84496689E-08  2.09254496E-03  1.58999270E-03
  5.60598707E-04  5.80464406E-05 -4.20859384E-03  1.20632317E-03 -2.67664239E-03
  2.73827462E-03  8.04734189E-04 -1.34244659E-03  1.30728456E-03 -8.39896214E-04
 -1.58595218E-03 -3.32209590E-03  5.61212134E-04 -1.17493159E-03 -5.30100755E-04
 -5.68780494E-03  1.20604835E-03 -3.95165584E-03  3.42738491E-03 -1.98755393E-03
  8.58504235E-03 -4.17088560E-08 -1.60729867E-08  6.26802321E-11  7.25887009E-08
  5.83046985E-10 -1.44362531E-08 -5.86698161E-10 -2.82372739E-08  1.11087049E-09
 -6.44428693E-09 -6.34100465E-09 -6.31434536E-09 -1.72883981E-08  1.68447133E-08
  1.73095782E-09 -1.99131744E-09  3.59299303E-09 -1.99985170E-09  1.03316754E-08
  4.50515101E-09 -1.46522696E-08 -2.81583592E-08  2.26647339E-08  6.80836594E-09
  2.10842590E-08 -2.74855979E-08  4.05825258E-09  2.06291744E-08 -3.24532187E-08
  7.83159610E-09 -1.40417403E-04  5.82994184E-05 -1.17471849E-03 -9.76001668E-04
  1.70377280E-03 -3.95004100E-03  2.73807739E-03 -2.91573641E-03 -6.41191324E-04
 -8.40339322E-04 -8.39907397E-04 -1.03905540E-03 -1.40557199E-04 -1.17528414E-03
  5.85892714E-05 -9.76137669E-04  1.70391564E-03 -3.95176709E-03  2.73864579E-03
 -2.91703695E-03 -2.48552796E-03  3.16830864E-03  3.17010350E-03  8.82394010E-03
Mulliken Charges                           R   N=          12
 -1.28559082E-01 -1.28551325E-01 -1.28551054E-01 -1.28558124E-01 -1.28550291E-01
 -1.28550584E-01  1.28554348E-01  1.28552901E-01  1.28553183E-01  1.28554219E-01
  1.28552659E-01  1.28553150E-01
Optimization MaxStp                        I                2
Optimization MaxJob                        I                1
Optimization Job offset                    I                0
Optimization Num results per geometry      I                2
Optimization Num geometry variables        I               36
Optimization Reference Energy              R     -2.320000000000000E+02
Opt point       1 Results for each geome   R   N=           2
 -2.48650607E-01  0.00000000E+00
Opt point       1 Geometries               R   N=          36
  2.12992092E+00 -1.55854761E+00  7.08414964E-07 -2.84791496E-01 -2.62383089E+00
 -2.34042227E-06 -2.41470350E+00 -1.06528336E+00  1.04204473E-06 -2.12991869E+00
  1.55855088E+00 -1.16854596E-07  2.84787820E-01  2.62383102E+00 -1.55389011E-06
  2.41470496E+00  1.06528050E+00  1.30748315E-06  3.78763297E+00 -2.77157634E+00
  5.85326626E-08 -5.06450397E-01 -4.66596640E+00 -3.22997391E-06 -4.29407589E+00
 -1.89438540E+00  6.48024819E-06 -3.78763738E+00  2.77157046E+00  2.70961903E-06
  5.06456070E-01  4.66596577E+00 -5.75036086E-06  4.29407451E+00  1.89438867E+00
  5.45127969E-06
Opt point       1 Gradient at each geome   R   N=          36
  1.32814069E-05 -8.46149901E-06  1.60705478E-07 -5.71913902E-06 -1.54714668E-05
 -2.01660283E-07 -1.39494545E-05 -7.20065919E-06 -5.04011278E-09 -1.14320982E-05
  1.10672541E-05 -7.76411403E-08  2.66635268E-06  1.55251093E-05  2.87146343E-08
  1.51976028E-05  4.57915727E-06 -1.82357401E-08 -7.54510755E-06  5.18528582E-06
 -4.19037335E-08  3.76450556E-07  9.25144999E-06 -6.97247496E-10  7.64680989E-06
  4.28862123E-06  1.08148754E-07  7.23158548E-06 -5.54116424E-06  6.22559928E-08
  2.55827909E-09 -9.14188610E-06 -1.00389640E-07 -7.75696746E-06 -4.08020239E-06
  8.57430376E-08
Optimization Number of geometries          I   N=           1
           1
ONIOM Charges                              I   N=          16
           0           0           0           0           0           0
           0           0           0           0           0           0
           0           0           0           0
ONIOM Multiplicities                       I   N=          16
           1           0           0           0           0           0
           0           0           0           0           0           0
           0           0           0           0
Atom Layers                                I   N=          12
           1           1           1           1           1           1
           1           1           1           1           1           1
Atom Modifiers                             I   N=          12
           0           0           0           0           0           0
           0           0           0           0           0           0
Int Atom Modified Types                    I   N=          12
           0           0           0           0           0           0
           0           0           0           0           0           0
Force Field                                I                0
Atom Modified Types                        C   N=          12
                                                            
                                                            
                        
Link Atoms                                 I   N=          12
           0           0           0           0           0           0
           0           0           0           0           0           0
Atom Modified MM Charges                   R   N=          12
  0.00000000E+00  0.00000000E+00  0.00000000E+00  0.00000000E+00  0.00000000E+00
  0.00000000E+00  0.00000000E+00  0.00000000E+00  0.00000000E+00  0.00000000E+00
  0.00000000E+00  0.00000000E+00
Link Distances                             R   N=          48
  0.00000000E+00  0.00000000E+00  0.00000000E+00  0.00000000E+00  0.00000000E+00
  0.00000000E+00  0.00000000E+00  0.00000000E+00  0.00000000E+00  0.00000000E+00
  0.00000000E+00  0.00000000E+00  0.00000000E+00  0.00000000E+00  0.00000000E+00
  0.00000000E+00  0.00000000E+00  0.00000000E+00  0.00000000E+00  0.00000000E+00
  0.00000000E+00  0.00000000E+00  0.00000000E+00  0.00000000E+00  0.00000000E+00
  0.00000000E+00  0.00000000E+00  0.00000000E+00  0.00000000E+00  0.00000000E+00
  0.00000000E+00  0.00000000E+00  0.00000000E+00  0.00000000E+00  0.00000000E+00
  0.00000000E+00  0.00000000E+00  0.00000000E+00  0.00000000E+00  0.00000000E+00
  0.00000000E+00  0.00000000E+00  0.00000000E+00  0.00000000E+00  0.00000000E+00
  0.00000000E+00  0.00000000E+00  0.00000000E+00
Cartesian Gradient                         R   N=          36
  1.32814069E-05 -8.46149901E-06  1.60705478E-07 -5.71913902E-06 -1.54714668E-05
 -2.01660283E-07 -1.39494545E-05 -7.20065919E-06 -5.04011278E-09 -1.14320982E-05
  1.10672541E-05 -7.76411403E-08  2.66635268E-06  1.55251093E-05  2.87146343E-08
  1.51976028E-05  4.57915727E-06 -1.82357401E-08 -7.54510755E-06  5.18528582E-06
 -4.19037335E-08  3.76450556E-07  9.25144999E-06 -6.97247496E-10  7.64680989E-06
  4.28862123E-06  1.08148754E-07  7.23158548E-06 -5.54116424E-06  6.22559928E-08
  2.55827909E-09 -9.14188610E-06 -1.00389640E-07 -7.75696746E-06 -4.08020239E-06
  8.57430376E-08
Cartesian Force Constants                  R   N=         666
  7.19140641E-01 -3.37528887E-02  6.97735956E-01  3.55173454E-07  4.00272455E-07
  1.31408550E-01 -3.06479743E-01 -4.45049776E-02 -3.71932212E-07  6.73833685E-01
 -1.11350141E-01 -1.64233844E-01 -1.44930238E-07  7.59465883E-03  7.43062325E-01
 -2.91350296E-07 -1.15826300E-07 -6.08472351E-02 -8.44140084E-08  5.16823472E-07
  1.31424063E-01 -5.60753666E-02 -1.17338633E-02  4.69384331E-08 -2.67269990E-01
  1.33991958E-01  3.45822337E-07  7.32302648E-01  3.81797855E-02  6.43847092E-02
 -7.54995564E-09  6.71495781E-02 -2.03438162E-01 -2.18866847E-07  2.61595482E-02
  6.84540366E-01 -1.77840291E-08 -2.67674923E-08  7.92032996E-03  4.37317067E-07
 -2.22834246E-07 -6.08397196E-02 -1.21926085E-06 -1.83645128E-07  1.31394538E-01
 -2.50715720E-02 -3.25453448E-02 -1.14945091E-08  4.57298857E-02  2.05829392E-02
 -8.81818450E-09 -1.32296877E-01  1.07774522E-02  1.08567438E-07  7.19149114E-01
 -3.25452971E-02 -4.57454075E-02 -6.26626802E-09  7.04932643E-02 -3.74148197E-02
  7.43385720E-09 -5.60635802E-02 -3.38397420E-01  1.45500724E-07 -3.37502097E-02
  6.97728062E-01  6.58993156E-09  1.33997116E-08 -8.60664780E-03  1.29827016E-10
 -5.50278304E-08  7.91897047E-03  7.71999307E-08  1.45533823E-07 -6.08327981E-02
 -6.86703405E-07 -7.55399248E-08  1.31408712E-01  4.57298209E-02  7.04933581E-02
 -3.00931742E-08 -6.87725923E-02  7.32582201E-03  2.09834555E-09  2.28141237E-02
 -8.37197125E-02 -3.31480255E-09 -3.06486582E-01 -4.45080265E-02  2.64467100E-07
  6.73836188E-01  2.05830390E-02 -3.74147803E-02  1.79960625E-08  7.32575711E-03
 -2.04792230E-03  7.68263501E-09 -3.38079707E-02 -1.44919897E-02  4.91514601E-08
 -1.11353156E-01 -1.64235048E-01  8.14007705E-08  7.60268809E-03  7.43060376E-01
 -3.74907835E-08 -4.59435024E-09  7.91900022E-03  1.71336334E-10 -1.48420384E-08
 -8.60340421E-03  2.87398935E-08  2.17032325E-08  7.91772689E-03  1.71178482E-07
  7.50150610E-08 -6.08467536E-02  1.06275659E-07 -9.54767264E-07  1.31424347E-01
 -1.32296656E-01 -5.60644089E-02 -3.50951772E-08  2.28140917E-02 -3.38079055E-02
  7.23763222E-09 -1.23765346E-02  2.52219255E-02 -1.59957647E-08 -5.60754167E-02
 -1.17337745E-02 -2.21518936E-08 -2.67265186E-01  1.33988237E-01 -3.25509304E-07
  7.32297007E-01  1.07764308E-02 -3.38405158E-01 -1.51785732E-07 -8.37196776E-02
 -1.44919257E-02 -2.19101186E-08  2.52220439E-02 -5.84367433E-02 -2.19730356E-08
  3.81798201E-02  6.43847382E-02  3.56562299E-08  6.71456042E-02 -2.03435730E-01
  2.53359726E-07  2.61649529E-02  6.84546400E-01 -4.15019728E-08 -8.88062350E-08
 -6.08321329E-02  9.15634747E-11 -5.50492715E-08  7.91765825E-03 -9.18618767E-09
  1.07551739E-08 -8.59992029E-03  1.12652275E-08  2.87313214E-08  7.92041561E-03
 -3.54711283E-07  2.35990562E-07 -6.08404431E-02  9.61367190E-07  6.72122838E-08
  1.31394578E-01 -2.41138853E-01  1.32101040E-01  2.45724827E-08 -1.86644994E-02
  1.99246532E-02  8.23741136E-09 -3.65589277E-03 -4.12930082E-03 -5.19242586E-09
  2.95776295E-05 -1.02107379E-03  1.97921304E-10  1.24163709E-03 -1.15733753E-03
 -2.30467799E-09  6.52193221E-03 -3.83513777E-03 -1.69647272E-11  2.54572848E-01
  1.32100685E-01 -1.57280629E-01 -8.11644695E-08 -1.18295738E-02  1.16289266E-02
  5.80250337E-11 -2.71262399E-03 -4.36850071E-04 -6.15434280E-09 -1.02060712E-03
 -6.18186637E-04 -2.50941988E-09 -2.57449197E-03 -5.33470087E-03 -3.47636788E-09
  2.79190645E-02 -1.35574114E-02  7.35338100E-10 -1.42930154E-01  1.63840478E-01
  4.31121005E-08 -1.44739125E-07 -3.56371446E-02 -7.83060835E-09  3.75304334E-08
  2.40141223E-03 -1.98305240E-08 -3.61122314E-09  7.04861097E-03 -1.36971479E-08
 -2.70140366E-08 -2.25427379E-04  2.39888743E-08 -8.58144314E-09  7.04878254E-03
 -8.33167199E-10  5.58232064E-08  2.40243404E-03 -3.49071732E-08  7.66814057E-08
  2.54282237E-02  1.89073157E-03 -3.05921061E-02 -2.77529388E-09 -6.38461186E-02
 -2.97391012E-02 -5.24934835E-09  7.55973749E-03  2.69710329E-02  1.62245199E-09
 -4.20441432E-03  2.39647590E-03  1.38459730E-08 -1.33987945E-03  2.29612425E-04
  1.45110023E-09 -5.30708249E-03 -1.20658528E-03 -1.44902345E-08  1.05062820E-03
  4.53361690E-04  2.33004016E-09  6.27473472E-02  1.16127326E-03 -8.92762497E-03
  9.53827272E-10 -2.97393536E-02 -3.34597241E-01 -1.44016974E-07 -4.78323703E-03
 -1.45962032E-02  3.16373515E-09  3.81401120E-03  1.10763569E-04 -1.62353316E-08
  2.29714005E-04  7.51900066E-04  1.62924024E-09 -2.62294478E-03  1.21465773E-03
 -9.09181075E-09 -2.93117262E-04  9.04179379E-04  3.46784748E-09  3.21766603E-02
  3.55691136E-01 -3.43445185E-08 -5.45349203E-08  2.40206170E-03  4.40320954E-08
 -1.04125950E-07 -3.56458322E-02 -2.31797007E-08 -1.19369515E-08  2.40135594E-03
  2.13079254E-08 -1.35224268E-08  7.04861853E-03  2.00672490E-08  1.20559380E-08
 -2.25108251E-04 -2.45598875E-08  2.52004519E-08  7.04890262E-03  1.05856968E-09
  4.07204302E-09 -3.90926652E-03  1.12327162E-08  1.54386804E-07  2.54380776E-02
 -2.07511732E-03  4.48825922E-03  3.21754348E-08 -1.89673867E-02 -1.32029450E-02
  3.37943931E-08 -2.92644666E-01 -1.02360768E-01  7.06103910E-07  5.50940821E-04
  7.35546574E-04  1.64818481E-09  1.72092955E-03 -3.92234843E-04  2.02067230E-08
  4.28018284E-04  7.92116679E-04 -2.85480418E-10 -1.10497042E-03 -7.05575174E-04
 -4.63435488E-09  1.01053393E-03  2.69487278E-04 -1.47199647E-08  3.10302200E-01
  3.07223530E-03 -2.01843726E-03 -4.39256131E-09  1.85508223E-02  1.19298457E-02
 -3.07189013E-08 -1.02359517E-01 -1.05769025E-01  2.77631614E-07 -3.10185503E-02
 -7.58733260E-03  5.36864214E-08  1.02425510E-03 -5.81435520E-03  1.51473997E-08
  7.91004531E-04 -1.01588130E-03 -1.15012609E-09  1.05535349E-03  4.87204815E-04
  7.79856245E-09 -4.76868969E-04  9.44742428E-04 -2.46480659E-09  1.10751821E-01
  1.08108160E-01  1.44731807E-08 -1.95047468E-09  7.04870074E-03 -8.68664300E-09
  3.88032814E-08  2.40156549E-03  7.67381521E-07  2.70163255E-07 -3.56365976E-02
  1.36042908E-08  1.93690454E-08  2.40138584E-03 -2.03902727E-08 -1.54551281E-09
  7.04884875E-03 -1.21306486E-10 -2.39349840E-08 -2.24985742E-04  2.72415511E-09
  2.52612267E-09  3.52833883E-04 -3.42304475E-09  3.44101339E-09 -3.91028864E-03
 -7.57901989E-07 -3.08499840E-07  2.54290218E-02  2.95761711E-05 -1.02107101E-03
  1.98803599E-09  1.24161899E-03 -1.15732724E-03  9.81208461E-09  6.52184991E-03
 -3.83511679E-03 -4.31664492E-09 -2.41140259E-01  1.32100605E-01  3.35458619E-07
 -1.86644844E-02  1.99246550E-02  2.22850626E-08 -3.65583067E-03 -4.12931086E-03
  1.26726940E-08  3.56706596E-05  1.67279349E-04 -2.47833508E-09  2.40609163E-04
 -2.78595159E-04 -1.42191190E-10  8.71317937E-04  3.96383512E-04 -8.61233843E-09
  2.54574273E-01 -1.02061407E-03 -6.18188885E-04  1.25801317E-09 -2.57449244E-03
 -5.33475779E-03  3.90880265E-09  2.79191937E-02 -1.35574767E-02 -3.60683492E-08
  1.32100153E-01 -1.57279297E-01 -1.93446813E-07 -1.18296226E-02  1.16290014E-02
  1.27181631E-08 -2.71260863E-03 -4.36843616E-04 -3.82168607E-09  1.67276172E-04
  1.41826466E-04  4.13881768E-10  1.48245825E-03 -8.58309546E-04 -4.62271369E-09
 -3.49814288E-04  1.08346913E-03  8.49196897E-10 -1.42929730E-01  1.63839194E-01
  2.34678975E-08  3.25538479E-08 -2.25396593E-04 -2.54694635E-08  1.85317847E-08
  7.04865491E-03 -6.44342396E-09 -4.27484998E-08  2.40245872E-03  4.18827422E-07
 -1.61557468E-07 -3.56372185E-02 -6.41549007E-08 -2.97355129E-08  2.40145668E-03
  2.45957557E-08 -2.19744775E-08  7.04870567E-03  1.09615095E-09  1.92951455E-09
 -1.35415429E-03 -3.96364687E-09  1.85170262E-09  3.52855111E-04 -1.41932592E-08
 -4.34944892E-09 -3.90908632E-03 -3.54248622E-07  2.22230593E-07  2.54282349E-02
 -4.20444610E-03  2.39648572E-03 -8.40656153E-09 -1.33988560E-03  2.29601626E-04
 -8.99364321E-10 -5.30705954E-03 -1.20654610E-03  1.20204575E-08  1.89075609E-03
 -3.05922043E-02  3.13502255E-08 -6.38465359E-02 -2.97402796E-02  4.21432796E-08
  7.55974791E-03  2.69711129E-02 -2.94538233E-08  2.40612161E-04  1.48245709E-03
  4.41042111E-09  2.60133285E-04 -3.76397420E-05  7.85887633E-10 -6.22270208E-05
 -1.65730678E-03 -2.84316476E-09  1.05062996E-03  4.53379982E-04 -2.15907860E-09
  6.27477439E-02  3.81404242E-03  1.10726325E-04  2.07762854E-08  2.29716982E-04
  7.51900528E-04  7.45586792E-10 -2.62293539E-03  1.21468596E-03  2.08794766E-08
  1.16125526E-03 -8.92761629E-03  1.23608102E-08 -2.97404415E-02 -3.34596576E-01
  5.72611210E-07 -4.78329953E-03 -1.45963561E-02  1.65749834E-08 -2.78597916E-04
 -8.58312664E-04 -7.32050020E-11 -3.76368074E-05 -8.25589662E-05 -3.68194938E-09
  1.03741615E-04 -5.55442012E-04  2.69971996E-10 -2.93126293E-04  9.04174906E-04
 -1.11692784E-08  3.21777931E-02  3.55690629E-01 -1.59944715E-08  5.06637897E-09
  7.04849122E-03 -9.04825202E-09 -8.86086696E-09 -2.25066136E-04  9.46714087E-09
 -4.30826285E-09  7.04898754E-03 -8.23567189E-09 -3.81773580E-09  2.40214059E-03
  3.90617858E-08  6.25614151E-07 -3.56460061E-02  2.68475521E-08 -1.90579437E-10
  2.40139550E-03  1.84051995E-09  3.97342461E-09  3.52854620E-04  6.36317749E-11
  1.17618317E-09 -1.35411969E-03  1.88905184E-09 -2.00996718E-09  3.52741488E-04
 -6.96489706E-09  1.48663665E-09 -3.90934255E-03 -4.95441447E-08 -6.19100963E-07
  2.54381416E-02  5.50983869E-04  7.35516938E-04 -1.05077493E-09  1.72093437E-03
 -3.92212380E-04 -1.62712082E-08  4.28027535E-04  7.92122126E-04  2.33066247E-10
 -2.07515303E-03  4.48827401E-03 -2.20320236E-08 -1.89674398E-02 -1.32030100E-02
 -2.71470217E-08 -2.92644091E-01 -1.02361370E-01 -5.35750736E-07  8.71309621E-04
 -3.49820964E-04  1.03698284E-08 -6.22260097E-05  1.03741597E-04 -1.53814299E-09
 -2.95739243E-05 -1.29632117E-04  3.79557752E-09 -1.10497198E-03 -7.05578609E-04
  2.64514075E-09  1.01053089E-03  2.69488071E-04  1.06177667E-08  3.10301670E-01
 -3.10185501E-02 -7.58732150E-03 -4.51673734E-08  1.02427752E-03 -5.81432632E-03
 -5.31317478E-09  7.90983775E-04 -1.01589193E-03  1.11543413E-09  3.07223757E-03
 -2.01843714E-03  7.21778986E-10  1.85508536E-02  1.19298259E-02  2.54960426E-08
 -1.02360243E-01 -1.05769747E-01 -2.02080633E-07  3.96396252E-04  1.08347632E-03
  2.30368433E-09 -1.65730311E-03 -5.55441471E-04 -8.25574246E-10 -1.29634391E-04
  2.07051258E-04  5.08942984E-10  1.05535435E-03  4.87207224E-04 -5.56281425E-09
 -4.76853878E-04  9.44745600E-04  9.71560606E-10  1.10752481E-01  1.08108859E-01
 -4.35038432E-09 -1.40734588E-08  2.40142348E-03  2.56393272E-08 -6.01850534E-09
  7.04893323E-03  2.35139617E-09  2.45113894E-08 -2.24972774E-04 -1.58018832E-08
  1.16677519E-08  7.04860192E-03  1.67054748E-08 -3.52616929E-08  2.40155293E-03
 -5.95781780E-07 -1.95483049E-07 -3.56366073E-02  2.69402221E-09  3.32872525E-09
 -3.90915920E-03 -6.44334311E-10 -7.26254954E-10  3.52743815E-04 -4.08266196E-09
 -6.78342045E-10 -1.35413969E-03 -5.45344855E-09 -4.90571975E-09  3.52832285E-04
  2.59576715E-09 -1.01929503E-08 -3.91021801E-03  5.76128530E-07  2.27832116E-07
  2.54290094E-02
Nonadiabatic coupling                      R   N=          36
  0.00000000E+00  0.00000000E+00  0.00000000E+00  0.00000000E+00  0.00000000E+00
  0.00000000E+00  0.00000000E+00  0.00000000E+00  0.00000000E+00  0.00000000E+00
  0.00000000E+00  0.00000000E+00  0.00000000E+00  0.00000000E+00  0.00000000E+00
  0.00000000E+00  0.00000000E+00  0.00000000E+00  0.00000000E+00  0.00000000E+00
  0.00000000E+00  0.00000000E+00  0.00000000E+00  0.00000000E+00  0.00000000E+00
  0.00000000E+00  0.00000000E+00  0.00000000E+00  0.00000000E+00  0.00000000E+00
  0.00000000E+00  0.00000000E+00  0.00000000E+00  0.00000000E+00  0.00000000E+00
  0.00000000E+00
Dipole Moment                              R   N=           3
 -3.55430715E-07  2.63822770E-06  7.40490851E-07
Dipole Derivatives                         R   N=         108
  6.59985601E-02 -9.71606878E-02 -7.74966420E-09 -9.72240804E-02  4.30085150E-03
 -4.49675111E-09 -9.48217036E-07  5.03270660E-07 -1.11019301E-01 -6.45575064E-02
  2.18740069E-02  1.55292750E-07  2.18810983E-02  1.34673352E-01  3.41642905E-07
  4.91923084E-07 -1.33477149E-07 -1.11017752E-01  1.03900291E-01  7.52852273E-02
 -6.66661276E-07  7.53443792E-02 -3.36402131E-02 -3.03753226E-07 -1.23415141E-06
 -6.80353720E-07 -1.11017010E-01  6.59994161E-02 -9.71614164E-02 -2.62461433E-07
 -9.72246489E-02  4.30154519E-03  3.43359829E-07 -4.41062421E-07  1.07990130E-06
 -1.11018678E-01 -6.45568867E-02  2.18742920E-02 -8.13553378E-08  2.18809993E-02
  1.34675839E-01 -7.55253372E-07 -2.36137975E-07 -1.90297441E-06 -1.11016861E-01
  1.03900707E-01  7.52848912E-02  6.68213841E-07  7.53449920E-02 -3.36401793E-02
  2.99797961E-07  1.60058650E-06  8.23620265E-07 -1.11016747E-01 -6.28934903E-02
  8.75086802E-02 -6.94933136E-08  8.75137216E-02 -7.33359404E-03  3.98214227E-09
  1.32632535E-07 -5.79699256E-07  1.11020459E-01  5.45660101E-02 -1.96983302E-02
 -3.20295510E-09 -1.97034562E-02 -1.24786327E-01 -2.58784173E-07  7.28094096E-08
  3.45373924E-07  1.11017356E-01 -9.70140741E-02 -6.78080517E-02  3.72046126E-07
 -6.78107144E-02  2.67848186E-02  1.20683683E-07  7.29084903E-07  1.10088626E-07
  1.11015594E-01 -6.28947893E-02  8.75090964E-02  1.45166297E-07  8.75130971E-02
 -7.33304311E-03 -2.74903005E-08  5.80403859E-07 -1.34299170E-07  1.11020307E-01
  5.45655017E-02 -1.96996441E-02  3.71510270E-08 -1.97038560E-02 -1.24787369E-01
  3.24485120E-07 -1.29425918E-07  6.23555798E-07  1.11017083E-01 -9.70137389E-02
 -6.78080637E-02 -2.86946443E-07 -6.78115317E-02  2.67843200E-02 -8.41743125E-08
 -6.18445549E-07 -5.50064839E-08  1.11015551E-01
Polarizability                             R   N=           6
  7.12905791E+01  8.11835086E-05  7.12896098E+01 -2.54048334E-06 -1.02711496E-06
  2.09620190E+01
Polarizability Derivatives                 R   N=         216
 -1.64017831E-01  6.80325710E-02  1.74125275E+00  3.15704947E-06  4.76792675E-06
  9.83409706E-02 -1.65513396E+00 -6.13414780E-01  5.00112179E-01 -1.12443819E-05
  8.92895380E-06 -7.20297409E-02  1.87532480E-05 -8.16820984E-06  2.65084005E-05
  2.64709537E+00 -1.93708052E+00  2.99257309E-05  1.68825693E-01  1.46938754E+00
 -3.79923644E-01  1.21573837E-06  9.51133726E-07 -1.30819402E-02 -1.43202409E+00
 -6.49086254E-02 -5.12791390E-01  2.51076239E-06  5.78309271E-07 -1.21198031E-01
 -1.23531361E-05  3.25951670E-06 -3.12421157E-05 -3.53927158E-01 -3.26104088E+00
 -3.58452668E-05 -1.75780774E-01 -1.12859162E-01 -1.61232106E+00 -1.93793354E-05
 -1.15427157E-05 -1.11589560E-01 -1.29071342E+00  1.05683388E+00  5.02558364E-01
  4.02464693E-07 -1.66345592E-06 -4.91880863E-02 -8.44582825E-06 -7.98174543E-06
  1.13990345E-05 -3.00083300E+00 -1.32387312E+00  1.09898652E-05  1.63957149E-01
 -6.80430257E-02 -1.74136820E+00 -1.19305707E-05  8.55128743E-06 -9.83477693E-02
  1.65499602E+00  6.13403580E-01 -5.00227577E-01 -5.04394478E-06 -8.45813676E-06
  7.20242864E-02 -1.75697173E-05  1.11087738E-05 -1.66608803E-05 -2.64712513E+00
  1.93704227E+00 -1.67875810E-05 -1.68650928E-01 -1.46939989E+00  3.80063370E-01
  1.25280304E-05 -2.08253865E-06  1.30897793E-02  1.43200700E+00  6.48862376E-02
  5.12747097E-01  1.98573370E-06  2.08856640E-05  1.21199602E-01  8.45526497E-06
 -2.39359548E-06  2.59927877E-05  3.53976553E-01  3.26103445E+00  1.00465348E-05
  1.75722805E-01  1.12858359E-01  1.61224458E+00 -1.90533611E-05 -6.50914440E-06
  1.11588632E-01  1.29085492E+00 -1.05685157E+00 -5.02394175E-01  5.52610303E-06
 -1.03470306E-05  4.91930507E-02 -2.53037936E-05 -4.72625132E-06 -1.04954473E-05
  3.00081359E+00  1.32391982E+00 -1.25998824E-05  6.92741271E+00 -3.91795131E+00
  2.38913665E+00 -1.63035838E-06  8.64288587E-07  3.32014373E-01 -3.11447693E+00
  3.48745956E+00 -3.70281547E+00  5.12567412E-07 -1.50820227E-06 -2.42950481E-01
 -7.11939425E-06  2.74987129E-06 -3.71923968E-06  1.39604474E+00 -1.02149197E+00
 -6.68889813E-06 -3.98537612E-01 -1.73383152E+00 -8.47077774E-01 -6.77238648E-07
 -1.12720326E-06 -4.43983296E-02 -3.81006085E-01 -9.94100046E-01 -1.10959112E+01
 -7.67628524E-07 -7.10341545E-06 -4.08987365E-01  2.03221620E-07 -1.50148573E-06
  9.63790823E-07 -1.86679158E-01 -1.71976929E+00  1.42514910E-06 -9.15367543E+00
 -3.25142448E+00 -1.40873059E+00  1.81134360E-05  5.98447292E-06 -3.76376160E-01
 -2.70214100E+00 -2.65389987E+00 -1.95742158E+00  6.26719440E-06  6.82236724E-06
 -1.66040200E-01  1.98119719E-05  8.69768947E-06  6.15076350E-06 -1.58286010E+00
 -6.98263668E-01  1.17161172E-05 -6.92747415E+00  3.91795189E+00 -2.38913251E+00
  6.64644341E-06 -3.21862064E-06 -3.32016119E-01  3.11446838E+00 -3.48745051E+00
  3.70276857E+00 -3.85084846E-06  4.78801468E-06  2.42948931E-01  8.33362581E-06
 -7.45352919E-06  8.44986653E-06 -1.39604461E+00  1.02149180E+00  8.64809028E-06
  3.98566502E-01  1.73383921E+00  8.47118385E-01 -3.51556777E-06 -1.52734819E-06
  4.43997894E-02  3.81009166E-01  9.94133388E-01  1.10959242E+01 -1.45859617E-06
 -1.81353208E-05  4.08987537E-01 -3.10909401E-06 -2.07475375E-06 -2.22670451E-05
  1.86677742E-01  1.71977138E+00 -1.33974481E-05  9.15365186E+00  3.25143982E+00
  1.40873804E+00  1.45257364E-05  4.88845876E-06  3.76376335E-01  2.70216001E+00
  2.65390876E+00  1.95745102E+00  5.16057350E-06  5.21225410E-06  1.66040496E-01
  1.83436353E-05  8.48372198E-06  4.92008703E-06  1.58286117E+00  6.98259722E-01
  1.25675878E-05
HyperPolarizability                        R   N=          10
 -3.66679137E-04  1.03836928E-04  3.69137638E-04 -1.84027208E-04  2.35506160E-04
  4.98982237E-05 -1.15739893E-04  8.90438332E-07 -2.32507611E-06 -1.95701979E-05
Quadrupole Moment                          R   N=           6
  1.78397830E+00  1.78389684E+00 -3.56787514E+00 -1.20273892E-05 -2.81963692E-06
 -1.13984873E-06
QEq coupling tensors                       R   N=          72
  1.23666584E-01  2.18501658E-02  1.37546411E-01  1.95243563E-07  2.88885978E-07
 -2.61212996E-01  1.52996379E-01 -4.92187301E-03  1.08216398E-01 -3.00061445E-07
  3.18599405E-07 -2.61212778E-01  1.15152028E-01 -1.69340588E-02  1.46062237E-01
 -4.75451955E-07  4.54126488E-08 -2.61214265E-01  1.23668789E-01  2.18507649E-02
  1.37544386E-01 -4.94932199E-07 -3.29801507E-07 -2.61213175E-01  1.52996954E-01
 -4.91980744E-03  1.08216147E-01  6.06855385E-08 -5.06379325E-07 -2.61213101E-01
  1.15150707E-01 -1.69327381E-02  1.46063579E-01  5.38196042E-07 -9.28582372E-09
 -2.61214286E-01 -1.45316849E-01  2.08741410E-01 -1.27992479E-02  6.59901602E-08
 -8.59059036E-08  1.58116097E-01  1.34846411E-01 -4.69887487E-02 -2.92962343E-01
 -1.39088922E-08 -2.04386245E-07  1.58115931E-01 -2.26703889E-01 -1.61751614E-01
  6.85880886E-02  1.04426652E-06  4.39077543E-07  1.58115800E-01 -1.45319028E-01
  2.08740866E-01 -1.27971440E-02  4.85340412E-07 -3.20344888E-07  1.58116172E-01
  1.34846000E-01 -4.69905359E-02 -2.92961889E-01  8.17755079E-08  8.51474345E-07
  1.58115889E-01 -2.26703052E-01 -1.61752597E-01  6.85871678E-02 -7.89794967E-07
 -3.26725975E-07  1.58115884E-01
Number of Normal Modes                     I               30
Vib-LE2Fix                                 I               14
Vib-NDFDPol                                I                0
Vib-NumROA                                 I                0
Vib-NDim                                   I               12
Vib-NDim0                                  I               12
Vib-LFlags                                 I                8
Vib-IFlags                                 I   N=         240
           0           0           1           0           0           0
           0           0           0           0           2           0
           0           0           0           0           0           0
           3           0           0           0           0           0
           0           0           4           0           0           0
           0           0           0           0           5           0
           0           0           0           0           0           0
           6           0           0           0           0           0
           0           0           7           0           0           0
           0           0           0           0           8           0
           0           0           0           0           0           0
           9           0           0           0           0           0
           0           0          10           0           0           0
           0           0           0           0          11           0
           0           0           0           0           0           0
          12           0           0           0           0           0
           0           0          13           0           0           0
           0           0           0           0          14           0
           0           0           0           0           0           0
          15           0           0           0           0           0
           0           0          16           0           0           0
           0           0           0           0          17           0
           0           0           0           0           0           0
          18           0           0           0           0           0
           0           0          19           0           0           0
           0           0           0           0          20           0
           0           0           0           0           0           0
          21           0           0           0           0           0
           0           0          22           0           0           0
           0           0           0           0          23           0
           0           0           0           0           0           0
          24           0           0           0           0           0
           0           0          25           0           0           0
           0           0           0           0          26           0
           0           0           0           0           0           0
          27           0           0           0           0           0
           0           0          28           0           0           0
           0           0           0           0          29           0
           0           0           0           0           0           0
          30           0           0           0           0           0
Vib-AtMass                                 R   N=          12
  1.20000000E+01  1.20000000E+01  1.20000000E+01  1.20000000E+01  1.20000000E+01
  1.20000000E+01  1.00782504E+00  1.00782504E+00  1.00782504E+00  1.00782504E+00
  1.00782504E+00  1.00782504E+00
Vib-E2                                     R   N=         420
  4.15027819E+02  4.15107217E+02  6.21893474E+02  6.21909991E+02  6.94367566E+02
  7.17774970E+02  8.64514561E+02  8.64604959E+02  9.69091193E+02  9.69192931E+02
  1.01082170E+03  1.01988150E+03  1.02051727E+03  1.06908017E+03  1.06910113E+03
  1.18560118E+03  1.20778482E+03  1.20780608E+03  1.35658392E+03  1.38711257E+03
  1.53139146E+03  1.53141164E+03  1.65600001E+03  1.65600974E+03  3.17448175E+03
  3.18408834E+03  3.18415367E+03  3.19986660E+03  3.19993470E+03  3.21055210E+03
  2.96066719E+00  2.96098513E+00  6.08337685E+00  6.08333215E+00  1.08481589E+00
  3.91442222E+00  1.24766490E+00  1.24766518E+00  1.35537081E+00  1.35529723E+00
  1.21935824E+00  6.55435614E+00  6.03249586E+00  1.70082520E+00  1.70075564E+00
  1.08050208E+00  1.13733405E+00  1.13736424E+00  6.66340763E+00  1.24766503E+00
  2.01559795E+00  2.01575827E+00  5.31975840E+00  5.32024266E+00  1.08342508E+00
  1.08749055E+00  1.08749176E+00  1.09491588E+00  1.09491717E+00  1.09914241E+00
  3.00465221E-01  3.00612472E-01  1.38620328E+00  1.38626673E+00  3.08166263E-01
  1.18821352E+00  5.49405223E-01  5.49520252E-01  7.49959178E-01  7.50075929E-01
  7.34058429E-01  4.01679496E+00  3.70158692E+00  1.14532946E+00  1.14532753E+00
  8.94855789E-01  9.77501372E-01  9.77561743E-01  7.22503430E+00  1.41439795E+00
  2.78500868E+00  2.78530358E+00  8.59533451E+00  8.59621792E+00  6.43272164E+00
  6.49599840E+00  6.49627219E+00  6.60533279E+00  6.60562173E+00  6.67518968E+00
  2.26895900E-08  7.61675030E-07  4.69135228E-11  7.43154490E-11  7.75399312E+01
  3.39665776E-10  6.01429872E-10  2.10180303E-10  1.56091673E-08  4.82200070E-06
  1.13284354E-10  7.12906911E-08  1.10489811E-10  3.26881994E+00  3.26858407E+00
  3.79290923E-08  2.84493905E-09  2.74091823E-09  4.60281917E-07  2.71111792E-10
  6.53908019E+00  6.53873148E+00  3.75837209E-09  4.19735586E-09  1.63226970E-04
  1.06234054E-08  6.49282563E-08  5.19503005E+01  5.19385972E+01  7.62959653E-09
  4.93679722E-11  1.76039350E-10  3.56155367E+00  3.56121344E+00  8.82911507E-11
  5.86630066E-08  5.95632772E+00  5.95511235E+00  3.32128684E-10  8.49362706E-10
  1.38429451E-06  1.00506977E-08  5.18744906E+01  4.09015510E-10  1.37294624E-10
  1.85515974E-08  9.84782236E+00  9.84759556E+00  4.66559026E-08  1.75697112E-07
  1.16018374E-08  9.37144113E-09  1.15110662E+01  1.15119893E+01  1.21656383E-07
  1.36614220E+02  1.36617076E+02  5.31290856E-08  2.09300669E-07  3.76741678E+02
  0.00000000E+00  0.00000000E+00  7.49999995E-01  7.49999957E-01  0.00000000E+00
  7.46873255E-01  7.50000000E-01  7.50000000E-01  0.00000000E+00  0.00000000E+00
  7.47424341E-01  1.02150154E-01  1.01920946E-01  0.00000000E+00  0.00000000E+00
  1.89622386E-01  7.49999998E-01  7.50000000E-01  1.06353311E-01  4.72814862E-01
  7.49999013E-01  0.00000000E+00  7.50000000E-01  7.49999999E-01  4.72134037E-01
  7.49999649E-01  7.49991898E-01  5.34559898E-01  4.24258798E-01  1.04151670E-01
  0.00000000E+00  0.00000000E+00  8.57142854E-01  8.57142829E-01  0.00000000E+00
  8.55097246E-01  8.57142857E-01  8.57142857E-01  0.00000000E+00  0.00000000E+00
  8.55458315E-01  1.85365222E-01  1.84987764E-01  0.00000000E+00  0.00000000E+00
  3.18794246E-01  8.57142856E-01  8.57142857E-01  1.92259218E-01  6.42056071E-01
  8.57142212E-01  0.00000000E+00  8.57142857E-01  8.57142857E-01  6.41428056E-01
  8.57142628E-01  8.57137566E-01  6.96694731E-01  5.95760825E-01  1.88654644E-01
  0.00000000E+00  0.00000000E+00  0.00000000E+00  0.00000000E+00  0.00000000E+00
  0.00000000E+00  0.00000000E+00  0.00000000E+00  0.00000000E+00  0.00000000E+00
  0.00000000E+00  0.00000000E+00  0.00000000E+00  0.00000000E+00  0.00000000E+00
  0.00000000E+00  0.00000000E+00  0.00000000E+00  0.00000000E+00  0.00000000E+00
  0.00000000E+00  0.00000000E+00  0.00000000E+00  0.00000000E+00  0.00000000E+00
  0.00000000E+00  0.00000000E+00  0.00000000E+00  0.00000000E+00  0.00000000E+00
  0.00000000E+00  0.00000000E+00  0.00000000E+00  0.00000000E+00  0.00000000E+00
  0.00000000E+00  0.00000000E+00  0.00000000E+00  0.00000000E+00  0.00000000E+00
  0.00000000E+00  0.00000000E+00  0.00000000E+00  0.00000000E+00  0.00000000E+00
  0.00000000E+00  0.00000000E+00  0.00000000E+00  0.00000000E+00  0.00000000E+00
  0.00000000E+00  0.00000000E+00  0.00000000E+00  0.00000000E+00  0.00000000E+00
  0.00000000E+00  0.00000000E+00  0.00000000E+00  0.00000000E+00  0.00000000E+00
  1.00000000E+02  1.00000000E+02  1.00000000E+02  1.00000000E+02  1.00000000E+02
  1.00000000E+02  1.00000000E+02  1.00000000E+02  1.00000000E+02  1.00000000E+02
  1.00000000E+02  1.00000000E+02  1.00000000E+02  1.00000000E+02  1.00000000E+02
  1.00000000E+02  1.00000000E+02  1.00000000E+02  1.00000000E+02  1.00000000E+02
  1.00000000E+02  1.00000000E+02  1.00000000E+02  1.00000000E+02  1.00000000E+02
  1.00000000E+02  1.00000000E+02  1.00000000E+02  1.00000000E+02  1.00000000E+02
  0.00000000E+00  0.00000000E+00  0.00000000E+00  0.00000000E+00  0.00000000E+00
  0.00000000E+00  0.00000000E+00  0.00000000E+00  0.00000000E+00  0.00000000E+00
  0.00000000E+00  0.00000000E+00  0.00000000E+00  0.00000000E+00  0.00000000E+00
  0.00000000E+00  0.00000000E+00  0.00000000E+00  0.00000000E+00  0.00000000E+00
  0.00000000E+00  0.00000000E+00  0.00000000E+00  0.00000000E+00  0.00000000E+00
  0.00000000E+00  0.00000000E+00  0.00000000E+00  0.00000000E+00  0.00000000E+00
  0.00000000E+00  0.00000000E+00  0.00000000E+00  0.00000000E+00  0.00000000E+00
  0.00000000E+00  0.00000000E+00  0.00000000E+00  0.00000000E+00  0.00000000E+00
  0.00000000E+00  0.00000000E+00  0.00000000E+00  0.00000000E+00  0.00000000E+00
  0.00000000E+00  0.00000000E+00  0.00000000E+00  0.00000000E+00  0.00000000E+00
  0.00000000E+00  0.00000000E+00  0.00000000E+00  0.00000000E+00  0.00000000E+00
  0.00000000E+00  0.00000000E+00  0.00000000E+00  0.00000000E+00  0.00000000E+00
  0.00000000E+00  0.00000000E+00  0.00000000E+00  0.00000000E+00  0.00000000E+00
  0.00000000E+00  0.00000000E+00  0.00000000E+00  0.00000000E+00  0.00000000E+00
  0.00000000E+00  0.00000000E+00  0.00000000E+00  0.00000000E+00  0.00000000E+00
  0.00000000E+00  0.00000000E+00  0.00000000E+00  0.00000000E+00  0.00000000E+00
  0.00000000E+00  0.00000000E+00  0.00000000E+00  0.00000000E+00  0.00000000E+00
  0.00000000E+00  0.00000000E+00  0.00000000E+00  0.00000000E+00  0.00000000E+00
  0.00000000E+00  0.00000000E+00  0.00000000E+00  0.00000000E+00  0.00000000E+00
  0.00000000E+00  0.00000000E+00  0.00000000E+00  0.00000000E+00  0.00000000E+00
  0.00000000E+00  0.00000000E+00  0.00000000E+00  0.00000000E+00  0.00000000E+00
  0.00000000E+00  0.00000000E+00  0.00000000E+00  0.00000000E+00  0.00000000E+00
  0.00000000E+00  0.00000000E+00  0.00000000E+00  0.00000000E+00  0.00000000E+00
  0.00000000E+00  0.00000000E+00  0.00000000E+00  0.00000000E+00  0.00000000E+00
Vib-Modes                                  R   N=        1080
  5.71605863E-08  1.43860345E-07 -2.10287539E-01 -1.99107946E-07  9.18417006E-08
 -9.15684490E-04  7.65778192E-08 -1.62305775E-08  2.11203881E-01 -1.40200376E-08
 -1.47223657E-07 -2.10286976E-01  1.01649976E-07 -1.33891441E-07 -9.14640593E-04
 -3.62141157E-08  2.38352948E-08  2.11204329E-01  4.09404623E-08  2.20942910E-07
 -4.52447776E-01 -5.30349582E-08  7.61383508E-08 -1.94368035E-03  5.69876568E-07
  3.67134148E-07  4.54376730E-01 -1.81963065E-07  1.49177542E-07 -4.52450761E-01
  2.28187147E-07 -1.48964261E-07 -1.94898265E-03 -4.37861624E-07 -2.14251326E-07
  4.54374344E-01  3.69700335E-07 -3.42333543E-08 -1.22465450E-01  2.74178717E-10
 -1.74374520E-07  2.43373462E-01 -2.80523922E-07  5.27456762E-08 -1.20891369E-01
 -2.30814441E-07  8.81059786E-08 -1.22466447E-01 -9.37498632E-08  1.12735667E-07
  2.43373579E-01  2.70649940E-07 -8.15877342E-08 -1.20890558E-01  3.16294219E-07
 -4.80027352E-08 -2.63552115E-01 -5.09892650E-08 -2.96804494E-07  5.23480198E-01
 -7.09445416E-07  1.65386980E-07 -2.60125851E-01 -4.84084975E-07  4.76255473E-08
 -2.63547540E-01 -5.37274392E-08  6.45009291E-07  5.23480356E-01  5.58829115E-07
 -7.73259932E-08 -2.60130562E-01  2.86110090E-01 -2.18847200E-01  1.34518438E-07
  1.54498937E-01  1.48794279E-01 -1.39208842E-07  1.26483393E-01  1.97763789E-01
  1.99774002E-07 -2.86110195E-01  2.18846814E-01 -4.05200398E-08 -1.54498990E-01
 -1.48793623E-01 -6.65645263E-08 -1.26483100E-01 -1.97763843E-01  1.09072439E-07
  2.96368464E-01 -2.03118459E-01 -2.16753046E-07 -1.80328089E-01  1.84675730E-01
 -4.02060381E-07  2.54338719E-01 -9.34132848E-02 -3.02185772E-07 -2.96368968E-01
  2.03117244E-01 -1.92657649E-07  1.80327398E-01 -1.84676316E-01 -4.73278691E-07
 -2.54339134E-01  9.34125179E-02 -7.59560686E-07  1.05594662E-01  1.14052869E-01
  1.69400289E-07 -3.55306939E-02  3.26556917E-01  8.44591409E-08 -3.11017373E-01
 -4.55760213E-02 -9.74428845E-09 -1.05593997E-01 -1.14053319E-01  3.16744687E-07
  3.55303390E-02 -3.26556991E-01 -1.28730657E-07  3.11017291E-01  4.55763422E-02
  1.20609257E-07 -1.17686314E-01 -1.90992441E-01 -1.08167025E-06  1.36124531E-01
  3.07021662E-01 -1.31638427E-06 -2.27393249E-01 -2.33029914E-01 -1.24870982E-06
  1.17685558E-01  1.90993135E-01 -1.17770474E-06 -1.36125435E-01 -3.07020858E-01
 -1.22450929E-06  2.27392204E-01  2.33030839E-01 -5.32383361E-07  6.36074213E-08
  8.10045141E-08 -3.41858137E-02 -1.00921032E-08  1.38169492E-07 -3.41292870E-02
 -1.27600835E-07  3.89922084E-08 -3.41849920E-02 -1.69394968E-07 -1.48308572E-08
 -3.41856901E-02 -1.24785313E-08 -2.59536787E-07 -3.41289131E-02  2.03471416E-07
 -5.11264659E-09 -3.41850075E-02 -3.26699599E-07 -6.29524427E-07  4.06856784E-01
  1.27119093E-07 -8.15417341E-08  4.06720458E-01  1.08875991E-06 -1.18560554E-08
  4.06872415E-01  6.98486917E-07  2.22683483E-07  4.06855893E-01 -1.86831589E-07
  5.99558895E-07  4.06718358E-01 -7.75873869E-07  1.54462899E-07  4.06872429E-01
  3.44882352E-07  7.16429222E-08 -2.09914170E-01  6.92808477E-08 -3.21760603E-07
  2.09939804E-01 -2.71167083E-07  9.02833787E-08 -2.09937442E-01  1.99797534E-07
  2.18562131E-07  2.09913660E-01  5.61424586E-08 -1.27595752E-07 -2.09939100E-01
 -4.10499912E-07  2.76657408E-08  2.09937204E-01  6.32963634E-07  5.35179808E-07
 -3.50243263E-01  9.79231844E-08 -3.71534009E-07  3.50073486E-01 -6.77501201E-07
  1.97945037E-07 -3.50091453E-01  5.21459205E-07  3.61657564E-07  3.50245515E-01
  3.08892637E-07 -4.08400661E-07 -3.50076189E-01 -7.46049252E-07  1.75739589E-07
  3.50092440E-01 -1.28534989E-07 -1.16774635E-07  7.27070551E-02  1.87054477E-07
 -3.92247230E-08 -2.28156693E-03 -2.72452943E-07  1.05809370E-07 -7.49537977E-02
 -1.92805497E-07 -1.27386101E-07 -7.27058518E-02  2.53508490E-07 -7.38474597E-08
  2.27930297E-03 -1.91861202E-07  1.60629785E-07  7.49547589E-02  2.85835002E-07
  6.68180291E-07 -4.86730957E-01  3.94977536E-07 -7.98447589E-08  1.51871383E-02
  1.15044136E-06  3.95345089E-07  5.01949890E-01  7.54576442E-07 -1.45212605E-08
  4.86728210E-01  5.77360772E-07 -1.40201627E-07 -1.51822660E-02  9.45756191E-07
  2.52108048E-07 -5.01950832E-01 -1.33980309E-07  2.22168001E-07 -4.46253501E-02
 -9.36108062E-08 -2.30697978E-08 -8.52173338E-02  1.29314014E-07 -7.64847043E-08
 -4.06961276E-02 -1.17005977E-07  1.41898221E-07  4.46275011E-02 -7.68628794E-08
  4.03134914E-08  8.52166990E-02  1.91689316E-07 -8.51471472E-08  4.06949727E-02
 -3.83598264E-07 -2.52027724E-07  2.98748370E-01  8.75648229E-08 -3.40195480E-07
  5.70632823E-01  1.11388297E-06 -3.94408978E-07  2.72429030E-01 -7.88560488E-07
 -2.70015149E-08 -2.98754404E-01  2.03253768E-07 -1.22139588E-06 -5.70629805E-01
  9.63577212E-07 -3.80639472E-07 -2.72430316E-01 -3.50802258E-07  3.97402951E-07
 -9.15319164E-02 -1.71826387E-08 -5.84352990E-08  5.50567151E-03  5.26994370E-07
  1.72623062E-07  8.60252478E-02 -2.50829718E-07 -2.13406840E-08 -9.15312871E-02
  5.64614741E-08 -4.32807483E-07  5.50640202E-03 -1.83003381E-08  3.91348753E-08
  8.60262620E-02 -7.03575409E-07 -2.81978681E-07  5.06553398E-01  1.71752315E-07
 -3.71905034E-08 -3.04536521E-02 -8.39625458E-07 -1.31598905E-07 -4.76095061E-01
  6.31537822E-07 -1.19240311E-07  5.06548578E-01  2.35937098E-07 -5.29463251E-07
 -3.04557527E-02  1.14288344E-06 -5.04591681E-08 -4.76102033E-01 -4.60907608E-07
  3.46816076E-07  4.64791073E-02 -8.59902660E-08  3.02638865E-07 -1.02511949E-01
  6.67250022E-07  2.09976954E-07  5.60051767E-02  3.78422789E-07 -1.30546023E-07
  4.64789602E-02 -7.33051147E-08 -8.16540005E-07 -1.02511791E-01 -3.61611248E-07
 -6.31991588E-08  5.60028601E-02 -2.28440621E-07  8.35987741E-07 -2.57170424E-01
 -1.71668201E-07  3.78467878E-08  5.67451151E-01 -2.69882583E-07  1.95699262E-07
 -3.09947123E-01  1.15381709E-07  7.29013987E-08 -2.57164186E-01 -4.18027629E-07
  4.37278492E-07  5.67446005E-01  2.12284230E-07  2.16470609E-07 -3.09929169E-01
  4.19285314E-07 -1.32390694E-07 -5.66105538E-02  2.78147662E-07  1.41599510E-06
  5.66725926E-02 -6.56585926E-07 -1.96428281E-07 -5.66146385E-02  1.42587090E-06
 -7.87737014E-07  5.66120631E-02  8.15213822E-08  2.33038891E-07 -5.66747359E-02
 -1.69370651E-06 -6.56891914E-07  5.66151435E-02  3.46792982E-07 -2.92060123E-07
  4.04149766E-01  5.53681065E-07  1.63196513E-06 -4.04564852E-01  5.01523488E-07
  1.00093383E-07  4.04176909E-01  1.01931685E-06 -4.41181249E-07 -4.04157896E-01
  1.93224230E-07  1.00543466E-06  4.04577098E-01 -8.82485947E-07 -5.22876717E-07
 -4.04179489E-01  2.34055117E-01 -1.71237442E-01  7.43340539E-07  3.13059362E-02
  2.88257988E-01 -1.50053681E-06 -2.65365490E-01 -1.17031795E-01  1.74964132E-06
  2.34061512E-01 -1.71242393E-01 -1.41857378E-06  3.13046606E-02  2.88250473E-01
  8.86861287E-07 -2.65373171E-01 -1.17034141E-01 -6.39745881E-07  2.32006326E-01
 -1.69552755E-01 -4.67759583E-06  3.10604078E-02  2.85617157E-01  1.11327082E-05
 -2.62999038E-01 -1.15833818E-01 -9.06073151E-06  2.32014314E-01 -1.69556528E-01
  8.52506166E-06  3.10606182E-02  2.85608556E-01 -7.59770829E-06 -2.63006478E-01
 -1.15838368E-01  3.80974676E-06  2.22758942E-01 -1.62999996E-01 -3.69052834E-07
 -2.97842352E-02 -2.74399304E-01 -6.57084976E-07 -2.52534708E-01 -1.11414130E-01
  4.38830370E-07 -2.22745207E-01  1.63004457E-01  6.95985825E-07  2.97738519E-02
  2.74406851E-01 -1.72511614E-06  2.52531397E-01  1.11401672E-01  1.55342369E-06
  2.42764743E-01 -1.77630488E-01  4.12278795E-06 -3.24595240E-02 -2.99037339E-01
 -8.07463944E-07 -2.75210709E-01 -1.21413290E-01  1.22345994E-06 -2.42749549E-01
  1.77636926E-01 -4.40178998E-06  3.24489092E-02  2.99044717E-01  7.71828271E-06
  2.75205658E-01  1.21404840E-01 -7.10497902E-06  1.07388398E-01 -3.67681013E-02
 -2.18441577E-08 -5.93023279E-02 -8.98283559E-02 -2.96293911E-07 -2.18541004E-02
  8.10870216E-02 -2.37944535E-08  1.07386290E-01 -3.67713868E-02 -8.54698596E-08
 -5.92988877E-02 -8.98286615E-02  4.01478476E-07 -2.18557813E-02  8.10859025E-02
  3.07478963E-08  2.23779993E-01  1.08820382E-01  8.58912314E-07 -3.30228143E-01
 -6.74830648E-02 -1.23270918E-08 -2.05890189E-01  5.00569875E-01  4.28224838E-07
  2.23772210E-01  1.08810660E-01  1.12618674E-07 -3.30216017E-01 -6.74833241E-02
 -9.73027338E-07 -2.05892831E-01  5.00567657E-01 -4.71839813E-07  6.40853555E-03
  8.99211331E-02  2.91802707E-08  5.94705444E-02 -7.68015581E-02 -2.82910460E-07
 -1.11388941E-01 -3.93593856E-02  3.25099075E-07  6.40892101E-03  8.99229910E-02
 -2.98092416E-08  5.94726225E-02 -7.68031159E-02  3.01405322E-07 -1.11390915E-01
 -3.93561581E-02 -3.75848341E-07  2.52457415E-01  4.32115538E-01  3.07396012E-07
  4.28643700E-01 -1.22032986E-01  3.98141888E-07 -1.39226008E-01  2.32367071E-03
 -4.42653298E-07  2.52457987E-01  4.32120692E-01 -1.36677581E-07  4.28648207E-01
 -1.22036183E-01 -3.99981300E-07 -1.39230896E-01  2.33312362E-03  6.65310986E-07
 -1.96108331E-02 -2.67761445E-02 -8.01110215E-08  3.30154840E-02 -3.58795352E-03
 -8.41143108E-08 -1.34065620E-02  3.03615058E-02  5.93189452E-08 -1.96119531E-02
 -2.67732734E-02  1.40377417E-07  3.30136632E-02 -3.58520992E-03  2.12496757E-08
 -1.34041917E-02  3.03618638E-02 -5.69102221E-08 -2.40295176E-01 -3.28353478E-01
 -1.35615021E-07  4.04563851E-01 -4.39184821E-02  2.88122284E-07 -1.64237742E-01
  3.72261128E-01  6.20132373E-09 -2.40287355E-01 -3.28340776E-01 -2.61334860E-07
  4.04542967E-01 -4.39148147E-02  1.26612845E-07 -1.64234239E-01  3.72257038E-01
 -2.17300315E-08 -3.35011348E-02 -4.34452512E-02 -1.57882466E-08  9.69143502E-04
 -2.98681151E-03  8.43346430E-08  2.29779290E-02 -4.84074495E-02 -1.23035606E-10
  3.35024749E-02  4.34448036E-02 -4.72622068E-08 -9.69854481E-04  2.98656680E-03
  1.08021586E-07 -2.29768425E-02  4.84078826E-02  2.90647103E-08 -2.97994148E-01
 -4.05024437E-01 -5.83927795E-07  1.13951099E-02 -3.95599973E-03 -8.51289151E-09
  1.99473683E-01 -4.48695663E-01 -3.75397976E-07  2.97992666E-01  4.05023338E-01
 -3.38253840E-07 -1.14129657E-02  3.95764180E-03 -1.82772334E-07 -1.99474773E-01
  4.48698207E-01 -3.95360439E-07  1.57982148E-02  2.58362276E-02 -1.51749340E-08
 -6.22436444E-02  6.69684605E-03  4.40827257E-08  1.08379872E-02 -3.06348983E-02
 -2.83076165E-08 -1.58000377E-02 -2.58366189E-02  2.68158723E-08  6.22454985E-02
 -6.69539976E-03 -5.67348925E-09 -1.08378834E-02  3.06356002E-02 -7.29364071E-08
  1.61514187E-01  2.24726746E-01  3.98439971E-07 -5.70414394E-01  6.18598710E-02
 -5.14798221E-08  1.17820514E-01 -2.72800695E-01 -7.34519494E-08 -1.61530299E-01
 -2.24748358E-01  6.61398048E-08  5.70430414E-01 -6.18617739E-02  3.38796359E-07
 -1.17822030E-01  2.72803292E-01 -6.88879780E-08 -1.72916198E-01 -2.36326923E-01
 -4.83321971E-07  2.91107819E-01 -3.16129404E-02 -1.26160562E-07 -1.18190786E-01
  2.67941181E-01  2.96298539E-07 -1.72923702E-01 -2.36321609E-01  4.25150740E-07
  2.91107775E-01 -3.16034642E-02  1.86765720E-07 -1.18181948E-01  2.67945469E-01
 -2.98546085E-07  1.67948538E-01  2.29482295E-01  1.71166822E-06 -2.82817440E-01
  3.06808533E-02  1.19939128E-06  1.14846141E-01 -2.60305794E-01 -1.24781075E-06
  1.67939098E-01  2.29493185E-01 -2.42541470E-06 -2.82811344E-01  3.06940558E-02
 -4.61917491E-07  1.14859756E-01 -2.60303128E-01  1.22186423E-06 -3.56193144E-02
 -4.86695934E-02 -7.10399391E-08 -5.99367142E-02  6.50495358E-03  4.76376234E-08
 -2.43460817E-02  5.51796701E-02  5.07535900E-08  3.56190958E-02  4.86683693E-02
 -9.77167974E-08  5.99362785E-02 -6.50464536E-03  2.03100459E-08  2.43462504E-02
 -5.51788206E-02  4.98113327E-08  2.38412322E-01  3.25812088E-01  4.06640162E-07
  4.01472317E-01 -4.35782653E-02 -6.36655729E-08  1.62961239E-01 -3.69409668E-01
 -2.46510001E-07 -2.38408323E-01 -3.25811486E-01  3.16361518E-07 -4.01470394E-01
  4.35802768E-02 -1.60122789E-07 -1.62961379E-01  3.69407844E-01 -2.49796331E-07
  9.78238074E-02 -1.68882625E-02  1.24025993E-07 -1.07034037E-01 -5.73139678E-02
 -6.33395025E-08 -3.95958447E-02  1.40281719E-01  6.65722456E-08  9.78155281E-02
 -1.68963414E-02 -7.35293736E-08 -1.07024994E-01 -5.73110077E-02  2.32051610E-08
 -3.96005198E-02  1.40277562E-01 -7.81261343E-08 -7.25880490E-03 -1.93689730E-01
 -1.54988590E-07  3.53625946E-01 -1.22514463E-01 -1.44979754E-07  2.34784960E-01
 -4.70549861E-01 -4.68426501E-07 -7.24588462E-03 -1.93670371E-01  1.23219835E-07
  3.53611575E-01 -1.22510738E-01  2.25994428E-07  2.34779910E-01 -4.70548678E-01
  4.33368891E-07  6.09637688E-02  1.30361166E-01  1.26678134E-07  1.01356182E-01
 -7.44953272E-02 -1.35817513E-07 -9.62420779E-02 -7.06520259E-03  1.51878188E-07
  6.09618184E-02  1.30366984E-01 -1.40183977E-07  1.01362829E-01 -7.45000283E-02
  1.02377534E-07 -9.62468038E-02 -7.05732679E-03 -1.00756722E-07 -3.30803613E-01
 -3.94639628E-01 -7.31952661E-07 -4.02020883E-01 -3.38558104E-02  1.01945969E-07
 -5.39435366E-02 -1.52606878E-01  8.70577338E-08 -3.30811111E-01 -3.94646599E-01
  6.10312012E-07 -4.02039592E-01 -3.38557599E-02 -2.08165761E-07 -5.39367418E-02
 -1.52624023E-01  9.10840215E-08 -1.52171907E-01  4.07526939E-02 -1.39655053E-07
  3.02170520E-01 -8.42022516E-02 -1.22762519E-07 -1.89541379E-01  1.92354611E-01
  3.03293868E-07  1.52183081E-01 -4.07419806E-02 -1.09213123E-07 -3.02167843E-01
  8.41915215E-02 -1.66844812E-07  1.89529853E-01 -1.92348295E-01  2.43127122E-07
 -8.94496087E-02  1.55056657E-01 -2.15061736E-07 -3.96837690E-01 -1.42383028E-02
  2.38367312E-07  3.16722219E-02 -3.36368556E-01 -2.98516645E-07  8.94321101E-02
 -1.55087437E-01  2.32319152E-07  3.96828561E-01  1.42223340E-02  2.77212664E-07
 -3.16732833E-02  3.36340300E-01 -3.28926248E-07  1.70788915E-01  2.77095615E-01
  2.97095744E-07 -1.27333649E-01 -1.27104458E-01 -1.37249687E-07  1.91678198E-02
  2.39720561E-01 -6.18993630E-08 -1.70796797E-01 -2.77087406E-01  2.48135267E-07
  1.27349302E-01  1.27107244E-01 -9.54417697E-08 -1.91692802E-02 -2.39735114E-01
  1.29781779E-08 -2.66481469E-01 -3.15433621E-01 -8.48416745E-07  1.25620466E-01
 -1.70760516E-01 -4.95474062E-07  2.24997550E-01 -1.94302285E-01 -4.47132894E-07
  2.66464092E-01  3.15441556E-01 -8.81828043E-07 -1.25655764E-01  1.70771134E-01
 -6.11839232E-08 -2.25020016E-01  1.94326100E-01 -4.04823073E-07 -2.73533698E-02
  2.00091871E-02  7.62894700E-09 -3.64421663E-03 -3.35675039E-02 -1.30765567E-08
  3.10295164E-02  1.36834561E-02 -8.18755465E-08 -2.73542881E-02  2.00097020E-02
  4.37107487E-08 -3.64461716E-03 -3.35702582E-02  6.17321358E-08  3.10289874E-02
  1.36834009E-02  6.18014001E-08  3.28636473E-01 -2.40474033E-01 -9.94102194E-08
  4.37923050E-02  4.03441268E-01  1.89811270E-07 -3.72809029E-01 -1.64456897E-01
  1.01072072E-06  3.28648110E-01 -2.40480137E-01 -5.13701663E-07  4.37974305E-02
  4.03473136E-01 -7.70639032E-07 -3.72803657E-01 -1.64456039E-01 -7.68388257E-07
 -3.36207144E-02  2.32927798E-02  6.70527097E-09  2.22719843E-03  2.86290914E-03
  1.46279783E-09 -4.06102531E-02 -1.69881493E-02  1.08394765E-07  3.36193960E-02
 -2.32914064E-02 -4.95052156E-08 -2.22718218E-03 -2.86356872E-03  5.97748903E-09
  4.06093484E-02  1.69879079E-02  8.10892477E-08  3.87222948E-01 -2.81797866E-01
 -1.11677871E-07 -6.15482110E-03 -3.57066499E-02 -2.12386445E-08  4.72039012E-01
  2.07137762E-01 -1.27592362E-06 -3.87206747E-01  2.81783014E-01  6.07921852E-07
  6.15557415E-03  3.57134497E-02 -6.38866402E-08 -4.72029690E-01 -2.07135336E-01
 -9.70327364E-07  2.10571353E-02 -1.73789167E-02 -5.08307608E-09  5.16262040E-03
  4.86802927E-02  2.56957412E-08 -1.93354727E-02 -1.03990883E-02  5.29332379E-08
 -2.10551597E-02  1.73775033E-02  3.17865661E-08 -5.16303312E-03 -4.86819752E-02
  8.91998256E-08  1.93319973E-02  1.03978331E-02  3.93748556E-08 -2.56470952E-01
  1.90018119E-01  8.19819284E-08 -6.17351274E-02 -5.70079480E-01 -2.60273150E-07
  2.33685098E-01  1.05312401E-01 -6.32504001E-07  2.56449498E-01 -1.90000871E-01
 -4.08474719E-07  6.17394003E-02  5.70097540E-01 -1.08572714E-06 -2.33645144E-01
 -1.05295901E-01 -4.80095271E-07 -3.31412956E-02  2.66032079E-02  1.04923040E-08
  2.95214103E-03 -4.05559489E-03 -3.98062430E-09 -4.16102727E-02 -1.99682430E-02
  1.08411749E-07 -3.31424538E-02  2.66035286E-02  4.70891311E-08  2.95235509E-03
 -4.05402119E-03  9.77885098E-09 -4.16114576E-02 -1.99691269E-02 -8.05344125E-08
  3.82650947E-01 -2.83297288E-01 -1.07723377E-07 -1.93121806E-04  4.19131595E-02
  1.23658200E-08  4.72445723E-01  2.10673476E-01 -1.27627088E-06  3.82663192E-01
 -2.83303331E-01 -6.06538759E-07 -1.94903668E-04  4.18959935E-02 -7.54074828E-08
  4.72460466E-01  2.10681726E-01  9.66993231E-07  2.48270188E-02 -1.46990327E-02
  4.09139145E-10 -5.76824017E-03 -5.08811907E-02 -2.88685683E-08 -2.16385147E-02
 -6.21972662E-03  5.60432737E-08  2.48293875E-02 -1.47005763E-02 -3.81003627E-08
 -5.76843788E-03 -5.08791912E-02  9.40089627E-08 -2.16404772E-02 -6.22087433E-03
 -4.26059403E-08 -2.62142300E-01  1.86976398E-01  7.74935517E-08  6.23091456E-02
  5.70877247E-01  2.54977880E-07  2.30549685E-01  9.70576816E-02 -6.15267486E-07
 -2.62168513E-01  1.86993793E-01  4.01050487E-07  6.23089161E-02  5.70853343E-01
 -1.07100538E-06  2.30573533E-01  9.70691747E-02  4.65922347E-07  3.00049579E-02
 -2.19530793E-02 -3.84005927E-09 -4.02516150E-03 -3.70771256E-02 -2.24101809E-08
 -3.39973200E-02 -1.49951290E-02  8.61346736E-08 -3.00046216E-02  2.19525292E-02
  4.18561045E-08  4.02516739E-03  3.70750298E-02 -6.59811616E-08  3.39977305E-02
  1.49956865E-02  6.76821284E-08 -3.27793135E-01  2.39861855E-01  9.11248469E-08
  4.39791547E-02  4.05164393E-01  1.86137611E-07  3.71399495E-01  1.63839996E-01
 -1.00338673E-06  3.27789272E-01 -2.39856732E-01 -5.10841375E-07 -4.39781428E-02
 -4.05140486E-01  7.59856487E-07 -3.71405606E-01 -1.63844161E-01 -7.54551105E-07
ClPar MaxAn                                I              200
ClPar NIntPar                              I                4
ClPar NRealPar                             I               16
ClPar NBits                                I               30
ClPar LenBitVec                            I                1
ClPar Read BitMap                          I   N=         200
           0           0           0           0           0           0
           0           0           0           0           0           0
           0           0           0           0           0           0
           0           0           0           0           0           0
           0           0           0           0           0           0
           0           0           0           0           0           0
           0           0           0           0           0           0
           0           0           0           0           0           0
           0           0           0           0           0           0
           0           0           0           0           0           0
           0           0           0           0           0           0
           0           0           0           0           0           0
           0           0           0           0           0           0
           0           0           0           0           0           0
           0           0           0           0           0           0
           0           0           0           0           0           0
           0           0           0           0           0           0
           0           0           0           0           0           0
           0           0           0           0           0           0
           0           0           0           0           0           0
           0           0           0           0           0           0
           0           0           0           0           0           0
           0           0           0           0           0           0
           0           0           0           0           0           0
           0           0           0           0           0           0
           0           0           0           0           0           0
           0           0           0           0           0           0
           0           0           0           0           0           0
           0           0           0           0           0           0
           0           0           0           0           0           0
           0           0           0           0           0           0
           0           0           0           0           0           0
           0           0           0           0           0           0
           0           0
ClPar Default BitMap                       I   N=         200
        2016        2016        2016        2016        2016        2016
        2016        2016        2016        2016        2016        2016
        2016        2016        2016        2016        2016        2016
        2016        2016        2016        2016        2016        2016
        2016        2016        2016        2016        2016        2016
        2016        2016        2016        2016        2016        2016
        2016        2016        2016        2016        2016        2016
        2016        2016        2016        2016        2016        2016
        2016        2016        2016        2016        2016        2016
        2016        2016        2016        2016        2016        2016
        2016        2016        2016        2016        2016        2016
        2016        2016        2016        2016        2016        2016
        2016        2016        2016        2016        2016        2016
        2016        2016        2016        2016        2016        2016
        2016        2016         480         480         480         480
         480         480         480         480         480         480
         480         480         480         480         480         480
         480         480         480         480         480         480
         480         480         480         480         480         480
         480         480         480         480         480         480
         480         480         480         480         480         480
         480         480         480         480         480         480
         480         480         480         480         480         480
         480         480         480         480         480         480
         480         480         480         480         480         480
         480         480         480         480         480         480
         480         480         480         480         480         480
         480         480         480         480         480         480
         480         480         480         480         480         480
         480         480         480         480         480         480
         480         480         480         480         480         480
         480         480         480         480         480         480
         480         480         480         480         480         480
         480         480
ClPar Int Params                           I   N=         800
           0           0           0           0           0           0
           0           0           0           0           0           0
           0           0           0           0           0           0
           0           0           0           0           0           0
           0           0           0           0           0           0
           0           0           0           0           0           0
           0           0           0           0           0           0
           0           0           0           0           0           0
           0           0           0           0           0           0
           0           0           0           0           0           0
           0           0           0           0           0           0
           0           0           0           0           0           0
           0           0           0           0           0           0
           0           0           0           0           0           0
           0           0           0           0           0           0
           0           0           0           0           0           0
           0           0           0           0           0           0
           0           0           0           0           0           0
           0           0           0           0           0           0
           0           0           0           0           0           0
           0           0           0           0           0           0
           0           0           0           0           0           0
           0           0           0           0           0           0
           0           0           0           0           0           0
           0           0           0           0           0           0
           0           0           0           0           0           0
           0           0           0           0           0           0
           0           0           0           0           0           0
           0           0           0           0           0           0
           0           0           0           0           0           0
           0           0           0           0           0           0
           0           0           0           0           0           0
           0           0           0           0           0           0
           0           0           0           0           0           0
           0           0           0           0           0           0
           0           0           0           0           0           0
           0           0           0           0           0           0
           0           0           0           0           0           0
           0           0           0           0           0           0
           0           0           0           0           0           0
           0           0           0           0           0           0
           0           0           0           0           0           0
           0           0           0           0           0           0
           0           0           0           0           0           0
           0           0           0           0           0           0
           0           0           0           0           0           0
           0           0           0           0           0           0
           0           0           0           0           0           0
           0           0           0           0           0           0
           0           0           0           0           0           0
           0           0           0           0           0           0
           0           0           0           0           0           0
           0           0           0           0           0           0
           0           0           0           0           0           0
           0           0           0           0           0           0
           0           0           0           0           0           0
           0           0           0           0           0           0
           0           0           0           0           0           0
           0           0           0           0           0           0
           0           0           0           0           0           0
           0           0           0           0           0           0
           0           0           0           0           0           0
           0           0           0           0           0           0
           0           0           0           0           0           0
           0           0           0           0           0           0
           0           0           0           0           0           0
           0           0           0           0           0           0
           0           0           0           0           0           0
           0           0           0           0           0           0
           0           0           0           0           0           0
           0           0           0           0           0           0
           0           0           0           0           0           0
           0           0           0           0           0           0
           0           0           0           0           0           0
           0           0           0           0           0           0
           0           0           0           0           0           0
           0           0           0           0           0           0
           0           0           0           0           0           0
           0           0           0           0           0           0
           0           0           0           0           0           0
           0           0           0           0           0           0
           0           0           0           0           0           0
           0           0           0           0           0           0
           0           0           0           0           0           0
           0           0           0           0           0           0
           0           0           0           0           0           0
           0           0           0           0           0           0
           0           0           0           0           0           0
           0           0           0           0           0           0
           0           0           0           0           0           0
           0           0           0           0           0           0
           0           0           0           0           0           0
           0           0           0           0           0           0
           0           0           0           0           0           0
           0           0           0           0           0           0
           0           0           0           0           0           0
           0           0           0           0           0           0
           0           0           0           0           0           0
           0           0           0           0           0           0
           0           0           0           0           0           0
           0           0           0           0           0           0
           0           0           0           0           0           0
           0           0           0           0           0           0
           0           0           0           0           0           0
           0           0           0           0           0           0
           0           0           0           0           0           0
           0           0           0           0           0           0
           0           0           0           0           0           0
           0           0           0           0           0           0
           0           0           0           0           0           0
           0           0           0           0           0           0
           0           0           0           0           0           0
           0           0           0           0           0           0
           0           0           0           0           0           0
           0           0           0           0           0           0
           0           0           0           0           0           0
           0           0           0           0           0           0
           0           0           0           0           0           0
           0           0           0           0           0           0
           0           0           0           0           0           0
           0           0           0           0           0           0
           0           0           0           0           0           0
           0           0           0           0           0           0
           0           0           0           0           0           0
           0           0           0           0           0           0
           0           0           0           0           0           0
           0           0           0           0           0           0
           0           0           0           0           0           0
           0           0           0           0           0           0
           0           0           0           0           0           0
           0           0           0           0           0           0
           0           0           0           0           0           0
           0           0           0           0           0           0
           0           0
ClPar Real Params                          R   N=        3200
  0.00000000E+00  0.00000000E+00  0.00000000E+00  0.00000000E+00  0.00000000E+00
  0.00000000E+00  0.00000000E+00  0.00000000E+00  0.00000000E+00  0.00000000E+00
  0.00000000E+00  0.00000000E+00  0.00000000E+00  0.00000000E+00  0.00000000E+00
  0.00000000E+00  0.00000000E+00  0.00000000E+00  0.00000000E+00  0.00000000E+00
  0.00000000E+00  0.00000000E+00  0.00000000E+00  0.00000000E+00  0.00000000E+00
  0.00000000E+00  0.00000000E+00  0.00000000E+00  0.00000000E+00  0.00000000E+00
  0.00000000E+00  0.00000000E+00  0.00000000E+00  0.00000000E+00  0.00000000E+00
  0.00000000E+00  0.00000000E+00  0.00000000E+00  0.00000000E+00  0.00000000E+00
  0.00000000E+00  0.00000000E+00  0.00000000E+00  0.00000000E+00  0.00000000E+00
  0.00000000E+00  0.00000000E+00  0.00000000E+00  0.00000000E+00  0.00000000E+00
  0.00000000E+00  0.00000000E+00  0.00000000E+00  0.00000000E+00  0.00000000E+00
  0.00000000E+00  0.00000000E+00  0.00000000E+00  0.00000000E+00  0.00000000E+00
  0.00000000E+00  0.00000000E+00  0.00000000E+00  0.00000000E+00  0.00000000E+00
  0.00000000E+00  0.00000000E+00  0.00000000E+00  0.00000000E+00  0.00000000E+00
  0.00000000E+00  0.00000000E+00  0.00000000E+00  0.00000000E+00  0.00000000E+00
  0.00000000E+00  0.00000000E+00  0.00000000E+00  0.00000000E+00  0.00000000E+00
  0.00000000E+00  0.00000000E+00  0.00000000E+00  0.00000000E+00  0.00000000E+00
  0.00000000E+00  0.00000000E+00  0.00000000E+00  0.00000000E+00  0.00000000E+00
  0.00000000E+00  0.00000000E+00  0.00000000E+00  0.00000000E+00  0.00000000E+00
  0.00000000E+00  0.00000000E+00  0.00000000E+00  0.00000000E+00  0.00000000E+00
  0.00000000E+00  0.00000000E+00  0.00000000E+00  0.00000000E+00  0.00000000E+00
  0.00000000E+00  0.00000000E+00  0.00000000E+00  0.00000000E+00  0.00000000E+00
  0.00000000E+00  0.00000000E+00  0.00000000E+00  0.00000000E+00  0.00000000E+00
  0.00000000E+00  0.00000000E+00  0.00000000E+00  0.00000000E+00  0.00000000E+00
  0.00000000E+00  0.00000000E+00  0.00000000E+00  0.00000000E+00  0.00000000E+00
  0.00000000E+00  0.00000000E+00  0.00000000E+00  0.00000000E+00  0.00000000E+00
  0.00000000E+00  0.00000000E+00  0.00000000E+00  0.00000000E+00  0.00000000E+00
  0.00000000E+00  0.00000000E+00  0.00000000E+00  0.00000000E+00  0.00000000E+00
  0.00000000E+00  0.00000000E+00  0.00000000E+00  0.00000000E+00  0.00000000E+00
  0.00000000E+00  0.00000000E+00  0.00000000E+00  0.00000000E+00  0.00000000E+00
  0.00000000E+00  0.00000000E+00  0.00000000E+00  0.00000000E+00  0.00000000E+00
  0.00000000E+00  0.00000000E+00  0.00000000E+00  0.00000000E+00  0.00000000E+00
  0.00000000E+00  0.00000000E+00  0.00000000E+00  0.00000000E+00  0.00000000E+00
  0.00000000E+00  0.00000000E+00  0.00000000E+00  0.00000000E+00  0.00000000E+00
  0.00000000E+00  0.00000000E+00  0.00000000E+00  0.00000000E+00  0.00000000E+00
  0.00000000E+00  0.00000000E+00  0.00000000E+00  0.00000000E+00  0.00000000E+00
  0.00000000E+00  0.00000000E+00  0.00000000E+00  0.00000000E+00  0.00000000E+00
  0.00000000E+00  0.00000000E+00  0.00000000E+00  0.00000000E+00  0.00000000E+00
  0.00000000E+00  0.00000000E+00  0.00000000E+00  0.00000000E+00  0.00000000E+00
  0.00000000E+00  0.00000000E+00  0.00000000E+00  0.00000000E+00  0.00000000E+00
  2.26000000E-01  4.43000000E-01  1.01000000E-01  1.47000000E-01  1.92000000E-01
  2.40000000E-01  2.75000000E-01  3.03000000E-01  3.25000000E-01  4.13000000E-01
  9.60000000E-02  1.35000000E-01  1.73000000E-01  2.11000000E-01  2.48000000E-01
  2.86000000E-01  3.23000000E-01  3.60000000E-01  8.20000000E-02  1.04000000E-01
  1.17000000E-01  1.23000000E-01  1.29000000E-01  1.34000000E-01  1.40000000E-01
  1.44000000E-01  1.48000000E-01  1.52000000E-01  1.55000000E-01  1.76000000E-01
  1.98000000E-01  2.19000000E-01  2.39000000E-01  2.60000000E-01  2.80000000E-01
  3.00000000E-01  7.90000000E-02  9.90000000E-02  1.19000000E-01  1.26000000E-01
  1.33000000E-01  1.40000000E-01  1.47000000E-01  1.53000000E-01  1.58000000E-01
  1.63000000E-01  1.57000000E-01  1.70000000E-01  1.87000000E-01  2.03000000E-01
  2.19000000E-01  2.34000000E-01  2.50000000E-01  2.65000000E-01  7.40000000E-02
  9.20000000E-02  1.05000000E-01  1.06000000E-01  1.07000000E-01  1.08000000E-01
  1.09000000E-01  1.10000000E-01  1.11000000E-01  1.12000000E-01  1.13000000E-01
  1.14000000E-01  1.15000000E-01  1.16000000E-01  1.17000000E-01  1.17000000E-01
  1.26000000E-01  1.36000000E-01  1.46000000E-01  1.55000000E-01  1.65000000E-01
  1.73000000E-01  1.82000000E-01  1.90000000E-01  1.62000000E-01  1.78000000E-01
  1.10000000E-01  1.35000000E-01  1.59000000E-01  1.83000000E-01  2.07000000E-01
  2.31000000E-01  6.90000000E-02  9.40000000E-02  1.02000000E-01  1.03000000E-01
  1.05000000E-01  1.07000000E-01  1.09000000E-01  1.11000000E-01  1.13000000E-01
  1.15000000E-01  1.17000000E-01  1.19000000E-01  1.20000000E-01  1.22000000E-01
  1.24000000E-01  1.26000000E-01  1.28000000E-01  1.28000000E-01  1.28000000E-01
  1.28000000E-01  1.28000000E-01  1.28000000E-01  1.28000000E-01  1.28000000E-01
  1.28000000E-01  1.28000000E-01  1.28000000E-01  1.28000000E-01  1.28000000E-01
  1.28000000E-01  1.28000000E-01  1.28000000E-01  1.28000000E-01  1.28000000E-01
  1.28000000E-01  1.28000000E-01  1.28000000E-01  1.28000000E-01  1.28000000E-01
  1.28000000E-01  1.28000000E-01  1.28000000E-01  1.28000000E-01  1.28000000E-01
  1.28000000E-01  1.28000000E-01  1.28000000E-01  1.28000000E-01  1.28000000E-01
  1.28000000E-01  1.28000000E-01  1.28000000E-01  1.28000000E-01  1.28000000E-01
  1.28000000E-01  1.28000000E-01  1.28000000E-01  1.28000000E-01  1.28000000E-01
  1.28000000E-01  1.28000000E-01  1.28000000E-01  1.28000000E-01  1.28000000E-01
  1.28000000E-01  1.28000000E-01  1.28000000E-01  1.28000000E-01  1.28000000E-01
  1.28000000E-01  1.28000000E-01  1.28000000E-01  1.28000000E-01  1.28000000E-01
  1.28000000E-01  1.28000000E-01  1.28000000E-01  1.28000000E-01  1.28000000E-01
  1.28000000E-01  1.28000000E-01  1.28000000E-01  1.28000000E-01  1.28000000E-01
  1.28000000E-01  1.28000000E-01  1.28000000E-01  1.28000000E-01  1.28000000E-01
  1.28000000E-01  1.28000000E-01  1.28000000E-01  1.28000000E-01  1.28000000E-01
  1.28000000E-01  1.28000000E-01  1.28000000E-01  1.28000000E-01  1.28000000E-01
  1.28000000E-01  1.28000000E-01  1.28000000E-01  1.28000000E-01  1.28000000E-01
  1.28000000E-01  1.28000000E-01  1.28000000E-01  1.28000000E-01  1.28000000E-01
  1.28000000E-01  1.28000000E-01  1.28000000E-01  1.28000000E-01  1.28000000E-01
  5.47000000E-01  5.92000000E-01  5.99000000E-01  6.68000000E-01  6.98000000E-01
  7.18000000E-01  7.26000000E-01  7.36000000E-01  7.43000000E-01  7.45000000E-01
  6.07000000E-01  6.66000000E-01  6.93000000E-01  7.09000000E-01  7.20000000E-01
  7.29000000E-01  7.35000000E-01  7.40000000E-01  6.08000000E-01  7.34000000E-01
  7.46000000E-01  7.55000000E-01  7.61000000E-01  7.65000000E-01  7.67000000E-01
  7.60000000E-01  7.49000000E-01  7.33000000E-01  7.08000000E-01  6.48000000E-01
  6.88000000E-01  7.09000000E-01  7.22000000E-01  7.31000000E-01  7.38000000E-01
  7.44000000E-01  6.09000000E-01  7.30000000E-01  7.41000000E-01  7.52000000E-01
  7.58000000E-01  7.63000000E-01  7.66000000E-01  7.58000000E-01  7.48000000E-01
  7.33000000E-01  7.01000000E-01  6.45000000E-01  6.86000000E-01  7.08000000E-01
  7.22000000E-01  7.31000000E-01  7.38000000E-01  7.44000000E-01  6.08000000E-01
  7.28000000E-01  7.32000000E-01  7.32000000E-01  7.32000000E-01  7.32000000E-01
  7.32000000E-01  7.32000000E-01  7.32000000E-01  7.32000000E-01  7.32000000E-01
  7.31000000E-01  7.31000000E-01  7.31000000E-01  7.31000000E-01  7.46000000E-01
  7.37000000E-01  7.46000000E-01  7.51000000E-01  7.55000000E-01  7.58000000E-01
  7.47000000E-01  7.32000000E-01  7.11000000E-01  7.41000000E-01  7.07000000E-01
  7.47000000E-01  7.43000000E-01  7.42000000E-01  7.42000000E-01  7.43000000E-01
  7.44000000E-01  6.05000000E-01  7.24000000E-01  7.26000000E-01  7.26000000E-01
  7.27000000E-01  7.27000000E-01  7.27000000E-01  7.28000000E-01  7.28000000E-01
  7.28000000E-01  7.28000000E-01  7.28000000E-01  7.29000000E-01  7.29000000E-01
  7.29000000E-01  7.29000000E-01  7.29000000E-01  7.29000000E-01  7.29000000E-01
  7.29000000E-01  7.29000000E-01  7.29000000E-01  7.29000000E-01  7.29000000E-01
  7.29000000E-01  7.29000000E-01  7.29000000E-01  7.29000000E-01  7.29000000E-01
  7.29000000E-01  7.29000000E-01  7.29000000E-01  7.29000000E-01  7.29000000E-01
  7.29000000E-01  7.29000000E-01  7.29000000E-01  7.29000000E-01  7.29000000E-01
  7.29000000E-01  7.29000000E-01  7.29000000E-01  7.29000000E-01  7.29000000E-01
  7.29000000E-01  7.29000000E-01  7.29000000E-01  7.29000000E-01  7.29000000E-01
  7.29000000E-01  7.29000000E-01  7.29000000E-01  7.29000000E-01  7.29000000E-01
  7.29000000E-01  7.29000000E-01  7.29000000E-01  7.29000000E-01  7.29000000E-01
  7.29000000E-01  7.29000000E-01  7.29000000E-01  7.29000000E-01  7.29000000E-01
  7.29000000E-01  7.29000000E-01  7.29000000E-01  7.29000000E-01  7.29000000E-01
  7.29000000E-01  7.29000000E-01  7.29000000E-01  7.29000000E-01  7.29000000E-01
  7.29000000E-01  7.29000000E-01  7.29000000E-01  7.29000000E-01  7.29000000E-01
  7.29000000E-01  7.29000000E-01  7.29000000E-01  7.29000000E-01  7.29000000E-01
  7.29000000E-01  7.29000000E-01  7.29000000E-01  7.29000000E-01  7.29000000E-01
  7.29000000E-01  7.29000000E-01  7.29000000E-01  7.29000000E-01  7.29000000E-01
  7.29000000E-01  7.29000000E-01  7.29000000E-01  7.29000000E-01  7.29000000E-01
  7.29000000E-01  7.29000000E-01  7.29000000E-01  7.29000000E-01  7.29000000E-01
  7.29000000E-01  7.29000000E-01  7.29000000E-01  7.29000000E-01  7.29000000E-01
  7.29000000E-01  7.29000000E-01  7.29000000E-01  7.29000000E-01  7.29000000E-01
  1.00000000E+00  1.70400000E+00  3.23000000E-01  3.89000000E-01  4.67000000E-01
  5.67000000E-01  6.36000000E-01  6.64000000E-01  6.96000000E-01  8.79000000E-01
  3.07000000E-01  3.48000000E-01  4.00000000E-01  4.54000000E-01  5.09000000E-01
  5.65000000E-01  6.21000000E-01  6.77000000E-01  2.56000000E-01  3.50000000E-01
  3.64000000E-01  3.62000000E-01  3.62000000E-01  3.62000000E-01  3.62000000E-01
  3.65000000E-01  3.69000000E-01  3.75000000E-01  3.86000000E-01  4.46000000E-01
  4.55000000E-01  4.74000000E-01  4.96000000E-01  5.20000000E-01  5.45000000E-01
  5.70000000E-01  2.45000000E-01  3.22000000E-01  3.55000000E-01  3.59000000E-01
  3.64000000E-01  3.70000000E-01  3.76000000E-01  3.85000000E-01  3.95000000E-01
  4.08000000E-01  3.76000000E-01  4.23000000E-01  4.22000000E-01  4.32000000E-01
  4.45000000E-01  4.59000000E-01  4.75000000E-01  4.91000000E-01  2.28000000E-01
  2.92000000E-01  2.89000000E-01  2.92000000E-01  2.95000000E-01  2.98000000E-01
  3.00000000E-01  3.03000000E-01  3.06000000E-01  3.09000000E-01  3.12000000E-01
  3.15000000E-01  3.18000000E-01  3.21000000E-01  3.24000000E-01  3.61000000E-01
  3.69000000E-01  3.70000000E-01  3.72000000E-01  3.75000000E-01  3.78000000E-01
  3.85000000E-01  3.94000000E-01  4.07000000E-01  5.26000000E-01  6.21000000E-01
  3.36000000E-01  3.54000000E-01  3.71000000E-01  3.86000000E-01  4.02000000E-01
  4.17000000E-01  2.09000000E-01  2.94000000E-01  2.65000000E-01  2.72000000E-01
  2.78000000E-01  2.84000000E-01  2.91000000E-01  2.97000000E-01  3.03000000E-01
  3.10000000E-01  3.16000000E-01  3.22000000E-01  3.29000000E-01  3.35000000E-01
  3.41000000E-01  3.48000000E-01  3.54000000E-01  3.54000000E-01  3.54000000E-01
  3.54000000E-01  3.54000000E-01  3.54000000E-01  3.54000000E-01  3.54000000E-01
  3.54000000E-01  3.54000000E-01  3.54000000E-01  3.54000000E-01  3.54000000E-01
  3.54000000E-01  3.54000000E-01  3.54000000E-01  3.54000000E-01  3.54000000E-01
  3.54000000E-01  3.54000000E-01  3.54000000E-01  3.54000000E-01  3.54000000E-01
  3.54000000E-01  3.54000000E-01  3.54000000E-01  3.54000000E-01  3.54000000E-01
  3.54000000E-01  3.54000000E-01  3.54000000E-01  3.54000000E-01  3.54000000E-01
  3.54000000E-01  3.54000000E-01  3.54000000E-01  3.54000000E-01  3.54000000E-01
  3.54000000E-01  3.54000000E-01  3.54000000E-01  3.54000000E-01  3.54000000E-01
  3.54000000E-01  3.54000000E-01  3.54000000E-01  3.54000000E-01  3.54000000E-01
  3.54000000E-01  3.54000000E-01  3.54000000E-01  3.54000000E-01  3.54000000E-01
  3.54000000E-01  3.54000000E-01  3.54000000E-01  3.54000000E-01  3.54000000E-01
  3.54000000E-01  3.54000000E-01  3.54000000E-01  3.54000000E-01  3.54000000E-01
  3.54000000E-01  3.54000000E-01  3.54000000E-01  3.54000000E-01  3.54000000E-01
  3.54000000E-01  3.54000000E-01  3.54000000E-01  3.54000000E-01  3.54000000E-01
  3.54000000E-01  3.54000000E-01  3.54000000E-01  3.54000000E-01  3.54000000E-01
  3.54000000E-01  3.54000000E-01  3.54000000E-01  3.54000000E-01  3.54000000E-01
  3.54000000E-01  3.54000000E-01  3.54000000E-01  3.54000000E-01  3.54000000E-01
  3.54000000E-01  3.54000000E-01  3.54000000E-01  3.54000000E-01  3.54000000E-01
  3.54000000E-01  3.54000000E-01  3.54000000E-01  3.54000000E-01  3.54000000E-01
  2.74000000E-01  2.96000000E-01  5.80000000E-02  4.40000000E-02  3.90000000E-02
  3.90000000E-02  3.60000000E-02  3.20000000E-02  2.90000000E-02  3.30000000E-02
  5.50000000E-02  3.90000000E-02  3.30000000E-02  3.00000000E-02  2.80000000E-02
  2.60000000E-02  2.50000000E-02  2.50000000E-02  4.50000000E-02  4.40000000E-02
  3.30000000E-02  2.50000000E-02  2.10000000E-02  1.80000000E-02  1.50000000E-02
  1.80000000E-02  2.10000000E-02  2.50000000E-02  3.30000000E-02  5.00000000E-02
  3.80000000E-02  3.10000000E-02  2.70000000E-02  2.40000000E-02  2.20000000E-02
  2.10000000E-02  4.30000000E-02  4.00000000E-02  3.20000000E-02  2.50000000E-02
  2.10000000E-02  1.80000000E-02  1.60000000E-02  1.90000000E-02  2.20000000E-02
  2.80000000E-02  3.10000000E-02  4.70000000E-02  3.40000000E-02  2.80000000E-02
  2.40000000E-02  2.10000000E-02  1.90000000E-02  1.80000000E-02  3.90000000E-02
  3.60000000E-02  2.50000000E-02  2.50000000E-02  2.50000000E-02  2.60000000E-02
  2.60000000E-02  2.60000000E-02  2.70000000E-02  2.70000000E-02  2.70000000E-02
  2.70000000E-02  2.80000000E-02  2.80000000E-02  2.80000000E-02  3.30000000E-02
  3.30000000E-02  2.60000000E-02  2.10000000E-02  1.80000000E-02  1.60000000E-02
  1.80000000E-02  2.20000000E-02  2.60000000E-02  4.90000000E-02  8.20000000E-02
  3.00000000E-02  2.40000000E-02  2.10000000E-02  1.80000000E-02  1.60000000E-02
  1.50000000E-02  3.50000000E-02  3.60000000E-02  2.20000000E-02  2.30000000E-02
  2.40000000E-02  2.40000000E-02  2.50000000E-02  2.50000000E-02  2.60000000E-02
  2.70000000E-02  2.70000000E-02  2.80000000E-02  2.80000000E-02  2.90000000E-02
  3.00000000E-02  3.00000000E-02  3.10000000E-02  3.10000000E-02  3.10000000E-02
  3.10000000E-02  3.10000000E-02  3.10000000E-02  3.10000000E-02  3.10000000E-02
  3.10000000E-02  3.10000000E-02  3.10000000E-02  3.10000000E-02  3.10000000E-02
  3.10000000E-02  3.10000000E-02  3.10000000E-02  3.10000000E-02  3.10000000E-02
  3.10000000E-02  3.10000000E-02  3.10000000E-02  3.10000000E-02  3.10000000E-02
  3.10000000E-02  3.10000000E-02  3.10000000E-02  3.10000000E-02  3.10000000E-02
  3.10000000E-02  3.10000000E-02  3.10000000E-02  3.10000000E-02  3.10000000E-02
  3.10000000E-02  3.10000000E-02  3.10000000E-02  3.10000000E-02  3.10000000E-02
  3.10000000E-02  3.10000000E-02  3.10000000E-02  3.10000000E-02  3.10000000E-02
  3.10000000E-02  3.10000000E-02  3.10000000E-02  3.10000000E-02  3.10000000E-02
  3.10000000E-02  3.10000000E-02  3.10000000E-02  3.10000000E-02  3.10000000E-02
  3.10000000E-02  3.10000000E-02  3.10000000E-02  3.10000000E-02  3.10000000E-02
  3.10000000E-02  3.10000000E-02  3.10000000E-02  3.10000000E-02  3.10000000E-02
  3.10000000E-02  3.10000000E-02  3.10000000E-02  3.10000000E-02  3.10000000E-02
  3.10000000E-02  3.10000000E-02  3.10000000E-02  3.10000000E-02  3.10000000E-02
  3.10000000E-02  3.10000000E-02  3.10000000E-02  3.10000000E-02  3.10000000E-02
  3.10000000E-02  3.10000000E-02  3.10000000E-02  3.10000000E-02  3.10000000E-02
  3.10000000E-02  3.10000000E-02  3.10000000E-02  3.10000000E-02  3.10000000E-02
  3.10000000E-02  3.10000000E-02  3.10000000E-02  3.10000000E-02  3.10000000E-02
  3.10000000E-02  3.10000000E-02  3.10000000E-02  3.10000000E-02  3.10000000E-02
 -5.92770000E-01 -9.17860000E-01 -2.48668000E+00 -8.36430000E-01 -3.18470000E-01
 -4.55790000E-01 -5.70730000E-01 -6.77940000E-01 -7.69860000E-01 -8.51140000E-01
 -1.51908000E+00 -3.18830000E-01 -2.17900000E-01 -3.01260000E-01 -3.72750000E-01
 -4.15890000E-01 -4.45930000E-01 -5.91320000E-01 -9.56370000E-01 -2.88450000E-01
 -4.87320000E-01 -6.34280000E-01 -7.17490000E-01 -7.91980000E-01 -8.68490000E-01
 -9.17520000E-01 -9.54890000E-01 -9.88460000E-01 -1.50055000E+00 -2.92560000E-01
 -2.14960000E-01 -2.91180000E-01 -3.42080000E-01 -3.84480000E-01 -4.34940000E-01
 -5.24310000E-01 -8.10070000E-01 -2.58460000E-01 -4.35550000E-01 -5.32740000E-01
 -6.08450000E-01 -6.10260000E-01 -7.58920000E-01 -8.90130000E-01 -8.45780000E-01
 -8.69340000E-01 -1.38234000E+00 -2.64850000E-01 -1.97280000E-01 -2.65040000E-01
 -2.94470000E-01 -3.16570000E-01 -3.63590000E-01 -4.57840000E-01 -8.61830000E-01
 -1.33004000E+00 -6.82880000E-01 -6.25540000E-01 -6.35430000E-01 -8.79690000E-01
 -9.02690000E-01 -9.59650000E-01 -1.01869000E+00 -6.81170000E-01 -7.96500000E-01
 -9.04950000E-01 -8.34790000E-01 -9.01560000E-01 -9.74130000E-01 -1.03326000E+00
 -7.15490000E-01 -7.83960000E-01 -8.28380000E-01 -5.61040000E-01 -1.03841000E+00
 -8.62500000E-01 -9.59300000E-01 -1.01755000E+00 -7.64900000E-01 -1.29467000E+00
 -1.92740000E-01 -2.56010000E-01 -3.19820000E-01 -1.94660000E-01 -2.60090000E-01
 -4.27990000E-01  0.00000000E+00  0.00000000E+00  0.00000000E+00  0.00000000E+00
  0.00000000E+00  0.00000000E+00  0.00000000E+00  0.00000000E+00  0.00000000E+00
  0.00000000E+00  0.00000000E+00  0.00000000E+00  0.00000000E+00  0.00000000E+00
  0.00000000E+00  0.00000000E+00  0.00000000E+00  0.00000000E+00  0.00000000E+00
  0.00000000E+00  0.00000000E+00  0.00000000E+00  0.00000000E+00  0.00000000E+00
  0.00000000E+00  0.00000000E+00  0.00000000E+00  0.00000000E+00  0.00000000E+00
  0.00000000E+00  0.00000000E+00  0.00000000E+00  0.00000000E+00  0.00000000E+00
  0.00000000E+00  0.00000000E+00  0.00000000E+00  0.00000000E+00  0.00000000E+00
  0.00000000E+00  0.00000000E+00  0.00000000E+00  0.00000000E+00  0.00000000E+00
  0.00000000E+00  0.00000000E+00  0.00000000E+00  0.00000000E+00  0.00000000E+00
  0.00000000E+00  0.00000000E+00  0.00000000E+00  0.00000000E+00  0.00000000E+00
  0.00000000E+00  0.00000000E+00  0.00000000E+00  0.00000000E+00  0.00000000E+00
  0.00000000E+00  0.00000000E+00  0.00000000E+00  0.00000000E+00  0.00000000E+00
  0.00000000E+00  0.00000000E+00  0.00000000E+00  0.00000000E+00  0.00000000E+00
  0.00000000E+00  0.00000000E+00  0.00000000E+00  0.00000000E+00  0.00000000E+00
  0.00000000E+00  0.00000000E+00  0.00000000E+00  0.00000000E+00  0.00000000E+00
  0.00000000E+00  0.00000000E+00  0.00000000E+00  0.00000000E+00  0.00000000E+00
  0.00000000E+00  0.00000000E+00  0.00000000E+00  0.00000000E+00  0.00000000E+00
  0.00000000E+00  0.00000000E+00  0.00000000E+00  0.00000000E+00  0.00000000E+00
  0.00000000E+00  0.00000000E+00  0.00000000E+00  0.00000000E+00  0.00000000E+00
  0.00000000E+00  0.00000000E+00  0.00000000E+00  0.00000000E+00  0.00000000E+00
  0.00000000E+00  0.00000000E+00  0.00000000E+00  0.00000000E+00  0.00000000E+00
  0.00000000E+00  0.00000000E+00  0.00000000E+00  0.00000000E+00  0.00000000E+00
  1.90440000E+00  1.36430000E+00  4.84000000E-01  7.31600000E+00  9.24030000E+00
  8.78200000E+00  5.61290000E+00  4.83340000E+00  3.24870000E+00  2.71090000E+00
  2.01130000E+00  1.50282000E+01  1.46788000E+01  2.13546000E+01  2.38290000E+01
  1.98022000E+01  1.50468000E+01  1.09745000E+01  1.27219000E+01  1.51949000E+01
  1.57342000E+01  2.79222000E+01  1.61366000E+01  2.21252000E+01  2.45676000E+01
  1.96016000E+01  1.79818000E+01  1.72396000E+01  5.01500000E+00  1.92898000E+01
  2.34477000E+01  2.23993000E+01  2.96586000E+01  2.60081000E+01  2.15580000E+01
  1.69594000E+01  1.56479000E+01  1.86897000E+01  1.93530000E+01  3.43444000E+01
  1.98480000E+01  2.72140000E+01  3.02182000E+01  2.41099000E+01  2.21176000E+01
  2.12047000E+01  7.56690000E+00  2.37264000E+01  2.93879000E+01  3.01278000E+01
  4.19382000E+01  3.85203000E+01  3.39511000E+01  2.75774000E+01  1.56460000E+01
  1.04460000E+01  2.01830000E+01  4.99540000E+01  4.76430000E+01  1.18690000E+01
  1.08670000E+01  9.96100000E+00  9.18700000E+00  3.67980000E+01  1.34070000E+01
  9.38200000E+00  9.81700000E+00  8.90800000E+00  8.40700000E+00  8.05800000E+00
  1.29600000E+01  2.67920000E+01  2.49300000E+01  3.45630000E+01  1.11860000E+01
  1.09440000E+01  1.01270000E+01  9.40400000E+00  1.36660000E+01  7.81000000E+00
  6.93600000E+01  5.86630000E+01  4.79690000E+01  4.52740000E+01  3.92290000E+01
  3.30660000E+01  0.00000000E+00  0.00000000E+00  0.00000000E+00  0.00000000E+00
  0.00000000E+00  0.00000000E+00  0.00000000E+00  0.00000000E+00  0.00000000E+00
  0.00000000E+00  0.00000000E+00  0.00000000E+00  0.00000000E+00  0.00000000E+00
  0.00000000E+00  0.00000000E+00  0.00000000E+00  0.00000000E+00  0.00000000E+00
  0.00000000E+00  0.00000000E+00  0.00000000E+00  0.00000000E+00  0.00000000E+00
  0.00000000E+00  0.00000000E+00  0.00000000E+00  0.00000000E+00  0.00000000E+00
  0.00000000E+00  0.00000000E+00  0.00000000E+00  0.00000000E+00  0.00000000E+00
  0.00000000E+00  0.00000000E+00  0.00000000E+00  0.00000000E+00  0.00000000E+00
  0.00000000E+00  0.00000000E+00  0.00000000E+00  0.00000000E+00  0.00000000E+00
  0.00000000E+00  0.00000000E+00  0.00000000E+00  0.00000000E+00  0.00000000E+00
  0.00000000E+00  0.00000000E+00  0.00000000E+00  0.00000000E+00  0.00000000E+00
  0.00000000E+00  0.00000000E+00  0.00000000E+00  0.00000000E+00  0.00000000E+00
  0.00000000E+00  0.00000000E+00  0.00000000E+00  0.00000000E+00  0.00000000E+00
  0.00000000E+00  0.00000000E+00  0.00000000E+00  0.00000000E+00  0.00000000E+00
  0.00000000E+00  0.00000000E+00  0.00000000E+00  0.00000000E+00  0.00000000E+00
  0.00000000E+00  0.00000000E+00  0.00000000E+00  0.00000000E+00  0.00000000E+00
  0.00000000E+00  0.00000000E+00  0.00000000E+00  0.00000000E+00  0.00000000E+00
  0.00000000E+00  0.00000000E+00  0.00000000E+00  0.00000000E+00  0.00000000E+00
  0.00000000E+00  0.00000000E+00  0.00000000E+00  0.00000000E+00  0.00000000E+00
  0.00000000E+00  0.00000000E+00  0.00000000E+00  0.00000000E+00  0.00000000E+00
  0.00000000E+00  0.00000000E+00  0.00000000E+00  0.00000000E+00  0.00000000E+00
  0.00000000E+00  0.00000000E+00  0.00000000E+00  0.00000000E+00  0.00000000E+00
  0.00000000E+00  0.00000000E+00  0.00000000E+00  0.00000000E+00  0.00000000E+00
  0.00000000E+00  0.00000000E+00  0.00000000E+00  0.00000000E+00  0.00000000E+00
  0.00000000E+00  0.00000000E+00  0.00000000E+00  0.00000000E+00  0.00000000E+00
  0.00000000E+00  0.00000000E+00  0.00000000E+00  0.00000000E+00  0.00000000E+00
  0.00000000E+00  0.00000000E+00  0.00000000E+00  0.00000000E+00  0.00000000E+00
  0.00000000E+00  0.00000000E+00  0.00000000E+00  0.00000000E+00  0.00000000E+00
  0.00000000E+00  0.00000000E+00  0.00000000E+00  0.00000000E+00  0.00000000E+00
  0.00000000E+00  0.00000000E+00  0.00000000E+00  0.00000000E+00  0.00000000E+00
  0.00000000E+00  0.00000000E+00  0.00000000E+00  0.00000000E+00  0.00000000E+00
  0.00000000E+00  0.00000000E+00  0.00000000E+00  0.00000000E+00  0.00000000E+00
  0.00000000E+00  0.00000000E+00  0.00000000E+00  0.00000000E+00  0.00000000E+00
  0.00000000E+00  0.00000000E+00  0.00000000E+00  0.00000000E+00  0.00000000E+00
  0.00000000E+00  0.00000000E+00  0.00000000E+00  0.00000000E+00  0.00000000E+00
  0.00000000E+00  0.00000000E+00  0.00000000E+00  0.00000000E+00  0.00000000E+00
  0.00000000E+00  0.00000000E+00  0.00000000E+00  0.00000000E+00  0.00000000E+00
  0.00000000E+00  0.00000000E+00  0.00000000E+00  0.00000000E+00  0.00000000E+00
  0.00000000E+00  0.00000000E+00  0.00000000E+00  0.00000000E+00  0.00000000E+00
  0.00000000E+00  0.00000000E+00  0.00000000E+00  0.00000000E+00  0.00000000E+00
  0.00000000E+00  0.00000000E+00  0.00000000E+00  0.00000000E+00  0.00000000E+00
  0.00000000E+00  0.00000000E+00  0.00000000E+00  0.00000000E+00  0.00000000E+00
  0.00000000E+00  0.00000000E+00  0.00000000E+00  0.00000000E+00  0.00000000E+00
  0.00000000E+00  0.00000000E+00  0.00000000E+00  0.00000000E+00  0.00000000E+00
  0.00000000E+00  0.00000000E+00  0.00000000E+00  0.00000000E+00  0.00000000E+00
  0.00000000E+00  0.00000000E+00  0.00000000E+00  0.00000000E+00  0.00000000E+00
  0.00000000E+00  0.00000000E+00  0.00000000E+00  0.00000000E+00  0.00000000E+00
  0.00000000E+00  0.00000000E+00  0.00000000E+00  0.00000000E+00  0.00000000E+00
  0.00000000E+00  0.00000000E+00  0.00000000E+00  0.00000000E+00  0.00000000E+00
  0.00000000E+00  0.00000000E+00  0.00000000E+00  0.00000000E+00  0.00000000E+00
  0.00000000E+00  0.00000000E+00  0.00000000E+00  0.00000000E+00  0.00000000E+00
  0.00000000E+00  0.00000000E+00  0.00000000E+00  0.00000000E+00  0.00000000E+00
  0.00000000E+00  0.00000000E+00  0.00000000E+00  0.00000000E+00  0.00000000E+00
  0.00000000E+00  0.00000000E+00  0.00000000E+00  0.00000000E+00  0.00000000E+00
  0.00000000E+00  0.00000000E+00  0.00000000E+00  0.00000000E+00  0.00000000E+00
  0.00000000E+00  0.00000000E+00  0.00000000E+00  0.00000000E+00  0.00000000E+00
  0.00000000E+00  0.00000000E+00  0.00000000E+00  0.00000000E+00  0.00000000E+00
  0.00000000E+00  0.00000000E+00  0.00000000E+00  0.00000000E+00  0.00000000E+00
  0.00000000E+00  0.00000000E+00  0.00000000E+00  0.00000000E+00  0.00000000E+00
  0.00000000E+00  0.00000000E+00  0.00000000E+00  0.00000000E+00  0.00000000E+00
  0.00000000E+00  0.00000000E+00  0.00000000E+00  0.00000000E+00  0.00000000E+00
  0.00000000E+00  0.00000000E+00  0.00000000E+00  0.00000000E+00  0.00000000E+00
  0.00000000E+00  0.00000000E+00  0.00000000E+00  0.00000000E+00  0.00000000E+00
  0.00000000E+00  0.00000000E+00  0.00000000E+00  0.00000000E+00  0.00000000E+00
  0.00000000E+00  0.00000000E+00  0.00000000E+00  0.00000000E+00  0.00000000E+00
  0.00000000E+00  0.00000000E+00  0.00000000E+00  0.00000000E+00  0.00000000E+00
  0.00000000E+00  0.00000000E+00  0.00000000E+00  0.00000000E+00  0.00000000E+00
  0.00000000E+00  0.00000000E+00  0.00000000E+00  0.00000000E+00  0.00000000E+00
  0.00000000E+00  0.00000000E+00  0.00000000E+00  0.00000000E+00  0.00000000E+00
  0.00000000E+00  0.00000000E+00  0.00000000E+00  0.00000000E+00  0.00000000E+00
  0.00000000E+00  0.00000000E+00  0.00000000E+00  0.00000000E+00  0.00000000E+00
  0.00000000E+00  0.00000000E+00  0.00000000E+00  0.00000000E+00  0.00000000E+00
  0.00000000E+00  0.00000000E+00  0.00000000E+00  0.00000000E+00  0.00000000E+00
  0.00000000E+00  0.00000000E+00  0.00000000E+00  0.00000000E+00  0.00000000E+00
  0.00000000E+00  0.00000000E+00  0.00000000E+00  0.00000000E+00  0.00000000E+00
  0.00000000E+00  0.00000000E+00  0.00000000E+00  0.00000000E+00  0.00000000E+00
  0.00000000E+00  0.00000000E+00  0.00000000E+00  0.00000000E+00  0.00000000E+00
  0.00000000E+00  0.00000000E+00  0.00000000E+00  0.00000000E+00  0.00000000E+00
  0.00000000E+00  0.00000000E+00  0.00000000E+00  0.00000000E+00  0.00000000E+00
  0.00000000E+00  0.00000000E+00  0.00000000E+00  0.00000000E+00  0.00000000E+00
  0.00000000E+00  0.00000000E+00  0.00000000E+00  0.00000000E+00  0.00000000E+00
  0.00000000E+00  0.00000000E+00  0.00000000E+00  0.00000000E+00  0.00000000E+00
  0.00000000E+00  0.00000000E+00  0.00000000E+00  0.00000000E+00  0.00000000E+00
  0.00000000E+00  0.00000000E+00  0.00000000E+00  0.00000000E+00  0.00000000E+00
  0.00000000E+00  0.00000000E+00  0.00000000E+00  0.00000000E+00  0.00000000E+00
  0.00000000E+00  0.00000000E+00  0.00000000E+00  0.00000000E+00  0.00000000E+00
  0.00000000E+00  0.00000000E+00  0.00000000E+00  0.00000000E+00  0.00000000E+00
  0.00000000E+00  0.00000000E+00  0.00000000E+00  0.00000000E+00  0.00000000E+00
  0.00000000E+00  0.00000000E+00  0.00000000E+00  0.00000000E+00  0.00000000E+00
  0.00000000E+00  0.00000000E+00  0.00000000E+00  0.00000000E+00  0.00000000E+00
  0.00000000E+00  0.00000000E+00  0.00000000E+00  0.00000000E+00  0.00000000E+00
  0.00000000E+00  0.00000000E+00  0.00000000E+00  0.00000000E+00  0.00000000E+00
  0.00000000E+00  0.00000000E+00  0.00000000E+00  0.00000000E+00  0.00000000E+00
  0.00000000E+00  0.00000000E+00  0.00000000E+00  0.00000000E+00  0.00000000E+00
  0.00000000E+00  0.00000000E+00  0.00000000E+00  0.00000000E+00  0.00000000E+00
  0.00000000E+00  0.00000000E+00  0.00000000E+00  0.00000000E+00  0.00000000E+00
  0.00000000E+00  0.00000000E+00  0.00000000E+00  0.00000000E+00  0.00000000E+00
  0.00000000E+00  0.00000000E+00  0.00000000E+00  0.00000000E+00  0.00000000E+00
  0.00000000E+00  0.00000000E+00  0.00000000E+00  0.00000000E+00  0.00000000E+00
  0.00000000E+00  0.00000000E+00  0.00000000E+00  0.00000000E+00  0.00000000E+00
  0.00000000E+00  0.00000000E+00  0.00000000E+00  0.00000000E+00  0.00000000E+00
  0.00000000E+00  0.00000000E+00  0.00000000E+00  0.00000000E+00  0.00000000E+00
  0.00000000E+00  0.00000000E+00  0.00000000E+00  0.00000000E+00  0.00000000E+00
  0.00000000E+00  0.00000000E+00  0.00000000E+00  0.00000000E+00  0.00000000E+00
  0.00000000E+00  0.00000000E+00  0.00000000E+00  0.00000000E+00  0.00000000E+00
  0.00000000E+00  0.00000000E+00  0.00000000E+00  0.00000000E+00  0.00000000E+00
  0.00000000E+00  0.00000000E+00  0.00000000E+00  0.00000000E+00  0.00000000E+00
  0.00000000E+00  0.00000000E+00  0.00000000E+00  0.00000000E+00  0.00000000E+00
  0.00000000E+00  0.00000000E+00  0.00000000E+00  0.00000000E+00  0.00000000E+00
  0.00000000E+00  0.00000000E+00  0.00000000E+00  0.00000000E+00  0.00000000E+00
  0.00000000E+00  0.00000000E+00  0.00000000E+00  0.00000000E+00  0.00000000E+00
  0.00000000E+00  0.00000000E+00  0.00000000E+00  0.00000000E+00  0.00000000E+00
  0.00000000E+00  0.00000000E+00  0.00000000E+00  0.00000000E+00  0.00000000E+00
  0.00000000E+00  0.00000000E+00  0.00000000E+00  0.00000000E+00  0.00000000E+00
  0.00000000E+00  0.00000000E+00  0.00000000E+00  0.00000000E+00  0.00000000E+00
  0.00000000E+00  0.00000000E+00  0.00000000E+00  0.00000000E+00  0.00000000E+00
  0.00000000E+00  0.00000000E+00  0.00000000E+00  0.00000000E+00  0.00000000E+00
  0.00000000E+00  0.00000000E+00  0.00000000E+00  0.00000000E+00  0.00000000E+00
  0.00000000E+00  0.00000000E+00  0.00000000E+00  0.00000000E+00  0.00000000E+00
  0.00000000E+00  0.00000000E+00  0.00000000E+00  0.00000000E+00  0.00000000E+00
  0.00000000E+00  0.00000000E+00  0.00000000E+00  0.00000000E+00  0.00000000E+00
  0.00000000E+00  0.00000000E+00  0.00000000E+00  0.00000000E+00  0.00000000E+00
  0.00000000E+00  0.00000000E+00  0.00000000E+00  0.00000000E+00  0.00000000E+00
  0.00000000E+00  0.00000000E+00  0.00000000E+00  0.00000000E+00  0.00000000E+00
  0.00000000E+00  0.00000000E+00  0.00000000E+00  0.00000000E+00  0.00000000E+00
  0.00000000E+00  0.00000000E+00  0.00000000E+00  0.00000000E+00  0.00000000E+00
  0.00000000E+00  0.00000000E+00  0.00000000E+00  0.00000000E+00  0.00000000E+00
  0.00000000E+00  0.00000000E+00  0.00000000E+00  0.00000000E+00  0.00000000E+00
  0.00000000E+00  0.00000000E+00  0.00000000E+00  0.00000000E+00  0.00000000E+00
  0.00000000E+00  0.00000000E+00  0.00000000E+00  0.00000000E+00  0.00000000E+00
  0.00000000E+00  0.00000000E+00  0.00000000E+00  0.00000000E+00  0.00000000E+00
  0.00000000E+00  0.00000000E+00  0.00000000E+00  0.00000000E+00  0.00000000E+00
  0.00000000E+00  0.00000000E+00  0.00000000E+00  0.00000000E+00  0.00000000E+00
  0.00000000E+00  0.00000000E+00  0.00000000E+00  0.00000000E+00  0.00000000E+00
  0.00000000E+00  0.00000000E+00  0.00000000E+00  0.00000000E+00  0.00000000E+00
  0.00000000E+00  0.00000000E+00  0.00000000E+00  0.00000000E+00  0.00000000E+00
  0.00000000E+00  0.00000000E+00  0.00000000E+00  0.00000000E+00  0.00000000E+00
  0.00000000E+00  0.00000000E+00  0.00000000E+00  0.00000000E+00  0.00000000E+00
  0.00000000E+00  0.00000000E+00  0.00000000E+00  0.00000000E+00  0.00000000E+00
  0.00000000E+00  0.00000000E+00  0.00000000E+00  0.00000000E+00  0.00000000E+00
  0.00000000E+00  0.00000000E+00  0.00000000E+00  0.00000000E+00  0.00000000E+00
  0.00000000E+00  0.00000000E+00  0.00000000E+00  0.00000000E+00  0.00000000E+00
  0.00000000E+00  0.00000000E+00  0.00000000E+00  0.00000000E+00  0.00000000E+00
  0.00000000E+00  0.00000000E+00  0.00000000E+00  0.00000000E+00  0.00000000E+00
  0.00000000E+00  0.00000000E+00  0.00000000E+00  0.00000000E+00  0.00000000E+00
  0.00000000E+00  0.00000000E+00  0.00000000E+00  0.00000000E+00  0.00000000E+00
  0.00000000E+00  0.00000000E+00  0.00000000E+00  0.00000000E+00  0.00000000E+00
  0.00000000E+00  0.00000000E+00  0.00000000E+00  0.00000000E+00  0.00000000E+00
  0.00000000E+00  0.00000000E+00  0.00000000E+00  0.00000000E+00  0.00000000E+00
  0.00000000E+00  0.00000000E+00  0.00000000E+00  0.00000000E+00  0.00000000E+00
  0.00000000E+00  0.00000000E+00  0.00000000E+00  0.00000000E+00  0.00000000E+00
  0.00000000E+00  0.00000000E+00  0.00000000E+00  0.00000000E+00  0.00000000E+00
  0.00000000E+00  0.00000000E+00  0.00000000E+00  0.00000000E+00  0.00000000E+00
  0.00000000E+00  0.00000000E+00  0.00000000E+00  0.00000000E+00  0.00000000E+00
  0.00000000E+00  0.00000000E+00  0.00000000E+00  0.00000000E+00  0.00000000E+00
  0.00000000E+00  0.00000000E+00  0.00000000E+00  0.00000000E+00  0.00000000E+00
  0.00000000E+00  0.00000000E+00  0.00000000E+00  0.00000000E+00  0.00000000E+00
  0.00000000E+00  0.00000000E+00  0.00000000E+00  0.00000000E+00  0.00000000E+00
  0.00000000E+00  0.00000000E+00  0.00000000E+00  0.00000000E+00  0.00000000E+00
  0.00000000E+00  0.00000000E+00  0.00000000E+00  0.00000000E+00  0.00000000E+00
  0.00000000E+00  0.00000000E+00  0.00000000E+00  0.00000000E+00  0.00000000E+00
  0.00000000E+00  0.00000000E+00  0.00000000E+00  0.00000000E+00  0.00000000E+00
  0.00000000E+00  0.00000000E+00  0.00000000E+00  0.00000000E+00  0.00000000E+00
  0.00000000E+00  0.00000000E+00  0.00000000E+00  0.00000000E+00  0.00000000E+00
  0.00000000E+00  0.00000000E+00  0.00000000E+00  0.00000000E+00  0.00000000E+00
  0.00000000E+00  0.00000000E+00  0.00000000E+00  0.00000000E+00  0.00000000E+00
  0.00000000E+00  0.00000000E+00  0.00000000E+00  0.00000000E+00  0.00000000E+00
  0.00000000E+00  0.00000000E+00  0.00000000E+00  0.00000000E+00  0.00000000E+00
  0.00000000E+00  0.00000000E+00  0.00000000E+00  0.00000000E+00  0.00000000E+00
  0.00000000E+00  0.00000000E+00  0.00000000E+00  0.00000000E+00  0.00000000E+00
  0.00000000E+00  0.00000000E+00  0.00000000E+00  0.00000000E+00  0.00000000E+00
  0.00000000E+00  0.00000000E+00  0.00000000E+00  0.00000000E+00  0.00000000E+00
  0.00000000E+00  0.00000000E+00  0.00000000E+00  0.00000000E+00  0.00000000E+00
  0.00000000E+00  0.00000000E+00  0.00000000E+00  0.00000000E+00  0.00000000E+00
  0.00000000E+00  0.00000000E+00  0.00000000E+00  0.00000000E+00  0.00000000E+00
  0.00000000E+00  0.00000000E+00  0.00000000E+00  0.00000000E+00  0.00000000E+00
  0.00000000E+00  0.00000000E+00  0.00000000E+00  0.00000000E+00  0.00000000E+00
  0.00000000E+00  0.00000000E+00  0.00000000E+00  0.00000000E+00  0.00000000E+00
  0.00000000E+00  0.00000000E+00  0.00000000E+00  0.00000000E+00  0.00000000E+00
  0.00000000E+00  0.00000000E+00  0.00000000E+00  0.00000000E+00  0.00000000E+00
  0.00000000E+00  0.00000000E+00  0.00000000E+00  0.00000000E+00  0.00000000E+00
  0.00000000E+00  0.00000000E+00  0.00000000E+00  0.00000000E+00  0.00000000E+00
  0.00000000E+00  0.00000000E+00  0.00000000E+00  0.00000000E+00  0.00000000E+00
  0.00000000E+00  0.00000000E+00  0.00000000E+00  0.00000000E+00  0.00000000E+00
  0.00000000E+00  0.00000000E+00  0.00000000E+00  0.00000000E+00  0.00000000E+00
  0.00000000E+00  0.00000000E+00  0.00000000E+00  0.00000000E+00  0.00000000E+00
  0.00000000E+00  0.00000000E+00  0.00000000E+00  0.00000000E+00  0.00000000E+00
  0.00000000E+00  0.00000000E+00  0.00000000E+00  0.00000000E+00  0.00000000E+00
  0.00000000E+00  0.00000000E+00  0.00000000E+00  0.00000000E+00  0.00000000E+00
  0.00000000E+00  0.00000000E+00  0.00000000E+00  0.00000000E+00  0.00000000E+00
  0.00000000E+00  0.00000000E+00  0.00000000E+00  0.00000000E+00  0.00000000E+00
  0.00000000E+00  0.00000000E+00  0.00000000E+00  0.00000000E+00  0.00000000E+00
  0.00000000E+00  0.00000000E+00  0.00000000E+00  0.00000000E+00  0.00000000E+00
  0.00000000E+00  0.00000000E+00  0.00000000E+00  0.00000000E+00  0.00000000E+00
  0.00000000E+00  0.00000000E+00  0.00000000E+00  0.00000000E+00  0.00000000E+00
  0.00000000E+00  0.00000000E+00  0.00000000E+00  0.00000000E+00  0.00000000E+00
  0.00000000E+00  0.00000000E+00  0.00000000E+00  0.00000000E+00  0.00000000E+00
  0.00000000E+00  0.00000000E+00  0.00000000E+00  0.00000000E+00  0.00000000E+00
  0.00000000E+00  0.00000000E+00  0.00000000E+00  0.00000000E+00  0.00000000E+00
  0.00000000E+00  0.00000000E+00  0.00000000E+00  0.00000000E+00  0.00000000E+00
  0.00000000E+00  0.00000000E+00  0.00000000E+00  0.00000000E+00  0.00000000E+00
  0.00000000E+00  0.00000000E+00  0.00000000E+00  0.00000000E+00  0.00000000E+00
  0.00000000E+00  0.00000000E+00  0.00000000E+00  0.00000000E+00  0.00000000E+00
  0.00000000E+00  0.00000000E+00  0.00000000E+00  0.00000000E+00  0.00000000E+00
  0.00000000E+00  0.00000000E+00  0.00000000E+00  0.00000000E+00  0.00000000E+00
  0.00000000E+00  0.00000000E+00  0.00000000E+00  0.00000000E+00  0.00000000E+00
  0.00000000E+00  0.00000000E+00  0.00000000E+00  0.00000000E+00  0.00000000E+00
  0.00000000E+00  0.00000000E+00  0.00000000E+00  0.00000000E+00  0.00000000E+00
  0.00000000E+00  0.00000000E+00  0.00000000E+00  0.00000000E+00  0.00000000E+00
  0.00000000E+00  0.00000000E+00  0.00000000E+00  0.00000000E+00  0.00000000E+00
  0.00000000E+00  0.00000000E+00  0.00000000E+00  0.00000000E+00  0.00000000E+00
  0.00000000E+00  0.00000000E+00  0.00000000E+00  0.00000000E+00  0.00000000E+00
  0.00000000E+00  0.00000000E+00  0.00000000E+00  0.00000000E+00  0.00000000E+00
  0.00000000E+00  0.00000000E+00  0.00000000E+00  0.00000000E+00  0.00000000E+00
  0.00000000E+00  0.00000000E+00  0.00000000E+00  0.00000000E+00  0.00000000E+00
  0.00000000E+00  0.00000000E+00  0.00000000E+00  0.00000000E+00  0.00000000E+00
  0.00000000E+00  0.00000000E+00  0.00000000E+00  0.00000000E+00  0.00000000E+00
  0.00000000E+00  0.00000000E+00  0.00000000E+00  0.00000000E+00  0.00000000E+00
  0.00000000E+00  0.00000000E+00  0.00000000E+00  0.00000000E+00  0.00000000E+00
  0.00000000E+00  0.00000000E+00  0.00000000E+00  0.00000000E+00  0.00000000E+00
  0.00000000E+00  0.00000000E+00  0.00000000E+00  0.00000000E+00  0.00000000E+00
  0.00000000E+00  0.00000000E+00  0.00000000E+00  0.00000000E+00  0.00000000E+00
  0.00000000E+00  0.00000000E+00  0.00000000E+00  0.00000000E+00  0.00000000E+00
  0.00000000E+00  0.00000000E+00  0.00000000E+00  0.00000000E+00  0.00000000E+00
  0.00000000E+00  0.00000000E+00  0.00000000E+00  0.00000000E+00  0.00000000E+00
  0.00000000E+00  0.00000000E+00  0.00000000E+00  0.00000000E+00  0.00000000E+00
  0.00000000E+00  0.00000000E+00  0.00000000E+00  0.00000000E+00  0.00000000E+00
  0.00000000E+00  0.00000000E+00  0.00000000E+00  0.00000000E+00  0.00000000E+00
  0.00000000E+00  0.00000000E+00  0.00000000E+00  0.00000000E+00  0.00000000E+00
  0.00000000E+00  0.00000000E+00  0.00000000E+00  0.00000000E+00  0.00000000E+00
  0.00000000E+00  0.00000000E+00  0.00000000E+00  0.00000000E+00  0.00000000E+00
  0.00000000E+00  0.00000000E+00  0.00000000E+00  0.00000000E+00  0.00000000E+00
  0.00000000E+00  0.00000000E+00  0.00000000E+00  0.00000000E+00  0.00000000E+00
  0.00000000E+00  0.00000000E+00  0.00000000E+00  0.00000000E+00  0.00000000E+00
  0.00000000E+00  0.00000000E+00  0.00000000E+00  0.00000000E+00  0.00000000E+00
  0.00000000E+00  0.00000000E+00  0.00000000E+00  0.00000000E+00  0.00000000E+00
  0.00000000E+00  0.00000000E+00  0.00000000E+00  0.00000000E+00  0.00000000E+00
  0.00000000E+00  0.00000000E+00  0.00000000E+00  0.00000000E+00  0.00000000E+00
  0.00000000E+00  0.00000000E+00  0.00000000E+00  0.00000000E+00  0.00000000E+00
  0.00000000E+00  0.00000000E+00  0.00000000E+00  0.00000000E+00  0.00000000E+00
  0.00000000E+00  0.00000000E+00  0.00000000E+00  0.00000000E+00  0.00000000E+00
  0.00000000E+00  0.00000000E+00  0.00000000E+00  0.00000000E+00  0.00000000E+00
  0.00000000E+00  0.00000000E+00  0.00000000E+00  0.00000000E+00  0.00000000E+00
  0.00000000E+00  0.00000000E+00  0.00000000E+00  0.00000000E+00  0.00000000E+00
  0.00000000E+00  0.00000000E+00  0.00000000E+00  0.00000000E+00  0.00000000E+00
  0.00000000E+00  0.00000000E+00  0.00000000E+00  0.00000000E+00  0.00000000E+00
  0.00000000E+00  0.00000000E+00  0.00000000E+00  0.00000000E+00  0.00000000E+00
  0.00000000E+00  0.00000000E+00  0.00000000E+00  0.00000000E+00  0.00000000E+00
  0.00000000E+00  0.00000000E+00  0.00000000E+00  0.00000000E+00  0.00000000E+00
  0.00000000E+00  0.00000000E+00  0.00000000E+00  0.00000000E+00  0.00000000E+00
  0.00000000E+00  0.00000000E+00  0.00000000E+00  0.00000000E+00  0.00000000E+00
  0.00000000E+00  0.00000000E+00  0.00000000E+00  0.00000000E+00  0.00000000E+00
  0.00000000E+00  0.00000000E+00  0.00000000E+00  0.00000000E+00  0.00000000E+00
  0.00000000E+00  0.00000000E+00  0.00000000E+00  0.00000000E+00  0.00000000E+00
  0.00000000E+00  0.00000000E+00  0.00000000E+00  0.00000000E+00  0.00000000E+00
  0.00000000E+00  0.00000000E+00  0.00000000E+00  0.00000000E+00  0.00000000E+00
  0.00000000E+00  0.00000000E+00  0.00000000E+00  0.00000000E+00  0.00000000E+00
  0.00000000E+00  0.00000000E+00  0.00000000E+00  0.00000000E+00  0.00000000E+00
  0.00000000E+00  0.00000000E+00  0.00000000E+00  0.00000000E+00  0.00000000E+00
  0.00000000E+00  0.00000000E+00  0.00000000E+00  0.00000000E+00  0.00000000E+00
  0.00000000E+00  0.00000000E+00  0.00000000E+00  0.00000000E+00  0.00000000E+00
  0.00000000E+00  0.00000000E+00  0.00000000E+00  0.00000000E+00  0.00000000E+00
  0.00000000E+00  0.00000000E+00  0.00000000E+00  0.00000000E+00  0.00000000E+00
  0.00000000E+00  0.00000000E+00  0.00000000E+00  0.00000000E+00  0.00000000E+00
  0.00000000E+00  0.00000000E+00  0.00000000E+00  0.00000000E+00  0.00000000E+00
  0.00000000E+00  0.00000000E+00  0.00000000E+00  0.00000000E+00  0.00000000E+00
  0.00000000E+00  0.00000000E+00  0.00000000E+00  0.00000000E+00  0.00000000E+00
  0.00000000E+00  0.00000000E+00  0.00000000E+00  0.00000000E+00  0.00000000E+00
  0.00000000E+00  0.00000000E+00  0.00000000E+00  0.00000000E+00  0.00000000E+00
  0.00000000E+00  0.00000000E+00  0.00000000E+00  0.00000000E+00  0.00000000E+00
  0.00000000E+00  0.00000000E+00  0.00000000E+00  0.00000000E+00  0.00000000E+00
  0.00000000E+00  0.00000000E+00  0.00000000E+00  0.00000000E+00  0.00000000E+00
  0.00000000E+00  0.00000000E+00  0.00000000E+00  0.00000000E+00  0.00000000E+00
  0.00000000E+00  0.00000000E+00  0.00000000E+00  0.00000000E+00  0.00000000E+00
  0.00000000E+00  0.00000000E+00  0.00000000E+00  0.00000000E+00  0.00000000E+00
  0.00000000E+00  0.00000000E+00  0.00000000E+00  0.00000000E+00  0.00000000E+00
  0.00000000E+00  0.00000000E+00  0.00000000E+00  0.00000000E+00  0.00000000E+00
  0.00000000E+00  0.00000000E+00  0.00000000E+00  0.00000000E+00  0.00000000E+00
  0.00000000E+00  0.00000000E+00  0.00000000E+00  0.00000000E+00  0.00000000E+00
  0.00000000E+00  0.00000000E+00  0.00000000E+00  0.00000000E+00  0.00000000E+00
  0.00000000E+00  0.00000000E+00  0.00000000E+00  0.00000000E+00  0.00000000E+00
  0.00000000E+00  0.00000000E+00  0.00000000E+00  0.00000000E+00  0.00000000E+00
  0.00000000E+00  0.00000000E+00  0.00000000E+00  0.00000000E+00  0.00000000E+00
  0.00000000E+00  0.00000000E+00  0.00000000E+00  0.00000000E+00  0.00000000E+00
  0.00000000E+00  0.00000000E+00  0.00000000E+00  0.00000000E+00  0.00000000E+00
  0.00000000E+00  0.00000000E+00  0.00000000E+00  0.00000000E+00  0.00000000E+00
  0.00000000E+00  0.00000000E+00  0.00000000E+00  0.00000000E+00  0.00000000E+00
  0.00000000E+00  0.00000000E+00  0.00000000E+00  0.00000000E+00  0.00000000E+00
  0.00000000E+00  0.00000000E+00  0.00000000E+00  0.00000000E+00  0.00000000E+00
  0.00000000E+00  0.00000000E+00  0.00000000E+00  0.00000000E+00  0.00000000E+00
  0.00000000E+00  0.00000000E+00  0.00000000E+00  0.00000000E+00  0.00000000E+00
  0.00000000E+00  0.00000000E+00  0.00000000E+00  0.00000000E+00  0.00000000E+00
  0.00000000E+00  0.00000000E+00  0.00000000E+00  0.00000000E+00  0.00000000E+00
  0.00000000E+00  0.00000000E+00  0.00000000E+00  0.00000000E+00  0.00000000E+00
  0.00000000E+00  0.00000000E+00  0.00000000E+00  0.00000000E+00  0.00000000E+00
  0.00000000E+00  0.00000000E+00  0.00000000E+00  0.00000000E+00  0.00000000E+00
  0.00000000E+00  0.00000000E+00  0.00000000E+00  0.00000000E+00  0.00000000E+00
  0.00000000E+00  0.00000000E+00  0.00000000E+00  0.00000000E+00  0.00000000E+00
  0.00000000E+00  0.00000000E+00  0.00000000E+00  0.00000000E+00  0.00000000E+00
  0.00000000E+00  0.00000000E+00  0.00000000E+00  0.00000000E+00  0.00000000E+00
  0.00000000E+00  0.00000000E+00  0.00000000E+00  0.00000000E+00  0.00000000E+00
  0.00000000E+00  0.00000000E+00  0.00000000E+00  0.00000000E+00  0.00000000E+00
  0.00000000E+00  0.00000000E+00  0.00000000E+00  0.00000000E+00  0.00000000E+00
  0.00000000E+00  0.00000000E+00  0.00000000E+00  0.00000000E+00  0.00000000E+00
  0.00000000E+00  0.00000000E+00  0.00000000E+00  0.00000000E+00  0.00000000E+00
  0.00000000E+00  0.00000000E+00  0.00000000E+00  0.00000000E+00  0.00000000E+00
  0.00000000E+00  0.00000000E+00  0.00000000E+00  0.00000000E+00  0.00000000E+00
  0.00000000E+00  0.00000000E+00  0.00000000E+00  0.00000000E+00  0.00000000E+00
  0.00000000E+00  0.00000000E+00  0.00000000E+00  0.00000000E+00  0.00000000E+00
  0.00000000E+00  0.00000000E+00  0.00000000E+00  0.00000000E+00  0.00000000E+00
  0.00000000E+00  0.00000000E+00  0.00000000E+00  0.00000000E+00  0.00000000E+00
  0.00000000E+00  0.00000000E+00  0.00000000E+00  0.00000000E+00  0.00000000E+00
  0.00000000E+00  0.00000000E+00  0.00000000E+00  0.00000000E+00  0.00000000E+00
  0.00000000E+00  0.00000000E+00  0.00000000E+00  0.00000000E+00  0.00000000E+00
  0.00000000E+00  0.00000000E+00  0.00000000E+00  0.00000000E+00  0.00000000E+00
  0.00000000E+00  0.00000000E+00  0.00000000E+00  0.00000000E+00  0.00000000E+00
  0.00000000E+00  0.00000000E+00  0.00000000E+00  0.00000000E+00  0.00000000E+00
  0.00000000E+00  0.00000000E+00  0.00000000E+00  0.00000000E+00  0.00000000E+00
  0.00000000E+00  0.00000000E+00  0.00000000E+00  0.00000000E+00  0.00000000E+00
  0.00000000E+00  0.00000000E+00  0.00000000E+00  0.00000000E+00  0.00000000E+00
  0.00000000E+00  0.00000000E+00  0.00000000E+00  0.00000000E+00  0.00000000E+00
  0.00000000E+00  0.00000000E+00  0.00000000E+00  0.00000000E+00  0.00000000E+00
  0.00000000E+00  0.00000000E+00  0.00000000E+00  0.00000000E+00  0.00000000E+00
  0.00000000E+00  0.00000000E+00  0.00000000E+00  0.00000000E+00  0.00000000E+00
  0.00000000E+00  0.00000000E+00  0.00000000E+00  0.00000000E+00  0.00000000E+00
  0.00000000E+00  0.00000000E+00  0.00000000E+00  0.00000000E+00  0.00000000E+00
  0.00000000E+00  0.00000000E+00  0.00000000E+00  0.00000000E+00  0.00000000E+00
  0.00000000E+00  0.00000000E+00  0.00000000E+00  0.00000000E+00  0.00000000E+00
  0.00000000E+00  0.00000000E+00  0.00000000E+00  0.00000000E+00  0.00000000E+00
  0.00000000E+00  0.00000000E+00  0.00000000E+00  0.00000000E+00  0.00000000E+00
  0.00000000E+00  0.00000000E+00  0.00000000E+00  0.00000000E+00  0.00000000E+00
  0.00000000E+00  0.00000000E+00  0.00000000E+00  0.00000000E+00  0.00000000E+00
  0.00000000E+00  0.00000000E+00  0.00000000E+00  0.00000000E+00  0.00000000E+00
  0.00000000E+00  0.00000000E+00  0.00000000E+00  0.00000000E+00  0.00000000E+00
  0.00000000E+00  0.00000000E+00  0.00000000E+00  0.00000000E+00  0.00000000E+00
  0.00000000E+00  0.00000000E+00  0.00000000E+00  0.00000000E+00  0.00000000E+00
  0.00000000E+00  0.00000000E+00  0.00000000E+00  0.00000000E+00  0.00000000E+00
  0.00000000E+00  0.00000000E+00  0.00000000E+00  0.00000000E+00  0.00000000E+00
  0.00000000E+00  0.00000000E+00  0.00000000E+00  0.00000000E+00  0.00000000E+00
  0.00000000E+00  0.00000000E+00  0.00000000E+00  0.00000000E+00  0.00000000E+00
  0.00000000E+00  0.00000000E+00  0.00000000E+00  0.00000000E+00  0.00000000E+00
  0.00000000E+00  0.00000000E+00  0.00000000E+00  0.00000000E+00  0.00000000E+00
  0.00000000E+00  0.00000000E+00  0.00000000E+00  0.00000000E+00  0.00000000E+00
  0.00000000E+00  0.00000000E+00  0.00000000E+00  0.00000000E+00  0.00000000E+00
  0.00000000E+00  0.00000000E+00  0.00000000E+00  0.00000000E+00  0.00000000E+00
  0.00000000E+00  0.00000000E+00  0.00000000E+00  0.00000000E+00  0.00000000E+00
  0.00000000E+00  0.00000000E+00  0.00000000E+00  0.00000000E+00  0.00000000E+00
  0.00000000E+00  0.00000000E+00  0.00000000E+00  0.00000000E+00  0.00000000E+00
  0.00000000E+00  0.00000000E+00  0.00000000E+00  0.00000000E+00  0.00000000E+00
  0.00000000E+00  0.00000000E+00  0.00000000E+00  0.00000000E+00  0.00000000E+00
  0.00000000E+00  0.00000000E+00  0.00000000E+00  0.00000000E+00  0.00000000E+00
  0.00000000E+00  0.00000000E+00  0.00000000E+00  0.00000000E+00  0.00000000E+00
  0.00000000E+00  0.00000000E+00  0.00000000E+00  0.00000000E+00  0.00000000E+00
  0.00000000E+00  0.00000000E+00  0.00000000E+00  0.00000000E+00  0.00000000E+00
  0.00000000E+00  0.00000000E+00  0.00000000E+00  0.00000000E+00  0.00000000E+00
  0.00000000E+00  0.00000000E+00  0.00000000E+00  0.00000000E+00  0.00000000E+00
  0.00000000E+00  0.00000000E+00  0.00000000E+00  0.00000000E+00  0.00000000E+00
  0.00000000E+00  0.00000000E+00  0.00000000E+00  0.00000000E+00  0.00000000E+00
  0.00000000E+00  0.00000000E+00  0.00000000E+00  0.00000000E+00  0.00000000E+00
  0.00000000E+00  0.00000000E+00  0.00000000E+00  0.00000000E+00  0.00000000E+00
  0.00000000E+00  0.00000000E+00  0.00000000E+00  0.00000000E+00  0.00000000E+00
  0.00000000E+00  0.00000000E+00  0.00000000E+00  0.00000000E+00  0.00000000E+00
  0.00000000E+00  0.00000000E+00  0.00000000E+00  0.00000000E+00  0.00000000E+00
  0.00000000E+00  0.00000000E+00  0.00000000E+00  0.00000000E+00  0.00000000E+00
  0.00000000E+00  0.00000000E+00  0.00000000E+00  0.00000000E+00  0.00000000E+00
  0.00000000E+00  0.00000000E+00  0.00000000E+00  0.00000000E+00  0.00000000E+00
  0.00000000E+00  0.00000000E+00  0.00000000E+00  0.00000000E+00  0.00000000E+00
  0.00000000E+00  0.00000000E+00  0.00000000E+00  0.00000000E+00  0.00000000E+00
  0.00000000E+00  0.00000000E+00  0.00000000E+00  0.00000000E+00  0.00000000E+00
  0.00000000E+00  0.00000000E+00  0.00000000E+00  0.00000000E+00  0.00000000E+00
  0.00000000E+00  0.00000000E+00  0.00000000E+00  0.00000000E+00  0.00000000E+00
  0.00000000E+00  0.00000000E+00  0.00000000E+00  0.00000000E+00  0.00000000E+00
  0.00000000E+00  0.00000000E+00  0.00000000E+00  0.00000000E+00  0.00000000E+00
  0.00000000E+00  0.00000000E+00  0.00000000E+00  0.00000000E+00  0.00000000E+00
  0.00000000E+00  0.00000000E+00  0.00000000E+00  0.00000000E+00  0.00000000E+00
  0.00000000E+00  0.00000000E+00  0.00000000E+00  0.00000000E+00  0.00000000E+00
  0.00000000E+00  0.00000000E+00  0.00000000E+00  0.00000000E+00  0.00000000E+00
  0.00000000E+00  0.00000000E+00  0.00000000E+00  0.00000000E+00  0.00000000E+00
  0.00000000E+00  0.00000000E+00  0.00000000E+00  0.00000000E+00  0.00000000E+00
  0.00000000E+00  0.00000000E+00  0.00000000E+00  0.00000000E+00  0.00000000E+00
  0.00000000E+00  0.00000000E+00  0.00000000E+00  0.00000000E+00  0.00000000E+00
  0.00000000E+00  0.00000000E+00  0.00000000E+00  0.00000000E+00  0.00000000E+00
  0.00000000E+00  0.00000000E+00  0.00000000E+00  0.00000000E+00  0.00000000E+00
Gaussian Version                           C   N=           2
ES64L-G16RevC.01        
