energy: -10.308452237205 gnorm: 0.000357528993 xtb: 6.7.1 (edcfbbe)     
Freq      RB3LYP                                                      6-31G(d)            
Number of atoms                            I                3
Info1-9                                    I   N=           9
          11          11        1002           0           0         100
           6          18        -502
Full Title                                 C   N=           6
energy: -10.308452237205 gnorm: 0.000357528993 xtb: 6.7.1 (e
dcfbbe)     
Route                                      C   N=           3
#p B3LYP/6-31G(d) Opt Freq          
Charge                                     I                0
Multiplicity                               I                1
Number of electrons                        I               22
Number of alpha electrons                  I               11
Number of beta electrons                   I               11
Number of basis functions                  I               45
Number of independent functions            I               45
Number of point charges in /Mol/           I                0
Number of translation vectors              I                0
Atomic numbers                             I   N=           3
           6           8           8
Nuclear charges                            R   N=           3
  6.00000000E+00  8.00000000E+00  8.00000000E+00
Current cartesian coordinates              R   N=           9
  0.00000000E+00  0.00000000E+00 -0.00000000E+00  0.00000000E+00  0.00000000E+00
  2.20939580E+00  2.63677968E-16  0.00000000E+00 -2.20939580E+00
Number of symbols in /Mol/                 I                0
Int Atom Types                             I   N=           3
           0           0           0
Force Field                                I                0
Atom Types                                 C   N=           3
                                    
MM charges                                 R   N=           3
  0.00000000E+00  0.00000000E+00  0.00000000E+00
Integer atomic weights                     I   N=           3
          12          16          16
Real atomic weights                        R   N=           3
  1.20000000E+01  1.59949146E+01  1.59949146E+01
Atom fragment info                         I   N=           3
           0           0           0
Atom residue num                           I   N=           3
           0           0           0
Nuclear spins                              I   N=           3
           0           0           0
Nuclear ZEff                               R   N=           3
 -3.60000000E+00 -5.60000000E+00 -5.60000000E+00
Nuclear ZNuc                               R   N=           3
  6.00000000E+00  8.00000000E+00  8.00000000E+00
Nuclear QMom                               R   N=           3
  0.00000000E+00  0.00000000E+00  0.00000000E+00
Nuclear GFac                               R   N=           3
  0.00000000E+00  0.00000000E+00  0.00000000E+00
MicOpt                                     I   N=           3
          -1          -1          -1
Number of residues                         I                0
Number of secondary structures             I                0
Redundant internal dimensions              I   N=           4
           4           2           2           0
Redundant internal coordinate indices      I   N=          16
           1           2           0           0           1           3
           0           0           2           1           3          -4
           2           1           3          -8
Redundant internal coordinates             R   N=           4
  2.20939580E+00  2.20939580E+00  3.14159265E+00  3.14159265E+00
ZRed-IntVec                                I   N=           4
           0           0           0           0
ZRed-FPVec                                 R   N=           4
  0.00000000E+00  0.00000000E+00  0.00000000E+00  0.00000000E+00
ZRed-Constraint1                           R   N=           4
  2.20939580E+00  2.20939580E+00  3.14159265E+00  3.14159265E+00
ZRed-Constraint2                           R   N=           4
  2.16097741E+00  2.16097741E+00  3.14159265E+00  3.14159265E+00
SymInf integers                            I   N=          26
           2           8           1           1           1          -1
           1          -1          -1          -1           1           1
          -1          -1          -1           1           1           1
          -1           1           1           1          -1          -1
          -1          -1
RotTr to input orientation                 R   N=          12
 -2.44969110E-16  0.00000000E+00  1.00000000E+00  0.00000000E+00  1.00000000E+00
  0.00000000E+00 -1.00000000E+00 -0.00000000E+00 -2.44969110E-16  1.75566895E+00
  1.16066979E-01  6.53278321E-02
Number of contracted shells                I               12
Number of primitive shells                 I               33
Pure/Cartesian d shells                    I                1
Pure/Cartesian f shells                    I                0
Highest angular momentum                   I                2
Largest degree of contraction              I                6
Shell types                                I   N=          12
           0          -1          -1           2           0          -1
          -1           2           0          -1          -1           2
Number of primitives per shell             I   N=          12
           6           3           1           1           6           3
           1           1           6           3           1           1
Shell to atom map                          I   N=          12
           1           1           1           1           2           2
           2           2           3           3           3           3
Primitive exponents                        R   N=          33
  3.04752488E+03  4.57369518E+02  1.03948685E+02  2.92101553E+01  9.28666296E+00
  3.16392696E+00  7.86827235E+00  1.88128854E+00  5.44249258E-01  1.68714478E-01
  8.00000000E-01  5.48467166E+03  8.25234946E+02  1.88046958E+02  5.29645000E+01
  1.68975704E+01  5.79963534E+00  1.55396162E+01  3.59993359E+00  1.01376175E+00
  2.70005823E-01  8.00000000E-01  5.48467166E+03  8.25234946E+02  1.88046958E+02
  5.29645000E+01  1.68975704E+01  5.79963534E+00  1.55396162E+01  3.59993359E+00
  1.01376175E+00  2.70005823E-01  8.00000000E-01
Contraction coefficients                   R   N=          33
  1.83473713E-03  1.40373228E-02  6.88426223E-02  2.32184443E-01  4.67941348E-01
  3.62311985E-01 -1.19332420E-01 -1.60854152E-01  1.14345644E+00  1.00000000E+00
  1.00000000E+00  1.83107443E-03  1.39501722E-02  6.84450781E-02  2.32714336E-01
  4.70192898E-01  3.58520853E-01 -1.10777550E-01 -1.48026263E-01  1.13076702E+00
  1.00000000E+00  1.00000000E+00  1.83107443E-03  1.39501722E-02  6.84450781E-02
  2.32714336E-01  4.70192898E-01  3.58520853E-01 -1.10777550E-01 -1.48026263E-01
  1.13076702E+00  1.00000000E+00  1.00000000E+00
P(S=P) Contraction coefficients            R   N=          33
  0.00000000E+00  0.00000000E+00  0.00000000E+00  0.00000000E+00  0.00000000E+00
  0.00000000E+00  6.89990666E-02  3.16423961E-01  7.44308291E-01  1.00000000E+00
  0.00000000E+00  0.00000000E+00  0.00000000E+00  0.00000000E+00  0.00000000E+00
  0.00000000E+00  0.00000000E+00  7.08742682E-02  3.39752839E-01  7.27158577E-01
  1.00000000E+00  0.00000000E+00  0.00000000E+00  0.00000000E+00  0.00000000E+00
  0.00000000E+00  0.00000000E+00  0.00000000E+00  7.08742682E-02  3.39752839E-01
  7.27158577E-01  1.00000000E+00  0.00000000E+00
Coordinates of each shell                  R   N=          36
  0.00000000E+00  0.00000000E+00  0.00000000E+00  0.00000000E+00  0.00000000E+00
  0.00000000E+00  0.00000000E+00  0.00000000E+00  0.00000000E+00  0.00000000E+00
  0.00000000E+00  0.00000000E+00  0.00000000E+00  0.00000000E+00  2.20939580E+00
  0.00000000E+00  0.00000000E+00  2.20939580E+00  0.00000000E+00  0.00000000E+00
  2.20939580E+00  0.00000000E+00  0.00000000E+00  2.20939580E+00  2.63677968E-16
  0.00000000E+00 -2.20939580E+00  2.63677968E-16  0.00000000E+00 -2.20939580E+00
  2.63677968E-16  0.00000000E+00 -2.20939580E+00  2.63677968E-16  0.00000000E+00
 -2.20939580E+00
Num ILSW                                   I              100
ILSW                                       I   N=         100
           0           1           0           0           2           0
           0           0           0           0         402          -1
           5           0           0           0           2           0
           0           0           0           0           1           0
           1           0           0           0           0           0
           0           0      100000           0          -1           0
           0           0           0           0           0           0
           0           0           0           1           0           0
           0 -2000000000           1           0           0           0
           0           0           4          52           0           0
           0           0           5           0           0           0
           0           0           0           3           0           1
           0           0           0           0           0           0
           0           0           0           0           0           0
           0           0           0           0           0           0
           0           0           0           0           0           0
           0           0           0           0
Num RLSW                                   I               52
RLSW                                       R   N=          52
  8.00000000E-01  7.20000000E-01  1.00000000E+00  8.10000000E-01  2.00000000E-01
  0.00000000E+00  0.00000000E+00  1.00000000E+00  0.00000000E+00  0.00000000E+00
  0.00000000E+00  0.00000000E+00  1.00000000E+00  0.00000000E+00  0.00000000E+00
  0.00000000E+00  0.00000000E+00  1.00000000E+00  0.00000000E+00  0.00000000E+00
  0.00000000E+00  0.00000000E+00  1.00000000E+00  0.00000000E+00  0.00000000E+00
  0.00000000E+00  0.00000000E+00  1.00000000E+00  0.00000000E+00  0.00000000E+00
  0.00000000E+00  0.00000000E+00  1.00000000E+00  0.00000000E+00  0.00000000E+00
  0.00000000E+00  0.00000000E+00  0.00000000E+00  1.00000000E+00  1.00000000E+00
  0.00000000E+00  1.00000000E+00  0.00000000E+00  0.00000000E+00  0.00000000E+00
  0.00000000E+00  0.00000000E+00  0.00000000E+00  0.00000000E+00  0.00000000E+00
  0.00000000E+00  0.00000000E+00
MxBond                                     I                2
NBond                                      I   N=           3
           2           1           1
IBond                                      I   N=           6
           2           3           1           0           1           0
RBond                                      R   N=           6
  2.00000000E+00  2.00000000E+00  2.00000000E+00  0.00000000E+00  2.00000000E+00
  0.00000000E+00
Virial Ratio                               R      2.008906882783106E+00
SCF Energy                                 R     -1.885809394508325E+02
Total Energy                               R     -1.885809394508325E+02
RMS Force                                  R      2.809395331048415E-06
RMS Density                                R      5.001021138847324E-10
NImag                                      I                0
Job Status                                 I                1
Nuclear derivative order                   I                2
Thermal Energy                             R     -1.885667000757521E+02
Thermal Enthalpy                           R     -1.885657558909384E+02
Thermal Free Energy                        R     -1.885900661482148E+02
External E-field                           R   N=          35
  0.00000000E+00  0.00000000E+00  0.00000000E+00  0.00000000E+00  0.00000000E+00
  0.00000000E+00  0.00000000E+00  0.00000000E+00  0.00000000E+00  0.00000000E+00
  0.00000000E+00  0.00000000E+00  0.00000000E+00  0.00000000E+00  0.00000000E+00
  0.00000000E+00  0.00000000E+00  0.00000000E+00  0.00000000E+00  0.00000000E+00
  0.00000000E+00  0.00000000E+00  0.00000000E+00  0.00000000E+00  0.00000000E+00
  0.00000000E+00  0.00000000E+00  0.00000000E+00  0.00000000E+00  0.00000000E+00
  0.00000000E+00  0.00000000E+00  0.00000000E+00  0.00000000E+00  0.00000000E+00
IOpCl                                      I                0
IROHF                                      I                0
Alpha Orbital Energies                     R   N=          45
 -1.92365923E+01 -1.92365852E+01 -1.03852982E+01 -1.16097896E+00 -1.11963761E+00
 -5.62335700E-01 -5.16549225E-01 -5.12767523E-01 -5.12767523E-01 -3.69968572E-01
 -3.69968572E-01  2.99137985E-02  2.99137985E-02  8.43337648E-02  3.65752535E-01
  4.72606587E-01  4.72606587E-01  5.84347099E-01  7.35246745E-01  7.81541289E-01
  8.74193934E-01  8.74193934E-01  1.03773530E+00  1.04165818E+00  1.04165818E+00
  1.37742590E+00  1.39388186E+00  1.39388188E+00  1.40640093E+00  1.40640093E+00
  1.72627716E+00  1.72627716E+00  1.83353111E+00  2.02760964E+00  2.02760965E+00
  2.12105130E+00  2.12105130E+00  2.72073532E+00  2.91522236E+00  2.95400074E+00
  2.95400074E+00  3.04931169E+00  3.74169683E+00  4.38893270E+00  4.45000109E+00
Alpha MO coefficients                      R   N=        2025
 -1.43382800E-04  1.57603365E-04  0.00000000E+00  0.00000000E+00  0.00000000E+00
 -5.36233260E-03  0.00000000E+00  0.00000000E+00  0.00000000E+00 -5.29352851E-05
 -5.29352851E-05 -3.21215325E-03  0.00000000E+00  0.00000000E+00  0.00000000E+00
  7.02039199E-01  1.85520653E-02  0.00000000E+00  0.00000000E+00 -1.64722119E-03
  9.64839418E-03  0.00000000E+00  0.00000000E+00 -1.94151771E-03 -5.77608533E-03
 -5.77608533E-03 -4.32151934E-03  0.00000000E+00  0.00000000E+00  0.00000000E+00
  7.02039199E-01  1.85520653E-02  0.00000000E+00  0.00000000E+00  1.64722119E-03
  9.64839418E-03  0.00000000E+00  0.00000000E+00  1.94151771E-03 -5.77608533E-03
 -5.77608533E-03 -4.32151934E-03  0.00000000E+00  0.00000000E+00  0.00000000E+00
  0.00000000E+00  0.00000000E+00  0.00000000E+00  0.00000000E+00 -1.52040737E-04
  0.00000000E+00  0.00000000E+00  0.00000000E+00 -7.29599787E-03  0.00000000E+00
  0.00000000E+00  0.00000000E+00  0.00000000E+00  0.00000000E+00  0.00000000E+00
  7.01822789E-01  1.74468937E-02  0.00000000E+00  0.00000000E+00 -8.21555515E-04
  1.42909750E-02  0.00000000E+00  0.00000000E+00 -1.78115602E-03 -6.18366905E-03
 -6.18366905E-03 -5.92667011E-03  0.00000000E+00  0.00000000E+00  0.00000000E+00
 -7.01822789E-01 -1.74468937E-02  0.00000000E+00  0.00000000E+00 -8.21555515E-04
 -1.42909750E-02  0.00000000E+00  0.00000000E+00 -1.78115602E-03  6.18366905E-03
  6.18366905E-03  5.92667011E-03  0.00000000E+00  0.00000000E+00  0.00000000E+00
  9.92807375E-01  4.95430775E-02  0.00000000E+00  0.00000000E+00  0.00000000E+00
 -7.51054988E-04  0.00000000E+00  0.00000000E+00  0.00000000E+00 -1.04291639E-02
 -1.04291639E-02 -6.33324356E-03  0.00000000E+00  0.00000000E+00  0.00000000E+00
 -2.73909917E-04  9.87179203E-05  0.00000000E+00  0.00000000E+00  4.62361369E-04
 -3.24291115E-03  0.00000000E+00  0.00000000E+00  2.93967647E-03  3.42500435E-04
  3.42500435E-04 -9.31413884E-04  0.00000000E+00  0.00000000E+00  0.00000000E+00
 -2.73909917E-04  9.87179203E-05  0.00000000E+00  0.00000000E+00 -4.62361369E-04
 -3.24291115E-03  0.00000000E+00  0.00000000E+00 -2.93967647E-03  3.42500435E-04
  3.42500435E-04 -9.31413884E-04  0.00000000E+00  0.00000000E+00  0.00000000E+00
 -1.56732768E-01  3.02050075E-01  0.00000000E+00  0.00000000E+00  0.00000000E+00
  3.94369935E-02  0.00000000E+00  0.00000000E+00  0.00000000E+00 -2.96066418E-02
 -2.96066418E-02  3.05794744E-02  0.00000000E+00  0.00000000E+00  0.00000000E+00
 -1.34762250E-01  2.91124712E-01  0.00000000E+00  0.00000000E+00 -1.25691213E-01
  2.65379774E-01  0.00000000E+00  0.00000000E+00 -5.38479017E-02 -7.68944586E-03
 -7.68944586E-03  1.18896736E-02  0.00000000E+00  0.00000000E+00  0.00000000E+00
 -1.34762250E-01  2.91124712E-01  0.00000000E+00  0.00000000E+00  1.25691213E-01
  2.65379774E-01  0.00000000E+00  0.00000000E+00  5.38479017E-02 -7.68944586E-03
 -7.68944586E-03  1.18896736E-02  0.00000000E+00  0.00000000E+00  0.00000000E+00
  0.00000000E+00  0.00000000E+00  0.00000000E+00  0.00000000E+00  3.36397468E-01
  0.00000000E+00  0.00000000E+00  0.00000000E+00 -1.92401143E-02  0.00000000E+00
  0.00000000E+00  0.00000000E+00  0.00000000E+00  0.00000000E+00  0.00000000E+00
 -1.46886887E-01  3.25411115E-01  0.00000000E+00  0.00000000E+00 -1.30063372E-01
  2.69827120E-01  0.00000000E+00  0.00000000E+00 -2.20506959E-02 -5.32852785E-03
 -5.32852785E-03  7.20971533E-03  0.00000000E+00  0.00000000E+00  0.00000000E+00
  1.46886887E-01 -3.25411115E-01  0.00000000E+00  0.00000000E+00 -1.30063372E-01
 -2.69827120E-01  0.00000000E+00  0.00000000E+00 -2.20506959E-02  5.32852785E-03
  5.32852785E-03 -7.20971533E-03  0.00000000E+00  0.00000000E+00  0.00000000E+00
  1.35278588E-01 -3.14986667E-01  0.00000000E+00  0.00000000E+00  0.00000000E+00
 -1.89953250E-01  0.00000000E+00  0.00000000E+00  0.00000000E+00  1.20920183E-02
  1.20920183E-02  2.32597465E-02  0.00000000E+00  0.00000000E+00  0.00000000E+00
 -9.48764858E-02  2.11856283E-01  0.00000000E+00  0.00000000E+00  3.30473287E-01
  3.42664016E-01  0.00000000E+00  0.00000000E+00  1.72810574E-01  2.66610824E-03
  2.66610824E-03 -3.34734130E-02  0.00000000E+00  0.00000000E+00  0.00000000E+00
 -9.48764858E-02  2.11856283E-01  0.00000000E+00  0.00000000E+00 -3.30473287E-01
  3.42664016E-01  0.00000000E+00  0.00000000E+00 -1.72810574E-01  2.66610824E-03
  2.66610824E-03 -3.34734130E-02  0.00000000E+00  0.00000000E+00  0.00000000E+00
  0.00000000E+00  0.00000000E+00  0.00000000E+00  0.00000000E+00 -3.51223949E-01
  0.00000000E+00  0.00000000E+00  0.00000000E+00 -2.03494099E-04  0.00000000E+00
  0.00000000E+00  0.00000000E+00  0.00000000E+00  0.00000000E+00  0.00000000E+00
 -7.14766371E-02  1.56544885E-01  0.00000000E+00  0.00000000E+00  3.93471411E-01
  2.92107152E-01  0.00000000E+00  0.00000000E+00  1.82267906E-01  2.21241642E-03
  2.21241642E-03 -2.42599384E-02  0.00000000E+00  0.00000000E+00  0.00000000E+00
  7.14766371E-02 -1.56544885E-01  0.00000000E+00  0.00000000E+00  3.93471411E-01
 -2.92107152E-01  0.00000000E+00  0.00000000E+00  1.82267906E-01 -2.21241642E-03
 -2.21241642E-03  2.42599384E-02  0.00000000E+00  0.00000000E+00  0.00000000E+00
  0.00000000E+00  0.00000000E+00  4.01584241E-01  0.00000000E+00  0.00000000E+00
  0.00000000E+00  1.58366588E-01  0.00000000E+00  0.00000000E+00  0.00000000E+00
  0.00000000E+00  0.00000000E+00  0.00000000E+00  0.00000000E+00  0.00000000E+00
  0.00000000E+00  0.00000000E+00  3.51854730E-01  0.00000000E+00  0.00000000E+00
  0.00000000E+00  1.92658306E-01  0.00000000E+00  0.00000000E+00  0.00000000E+00
  0.00000000E+00  0.00000000E+00  0.00000000E+00 -2.88291696E-02  0.00000000E+00
  0.00000000E+00  0.00000000E+00  3.51854730E-01  0.00000000E+00  0.00000000E+00
  0.00000000E+00  1.92658306E-01  0.00000000E+00  0.00000000E+00  0.00000000E+00
  0.00000000E+00  0.00000000E+00  0.00000000E+00  2.88291696E-02  0.00000000E+00
  0.00000000E+00  0.00000000E+00  0.00000000E+00  4.01584241E-01  0.00000000E+00
  0.00000000E+00  0.00000000E+00  1.58366588E-01  0.00000000E+00  0.00000000E+00
  0.00000000E+00  0.00000000E+00  0.00000000E+00  0.00000000E+00  0.00000000E+00
  0.00000000E+00  0.00000000E+00  0.00000000E+00  3.51854730E-01  0.00000000E+00
  0.00000000E+00  0.00000000E+00  1.92658306E-01  0.00000000E+00  0.00000000E+00
  0.00000000E+00  0.00000000E+00  0.00000000E+00  0.00000000E+00 -2.88291696E-02
  0.00000000E+00  0.00000000E+00  0.00000000E+00  3.51854730E-01  0.00000000E+00
  0.00000000E+00  0.00000000E+00  1.92658306E-01  0.00000000E+00  0.00000000E+00
  0.00000000E+00  0.00000000E+00  0.00000000E+00  0.00000000E+00  2.88291696E-02
  0.00000000E+00  0.00000000E+00  0.00000000E+00  0.00000000E+00  0.00000000E+00
  0.00000000E+00  0.00000000E+00  0.00000000E+00  0.00000000E+00  0.00000000E+00
  0.00000000E+00  0.00000000E+00  0.00000000E+00  5.77088673E-02  0.00000000E+00
  0.00000000E+00  0.00000000E+00  4.72518087E-01  0.00000000E+00  0.00000000E+00
  0.00000000E+00  3.27902360E-01  0.00000000E+00  0.00000000E+00  0.00000000E+00
  0.00000000E+00  0.00000000E+00  0.00000000E+00 -2.23514296E-02  0.00000000E+00
  0.00000000E+00  0.00000000E+00 -4.72518087E-01  0.00000000E+00  0.00000000E+00
  0.00000000E+00 -3.27902360E-01  0.00000000E+00  0.00000000E+00  0.00000000E+00
  0.00000000E+00  0.00000000E+00  0.00000000E+00 -2.23514296E-02  0.00000000E+00
  0.00000000E+00  0.00000000E+00  0.00000000E+00  0.00000000E+00  0.00000000E+00
  0.00000000E+00  0.00000000E+00  0.00000000E+00  0.00000000E+00  0.00000000E+00
  0.00000000E+00  0.00000000E+00  0.00000000E+00  0.00000000E+00  5.77088673E-02
  0.00000000E+00  0.00000000E+00  0.00000000E+00  4.72518087E-01  0.00000000E+00
  0.00000000E+00  0.00000000E+00  3.27902360E-01  0.00000000E+00  0.00000000E+00
  0.00000000E+00  0.00000000E+00  0.00000000E+00  0.00000000E+00 -2.23514296E-02
  0.00000000E+00  0.00000000E+00  0.00000000E+00 -4.72518087E-01  0.00000000E+00
  0.00000000E+00  0.00000000E+00 -3.27902360E-01  0.00000000E+00  0.00000000E+00
  0.00000000E+00  0.00000000E+00  0.00000000E+00  0.00000000E+00 -2.23514296E-02
  0.00000000E+00  0.00000000E+00  6.00119686E-01  0.00000000E+00  0.00000000E+00
  0.00000000E+00  5.95372474E-01  0.00000000E+00  0.00000000E+00  0.00000000E+00
  0.00000000E+00  0.00000000E+00  0.00000000E+00  0.00000000E+00  0.00000000E+00
  0.00000000E+00  0.00000000E+00 -3.76409249E-01  0.00000000E+00  0.00000000E+00
  0.00000000E+00 -3.92595236E-01  0.00000000E+00  0.00000000E+00  0.00000000E+00
  0.00000000E+00  0.00000000E+00  0.00000000E+00 -1.48229399E-02  0.00000000E+00
  0.00000000E+00  0.00000000E+00 -3.76409249E-01  0.00000000E+00  0.00000000E+00
  0.00000000E+00 -3.92595236E-01  0.00000000E+00  0.00000000E+00  0.00000000E+00
  0.00000000E+00  0.00000000E+00  0.00000000E+00  1.48229399E-02  0.00000000E+00
  0.00000000E+00  0.00000000E+00  0.00000000E+00  6.00119686E-01  0.00000000E+00
  0.00000000E+00  0.00000000E+00  5.95372474E-01  0.00000000E+00  0.00000000E+00
  0.00000000E+00  0.00000000E+00  0.00000000E+00  0.00000000E+00  0.00000000E+00
  0.00000000E+00  0.00000000E+00  0.00000000E+00 -3.76409249E-01  0.00000000E+00
  0.00000000E+00  0.00000000E+00 -3.92595236E-01  0.00000000E+00  0.00000000E+00
  0.00000000E+00  0.00000000E+00  0.00000000E+00  0.00000000E+00 -1.48229399E-02
  0.00000000E+00  0.00000000E+00  0.00000000E+00 -3.76409249E-01  0.00000000E+00
  0.00000000E+00  0.00000000E+00 -3.92595236E-01  0.00000000E+00  0.00000000E+00
  0.00000000E+00  0.00000000E+00  0.00000000E+00  0.00000000E+00  1.48229399E-02
 -9.95507295E-02  6.38436184E-02  0.00000000E+00  0.00000000E+00  0.00000000E+00
  2.23061994E+00  0.00000000E+00  0.00000000E+00  0.00000000E+00  2.10636347E-02
  2.10636347E-02 -4.07554037E-02  0.00000000E+00  0.00000000E+00  0.00000000E+00
  7.59884692E-02 -1.74674414E-01  0.00000000E+00  0.00000000E+00  2.98214127E-01
 -8.68059927E-01  0.00000000E+00  0.00000000E+00  5.58700571E-01  2.16593364E-02
  2.16593364E-02 -3.12425936E-02  0.00000000E+00  0.00000000E+00  0.00000000E+00
  7.59884692E-02 -1.74674414E-01  0.00000000E+00  0.00000000E+00 -2.98214127E-01
 -8.68059927E-01  0.00000000E+00  0.00000000E+00 -5.58700571E-01  2.16593364E-02
  2.16593364E-02 -3.12425936E-02  0.00000000E+00  0.00000000E+00  0.00000000E+00
  0.00000000E+00  0.00000000E+00  0.00000000E+00  0.00000000E+00  6.57300699E-02
  0.00000000E+00  0.00000000E+00  0.00000000E+00  4.14238704E+00  0.00000000E+00
  0.00000000E+00  0.00000000E+00  0.00000000E+00  0.00000000E+00  0.00000000E+00
  1.02543369E-01 -2.53976270E-02  0.00000000E+00  0.00000000E+00 -9.50585027E-02
 -3.00084831E+00  0.00000000E+00  0.00000000E+00  8.75326005E-01  8.16032152E-02
  8.16032152E-02  8.29497035E-03  0.00000000E+00  0.00000000E+00  0.00000000E+00
 -1.02543369E-01  2.53976270E-02  0.00000000E+00  0.00000000E+00 -9.50585027E-02
  3.00084831E+00  0.00000000E+00  0.00000000E+00  8.75326005E-01 -8.16032152E-02
 -8.16032152E-02 -8.29497035E-03  0.00000000E+00  0.00000000E+00  0.00000000E+00
  0.00000000E+00  0.00000000E+00 -9.25629290E-01  0.00000000E+00  0.00000000E+00
  0.00000000E+00  1.31071692E+00  0.00000000E+00  0.00000000E+00  0.00000000E+00
  0.00000000E+00  0.00000000E+00  0.00000000E+00  0.00000000E+00  0.00000000E+00
  0.00000000E+00  0.00000000E+00 -1.18375968E-01  0.00000000E+00  0.00000000E+00
  0.00000000E+00 -1.39637878E-01  0.00000000E+00  0.00000000E+00  0.00000000E+00
  0.00000000E+00  0.00000000E+00  0.00000000E+00  6.16580000E-02  0.00000000E+00
  0.00000000E+00  0.00000000E+00 -1.18375968E-01  0.00000000E+00  0.00000000E+00
  0.00000000E+00 -1.39637878E-01  0.00000000E+00  0.00000000E+00  0.00000000E+00
  0.00000000E+00  0.00000000E+00  0.00000000E+00 -6.16580000E-02  0.00000000E+00
  0.00000000E+00  0.00000000E+00  0.00000000E+00 -9.25629290E-01  0.00000000E+00
  0.00000000E+00  0.00000000E+00  1.31071692E+00  0.00000000E+00  0.00000000E+00
  0.00000000E+00  0.00000000E+00  0.00000000E+00  0.00000000E+00  0.00000000E+00
  0.00000000E+00  0.00000000E+00  0.00000000E+00 -1.18375968E-01  0.00000000E+00
  0.00000000E+00  0.00000000E+00 -1.39637878E-01  0.00000000E+00  0.00000000E+00
  0.00000000E+00  0.00000000E+00  0.00000000E+00  0.00000000E+00  6.16580000E-02
  0.00000000E+00  0.00000000E+00  0.00000000E+00 -1.18375968E-01  0.00000000E+00
  0.00000000E+00  0.00000000E+00 -1.39637878E-01  0.00000000E+00  0.00000000E+00
  0.00000000E+00  0.00000000E+00  0.00000000E+00  0.00000000E+00 -6.16580000E-02
  1.28755458E-01 -1.11265588E+00  0.00000000E+00  0.00000000E+00  0.00000000E+00
  2.06605687E+00  0.00000000E+00  0.00000000E+00  0.00000000E+00 -1.49842712E-01
 -1.49842712E-01  3.03224962E-01  0.00000000E+00  0.00000000E+00  0.00000000E+00
 -1.04583553E-02  1.19100949E-02  0.00000000E+00  0.00000000E+00 -3.78561910E-01
 -5.36618038E-01  0.00000000E+00  0.00000000E+00  4.49190699E-01  4.12339093E-02
  4.12339093E-02 -2.26020853E-01  0.00000000E+00  0.00000000E+00  0.00000000E+00
 -1.04583553E-02  1.19100949E-02  0.00000000E+00  0.00000000E+00  3.78561910E-01
 -5.36618038E-01  0.00000000E+00  0.00000000E+00 -4.49190699E-01  4.12339093E-02
  4.12339093E-02 -2.26020853E-01  0.00000000E+00  0.00000000E+00  0.00000000E+00
  0.00000000E+00  0.00000000E+00  0.00000000E+00  0.00000000E+00  1.09232627E+00
  0.00000000E+00  0.00000000E+00  0.00000000E+00 -1.98547924E-01  0.00000000E+00
  0.00000000E+00  0.00000000E+00  0.00000000E+00  0.00000000E+00  0.00000000E+00
  4.52444066E-02 -2.49899584E-01  0.00000000E+00  0.00000000E+00 -1.08786004E-02
 -1.20278377E-01  0.00000000E+00  0.00000000E+00  8.61721728E-01 -9.61816943E-02
 -9.61816943E-02  5.88893213E-02  0.00000000E+00  0.00000000E+00  0.00000000E+00
 -4.52444066E-02  2.49899584E-01  0.00000000E+00  0.00000000E+00 -1.08786004E-02
  1.20278377E-01  0.00000000E+00  0.00000000E+00  8.61721728E-01  9.61816943E-02
  9.61816943E-02 -5.88893213E-02  0.00000000E+00  0.00000000E+00  0.00000000E+00
  5.26215435E-02  1.07540534E+00  0.00000000E+00  0.00000000E+00  0.00000000E+00
  1.65730870E-02  0.00000000E+00  0.00000000E+00  0.00000000E+00 -1.37730057E-02
 -1.37730057E-02  3.43951504E-01  0.00000000E+00  0.00000000E+00  0.00000000E+00
  1.43736980E-02 -3.78015358E-01  0.00000000E+00  0.00000000E+00 -3.27462865E-01
  2.55267047E-01  0.00000000E+00  0.00000000E+00  1.00498478E+00 -1.27852420E-01
 -1.27852420E-01 -1.98275923E-01  0.00000000E+00  0.00000000E+00  0.00000000E+00
  1.43736980E-02 -3.78015358E-01  0.00000000E+00  0.00000000E+00  3.27462865E-01
  2.55267047E-01  0.00000000E+00  0.00000000E+00 -1.00498478E+00 -1.27852420E-01
 -1.27852420E-01 -1.98275923E-01  0.00000000E+00  0.00000000E+00  0.00000000E+00
  0.00000000E+00  0.00000000E+00  0.00000000E+00  0.00000000E+00  0.00000000E+00
  0.00000000E+00  0.00000000E+00  0.00000000E+00  0.00000000E+00  0.00000000E+00
  0.00000000E+00  0.00000000E+00  0.00000000E+00 -1.32553284E-01  0.00000000E+00
  0.00000000E+00  0.00000000E+00 -6.48287682E-01  0.00000000E+00  0.00000000E+00
  0.00000000E+00  8.11501698E-01  0.00000000E+00  0.00000000E+00  0.00000000E+00
  0.00000000E+00  0.00000000E+00  0.00000000E+00  7.53251571E-03  0.00000000E+00
  0.00000000E+00  0.00000000E+00  6.48287682E-01  0.00000000E+00  0.00000000E+00
  0.00000000E+00 -8.11501698E-01  0.00000000E+00  0.00000000E+00  0.00000000E+00
  0.00000000E+00  0.00000000E+00  0.00000000E+00  7.53251571E-03  0.00000000E+00
  0.00000000E+00  0.00000000E+00  0.00000000E+00  0.00000000E+00  0.00000000E+00
  0.00000000E+00  0.00000000E+00  0.00000000E+00  0.00000000E+00  0.00000000E+00
  0.00000000E+00  0.00000000E+00  0.00000000E+00  0.00000000E+00 -1.32553284E-01
  0.00000000E+00  0.00000000E+00  0.00000000E+00 -6.48287682E-01  0.00000000E+00
  0.00000000E+00  0.00000000E+00  8.11501698E-01  0.00000000E+00  0.00000000E+00
  0.00000000E+00  0.00000000E+00  0.00000000E+00  0.00000000E+00  7.53251571E-03
  0.00000000E+00  0.00000000E+00  0.00000000E+00  6.48287682E-01  0.00000000E+00
  0.00000000E+00  0.00000000E+00 -8.11501698E-01  0.00000000E+00  0.00000000E+00
  0.00000000E+00  0.00000000E+00  0.00000000E+00  0.00000000E+00  7.53251571E-03
  0.00000000E+00  0.00000000E+00  0.00000000E+00  0.00000000E+00 -5.54315602E-01
  0.00000000E+00  0.00000000E+00  0.00000000E+00 -9.52830113E-01  0.00000000E+00
  0.00000000E+00  0.00000000E+00  0.00000000E+00  0.00000000E+00  0.00000000E+00
 -5.03228792E-02  1.92464794E-02  0.00000000E+00  0.00000000E+00 -7.38432146E-01
  1.01718541E+00  0.00000000E+00  0.00000000E+00  4.04294939E-01 -4.19870847E-02
 -4.19870847E-02 -1.62795516E-01  0.00000000E+00  0.00000000E+00  0.00000000E+00
  5.03228792E-02 -1.92464794E-02  0.00000000E+00  0.00000000E+00 -7.38432146E-01
 -1.01718541E+00  0.00000000E+00  0.00000000E+00  4.04294939E-01  4.19870847E-02
  4.19870847E-02  1.62795516E-01  0.00000000E+00  0.00000000E+00  0.00000000E+00
  0.00000000E+00  0.00000000E+00  1.81301998E-01  0.00000000E+00  0.00000000E+00
  0.00000000E+00 -1.05024754E+00  0.00000000E+00  0.00000000E+00  0.00000000E+00
  0.00000000E+00  0.00000000E+00  0.00000000E+00  0.00000000E+00  0.00000000E+00
  0.00000000E+00  0.00000000E+00 -6.43340362E-01  0.00000000E+00  0.00000000E+00
  0.00000000E+00  1.11581817E+00  0.00000000E+00  0.00000000E+00  0.00000000E+00
  0.00000000E+00  0.00000000E+00  0.00000000E+00  7.42842252E-02  0.00000000E+00
  0.00000000E+00  0.00000000E+00 -6.43340362E-01  0.00000000E+00  0.00000000E+00
  0.00000000E+00  1.11581817E+00  0.00000000E+00  0.00000000E+00  0.00000000E+00
  0.00000000E+00  0.00000000E+00  0.00000000E+00 -7.42842252E-02  0.00000000E+00
  0.00000000E+00  0.00000000E+00  0.00000000E+00  1.81301998E-01  0.00000000E+00
  0.00000000E+00  0.00000000E+00 -1.05024754E+00  0.00000000E+00  0.00000000E+00
  0.00000000E+00  0.00000000E+00  0.00000000E+00  0.00000000E+00  0.00000000E+00
  0.00000000E+00  0.00000000E+00  0.00000000E+00 -6.43340362E-01  0.00000000E+00
  0.00000000E+00  0.00000000E+00  1.11581817E+00  0.00000000E+00  0.00000000E+00
  0.00000000E+00  0.00000000E+00  0.00000000E+00  0.00000000E+00  7.42842252E-02
  0.00000000E+00  0.00000000E+00  0.00000000E+00 -6.43340362E-01  0.00000000E+00
  0.00000000E+00  0.00000000E+00  1.11581817E+00  0.00000000E+00  0.00000000E+00
  0.00000000E+00  0.00000000E+00  0.00000000E+00  0.00000000E+00 -7.42842252E-02
  5.07069864E-02  3.95455016E-01  0.00000000E+00  0.00000000E+00  0.00000000E+00
  3.74167564E+00  0.00000000E+00  0.00000000E+00  0.00000000E+00 -1.56723600E-01
 -1.56723600E-01  3.07651113E-01  0.00000000E+00  0.00000000E+00  0.00000000E+00
  6.74425908E-02  1.15699816E+00  0.00000000E+00  0.00000000E+00 -6.84385576E-02
 -3.54056083E+00  0.00000000E+00  0.00000000E+00  1.36554143E+00  2.10829459E-01
  2.10829459E-01  3.94092023E-01  0.00000000E+00  0.00000000E+00  0.00000000E+00
  6.74425908E-02  1.15699816E+00  0.00000000E+00  0.00000000E+00  6.84385576E-02
 -3.54056083E+00  0.00000000E+00  0.00000000E+00 -1.36554143E+00  2.10829459E-01
  2.10829459E-01  3.94092023E-01  0.00000000E+00  0.00000000E+00  0.00000000E+00
  0.00000000E+00  0.00000000E+00  0.00000000E+00  0.00000000E+00  0.00000000E+00
  0.00000000E+00  0.00000000E+00  0.00000000E+00  0.00000000E+00  0.00000000E+00
  0.00000000E+00  0.00000000E+00  7.33426675E-01  0.00000000E+00  0.00000000E+00
  0.00000000E+00  0.00000000E+00  0.00000000E+00  0.00000000E+00  0.00000000E+00
  0.00000000E+00  0.00000000E+00  0.00000000E+00  0.00000000E+00  0.00000000E+00
  0.00000000E+00  0.00000000E+00  3.87666570E-01  0.00000000E+00  0.00000000E+00
  0.00000000E+00  0.00000000E+00  0.00000000E+00  0.00000000E+00  0.00000000E+00
  0.00000000E+00  0.00000000E+00  0.00000000E+00  0.00000000E+00  0.00000000E+00
  0.00000000E+00  0.00000000E+00  3.87666570E-01  0.00000000E+00  0.00000000E+00
  8.70877404E-15  4.88108276E-14  0.00000000E+00  0.00000000E+00  0.00000000E+00
  6.07569938E-13  0.00000000E+00  0.00000000E+00  0.00000000E+00  6.35166126E-01
 -6.35166126E-01  5.17725071E-14  0.00000000E+00  0.00000000E+00  0.00000000E+00
  1.08104070E-14  1.91259735E-13  0.00000000E+00  0.00000000E+00 -1.04317589E-14
 -5.78122248E-13  0.00000000E+00  0.00000000E+00  2.18359211E-13  3.35729103E-01
 -3.35729103E-01  6.90972033E-14  0.00000000E+00  0.00000000E+00  0.00000000E+00
  1.08104070E-14  1.91259735E-13  0.00000000E+00  0.00000000E+00  1.04317589E-14
 -5.78122248E-13  0.00000000E+00  0.00000000E+00 -2.18359211E-13  3.35729103E-01
 -3.35729103E-01  6.90972033E-14  0.00000000E+00  0.00000000E+00  0.00000000E+00
  0.00000000E+00  0.00000000E+00  0.00000000E+00  0.00000000E+00  0.00000000E+00
  0.00000000E+00  0.00000000E+00  0.00000000E+00  0.00000000E+00  0.00000000E+00
  0.00000000E+00  0.00000000E+00  0.00000000E+00  0.00000000E+00  5.35501251E-01
  0.00000000E+00  0.00000000E+00  0.00000000E+00 -1.69266184E-01  0.00000000E+00
  0.00000000E+00  0.00000000E+00 -4.30841021E-02  0.00000000E+00  0.00000000E+00
  0.00000000E+00  0.00000000E+00  0.00000000E+00  0.00000000E+00 -4.24619134E-01
  0.00000000E+00  0.00000000E+00  0.00000000E+00  1.69266184E-01  0.00000000E+00
  0.00000000E+00  0.00000000E+00  4.30841021E-02  0.00000000E+00  0.00000000E+00
  0.00000000E+00  0.00000000E+00  0.00000000E+00  0.00000000E+00 -4.24619134E-01
  0.00000000E+00  0.00000000E+00  0.00000000E+00  0.00000000E+00  0.00000000E+00
  0.00000000E+00  0.00000000E+00  0.00000000E+00  0.00000000E+00  0.00000000E+00
  0.00000000E+00  0.00000000E+00  0.00000000E+00  5.35501251E-01  0.00000000E+00
  0.00000000E+00  0.00000000E+00 -1.69266184E-01  0.00000000E+00  0.00000000E+00
  0.00000000E+00 -4.30841021E-02  0.00000000E+00  0.00000000E+00  0.00000000E+00
  0.00000000E+00  0.00000000E+00  0.00000000E+00 -4.24619134E-01  0.00000000E+00
  0.00000000E+00  0.00000000E+00  1.69266184E-01  0.00000000E+00  0.00000000E+00
  0.00000000E+00  4.30841021E-02  0.00000000E+00  0.00000000E+00  0.00000000E+00
  0.00000000E+00  0.00000000E+00  0.00000000E+00 -4.24619134E-01  0.00000000E+00
  0.00000000E+00  0.00000000E+00  0.00000000E+00  0.00000000E+00 -4.02791481E-14
  0.00000000E+00  0.00000000E+00  0.00000000E+00 -8.49237495E-13  0.00000000E+00
  0.00000000E+00  0.00000000E+00  0.00000000E+00  0.00000000E+00  0.00000000E+00
 -1.74830808E-14 -2.55957286E-13  0.00000000E+00  0.00000000E+00  1.95362907E-14
  1.00757433E-12  0.00000000E+00  0.00000000E+00 -2.39574576E-13  6.12496645E-01
 -6.12496645E-01 -8.01503808E-14  0.00000000E+00  0.00000000E+00  0.00000000E+00
  1.74830808E-14  2.55957286E-13  0.00000000E+00  0.00000000E+00  1.95362907E-14
 -1.00757433E-12  0.00000000E+00  0.00000000E+00 -2.39574576E-13 -6.12496645E-01
  6.12496645E-01  8.01503808E-14  0.00000000E+00  0.00000000E+00  0.00000000E+00
  0.00000000E+00  0.00000000E+00  0.00000000E+00  0.00000000E+00  0.00000000E+00
  0.00000000E+00  0.00000000E+00  0.00000000E+00  0.00000000E+00  0.00000000E+00
  0.00000000E+00  0.00000000E+00  0.00000000E+00  0.00000000E+00  0.00000000E+00
  0.00000000E+00  0.00000000E+00  0.00000000E+00  0.00000000E+00  0.00000000E+00
  0.00000000E+00  0.00000000E+00  0.00000000E+00  0.00000000E+00  0.00000000E+00
  0.00000000E+00  0.00000000E+00  7.07250205E-01  0.00000000E+00  0.00000000E+00
  0.00000000E+00  0.00000000E+00  0.00000000E+00  0.00000000E+00  0.00000000E+00
  0.00000000E+00  0.00000000E+00  0.00000000E+00  0.00000000E+00  0.00000000E+00
  0.00000000E+00  0.00000000E+00 -7.07250205E-01  0.00000000E+00  0.00000000E+00
  0.00000000E+00  0.00000000E+00  0.00000000E+00  0.00000000E+00 -1.38225017E-01
  0.00000000E+00  0.00000000E+00  0.00000000E+00 -5.29406324E+00  0.00000000E+00
  0.00000000E+00  0.00000000E+00  0.00000000E+00  0.00000000E+00  0.00000000E+00
 -7.50731407E-02 -1.62889766E+00  0.00000000E+00  0.00000000E+00  1.15563687E-01
  6.04795399E+00  0.00000000E+00  0.00000000E+00 -1.40136260E+00 -1.67852820E-01
 -1.67852820E-01 -4.93392001E-01  0.00000000E+00  0.00000000E+00  0.00000000E+00
  7.50731407E-02  1.62889766E+00  0.00000000E+00  0.00000000E+00  1.15563687E-01
 -6.04795399E+00  0.00000000E+00  0.00000000E+00 -1.40136260E+00  1.67852820E-01
  1.67852820E-01  4.93392001E-01  0.00000000E+00  0.00000000E+00  0.00000000E+00
  2.06013103E-15 -2.25132121E-14  0.00000000E+00  0.00000000E+00  0.00000000E+00
 -5.88304992E-15  0.00000000E+00  0.00000000E+00  0.00000000E+00  6.14837755E-01
 -6.14837755E-01  4.81715246E-15  0.00000000E+00  0.00000000E+00  0.00000000E+00
 -5.43524515E-16  1.76112954E-15  0.00000000E+00  0.00000000E+00 -1.30109266E-15
  3.61086278E-15  0.00000000E+00  0.00000000E+00 -1.20301660E-15 -5.27122673E-01
  5.27122673E-01  1.86390532E-15  0.00000000E+00  0.00000000E+00  0.00000000E+00
 -5.43524515E-16  1.76112954E-15  0.00000000E+00  0.00000000E+00  1.30109266E-15
  3.61086278E-15  0.00000000E+00  0.00000000E+00  1.20301660E-15 -5.27122673E-01
  5.27122673E-01  1.86390532E-15  0.00000000E+00  0.00000000E+00  0.00000000E+00
  0.00000000E+00  0.00000000E+00  0.00000000E+00  0.00000000E+00  0.00000000E+00
  0.00000000E+00  0.00000000E+00  0.00000000E+00  0.00000000E+00  0.00000000E+00
  0.00000000E+00  0.00000000E+00  7.09953480E-01  0.00000000E+00  0.00000000E+00
  0.00000000E+00  0.00000000E+00  0.00000000E+00  0.00000000E+00  0.00000000E+00
  0.00000000E+00  0.00000000E+00  0.00000000E+00  0.00000000E+00  0.00000000E+00
  0.00000000E+00  0.00000000E+00 -6.08668838E-01  0.00000000E+00  0.00000000E+00
  0.00000000E+00  0.00000000E+00  0.00000000E+00  0.00000000E+00  0.00000000E+00
  0.00000000E+00  0.00000000E+00  0.00000000E+00  0.00000000E+00  0.00000000E+00
  0.00000000E+00  0.00000000E+00 -6.08668838E-01  0.00000000E+00  0.00000000E+00
  0.00000000E+00  0.00000000E+00  4.93972375E-01  0.00000000E+00  0.00000000E+00
  0.00000000E+00  4.21650345E-01  0.00000000E+00  0.00000000E+00  0.00000000E+00
  0.00000000E+00  0.00000000E+00  0.00000000E+00  0.00000000E+00  0.00000000E+00
  0.00000000E+00  0.00000000E+00  1.39118814E-01  0.00000000E+00  0.00000000E+00
  0.00000000E+00 -4.34876345E-01  0.00000000E+00  0.00000000E+00  0.00000000E+00
  0.00000000E+00  0.00000000E+00  0.00000000E+00  7.91823989E-01  0.00000000E+00
  0.00000000E+00  0.00000000E+00  1.39118814E-01  0.00000000E+00  0.00000000E+00
  0.00000000E+00 -4.34876345E-01  0.00000000E+00  0.00000000E+00  0.00000000E+00
  0.00000000E+00  0.00000000E+00  0.00000000E+00 -7.91823989E-01  0.00000000E+00
  0.00000000E+00  0.00000000E+00  0.00000000E+00  4.93972375E-01  0.00000000E+00
  0.00000000E+00  0.00000000E+00  4.21650345E-01  0.00000000E+00  0.00000000E+00
  0.00000000E+00  0.00000000E+00  0.00000000E+00  0.00000000E+00  0.00000000E+00
  0.00000000E+00  0.00000000E+00  0.00000000E+00  1.39118814E-01  0.00000000E+00
  0.00000000E+00  0.00000000E+00 -4.34876345E-01  0.00000000E+00  0.00000000E+00
  0.00000000E+00  0.00000000E+00  0.00000000E+00  0.00000000E+00  7.91823989E-01
  0.00000000E+00  0.00000000E+00  0.00000000E+00  1.39118814E-01  0.00000000E+00
  0.00000000E+00  0.00000000E+00 -4.34876345E-01  0.00000000E+00  0.00000000E+00
  0.00000000E+00  0.00000000E+00  0.00000000E+00  0.00000000E+00 -7.91823989E-01
 -2.55410724E-01 -8.70129035E-01  0.00000000E+00  0.00000000E+00  0.00000000E+00
 -1.15229388E+00  0.00000000E+00  0.00000000E+00  0.00000000E+00 -6.17188346E-01
 -6.17188346E-01 -1.62193494E-02  0.00000000E+00  0.00000000E+00  0.00000000E+00
  8.99126211E-03 -8.64208434E-01  0.00000000E+00  0.00000000E+00  2.49484572E-01
  1.61160867E+00  0.00000000E+00  0.00000000E+00 -1.18924660E+00 -2.91968674E-01
 -2.91968674E-01  7.60665456E-01  0.00000000E+00  0.00000000E+00  0.00000000E+00
  8.99126211E-03 -8.64208434E-01  0.00000000E+00  0.00000000E+00 -2.49484572E-01
  1.61160867E+00  0.00000000E+00  0.00000000E+00  1.18924660E+00 -2.91968674E-01
 -2.91968674E-01  7.60665456E-01  0.00000000E+00  0.00000000E+00  0.00000000E+00
  0.00000000E+00  0.00000000E+00  0.00000000E+00  0.00000000E+00 -1.80264074E+00
  0.00000000E+00  0.00000000E+00  0.00000000E+00 -1.75792501E+00  0.00000000E+00
  0.00000000E+00  0.00000000E+00  0.00000000E+00  0.00000000E+00  0.00000000E+00
 -3.72905011E-02 -6.57455445E-01  0.00000000E+00  0.00000000E+00 -1.35438130E-01
  2.74967335E+00  0.00000000E+00  0.00000000E+00 -1.32458792E+00 -4.83490838E-01
 -4.83490838E-01  9.76850951E-01  0.00000000E+00  0.00000000E+00  0.00000000E+00
  3.72905011E-02  6.57455445E-01  0.00000000E+00  0.00000000E+00 -1.35438130E-01
 -2.74967335E+00  0.00000000E+00  0.00000000E+00 -1.32458792E+00  4.83490838E-01
  4.83490838E-01 -9.76850951E-01  0.00000000E+00  0.00000000E+00  0.00000000E+00
  0.00000000E+00  0.00000000E+00  0.00000000E+00  0.00000000E+00  0.00000000E+00
  0.00000000E+00  0.00000000E+00  0.00000000E+00  0.00000000E+00  0.00000000E+00
  0.00000000E+00  0.00000000E+00  0.00000000E+00  0.00000000E+00  1.31906809E+00
  0.00000000E+00  0.00000000E+00  0.00000000E+00 -1.37099441E-01  0.00000000E+00
  0.00000000E+00  0.00000000E+00 -3.08475911E-01  0.00000000E+00  0.00000000E+00
  0.00000000E+00  0.00000000E+00  0.00000000E+00  0.00000000E+00  8.28732860E-01
  0.00000000E+00  0.00000000E+00  0.00000000E+00  1.37099441E-01  0.00000000E+00
  0.00000000E+00  0.00000000E+00  3.08475911E-01  0.00000000E+00  0.00000000E+00
  0.00000000E+00  0.00000000E+00  0.00000000E+00  0.00000000E+00  8.28732860E-01
  0.00000000E+00  0.00000000E+00  0.00000000E+00  0.00000000E+00  0.00000000E+00
  0.00000000E+00  0.00000000E+00  0.00000000E+00  0.00000000E+00  0.00000000E+00
  0.00000000E+00  0.00000000E+00  0.00000000E+00  1.31906809E+00  0.00000000E+00
  0.00000000E+00  0.00000000E+00 -1.37099441E-01  0.00000000E+00  0.00000000E+00
  0.00000000E+00 -3.08475911E-01  0.00000000E+00  0.00000000E+00  0.00000000E+00
  0.00000000E+00  0.00000000E+00  0.00000000E+00  8.28732860E-01  0.00000000E+00
  0.00000000E+00  0.00000000E+00  1.37099441E-01  0.00000000E+00  0.00000000E+00
  0.00000000E+00  3.08475911E-01  0.00000000E+00  0.00000000E+00  0.00000000E+00
  0.00000000E+00  0.00000000E+00  0.00000000E+00  8.28732860E-01  0.00000000E+00
 -6.06954340E-02  2.73183498E+00  0.00000000E+00  0.00000000E+00  0.00000000E+00
  1.52607600E+00  0.00000000E+00  0.00000000E+00  0.00000000E+00 -1.15798581E+00
 -1.15798581E+00  1.07883228E+00  0.00000000E+00  0.00000000E+00  0.00000000E+00
 -2.67343804E-02  1.83221926E-03  0.00000000E+00  0.00000000E+00  6.11190479E-01
 -1.02106656E+00  0.00000000E+00  0.00000000E+00  8.72190428E-01  1.84518720E-01
  1.84518720E-01 -1.15717416E+00  0.00000000E+00  0.00000000E+00  0.00000000E+00
 -2.67343804E-02  1.83221926E-03  0.00000000E+00  0.00000000E+00 -6.11190479E-01
 -1.02106656E+00  0.00000000E+00  0.00000000E+00 -8.72190428E-01  1.84518720E-01
  1.84518720E-01 -1.15717416E+00  0.00000000E+00  0.00000000E+00  0.00000000E+00
 -2.26161382E-02 -1.05549067E+00  0.00000000E+00  0.00000000E+00  0.00000000E+00
 -3.10108452E+00  0.00000000E+00  0.00000000E+00  0.00000000E+00  2.00256823E-01
  2.00256823E-01  4.89988092E-01  0.00000000E+00  0.00000000E+00  0.00000000E+00
 -3.79985326E-01 -3.62304171E-01  0.00000000E+00  0.00000000E+00  2.73944925E-01
  4.36389864E+00  0.00000000E+00  0.00000000E+00 -1.19409391E+00 -1.37317877E+00
 -1.37317877E+00 -9.43178879E-01  0.00000000E+00  0.00000000E+00  0.00000000E+00
 -3.79985326E-01 -3.62304171E-01  0.00000000E+00  0.00000000E+00 -2.73944925E-01
  4.36389864E+00  0.00000000E+00  0.00000000E+00  1.19409391E+00 -1.37317877E+00
 -1.37317877E+00 -9.43178879E-01  0.00000000E+00  0.00000000E+00  0.00000000E+00
  4.99903321E-01 -1.94950874E+00  0.00000000E+00  0.00000000E+00  0.00000000E+00
  9.72389736E-01  0.00000000E+00  0.00000000E+00  0.00000000E+00  1.28367743E+00
  1.28367743E+00  3.22131743E+00  0.00000000E+00  0.00000000E+00  0.00000000E+00
  5.92297819E-02 -1.99371711E-01  0.00000000E+00  0.00000000E+00  6.30237013E-01
 -1.51065486E+00  0.00000000E+00  0.00000000E+00  1.00145365E+00  3.41587882E-01
  3.41587882E-01 -5.77942984E-01  0.00000000E+00  0.00000000E+00  0.00000000E+00
  5.92297819E-02 -1.99371711E-01  0.00000000E+00  0.00000000E+00 -6.30237013E-01
 -1.51065486E+00  0.00000000E+00  0.00000000E+00 -1.00145365E+00  3.41587882E-01
  3.41587882E-01 -5.77942984E-01  0.00000000E+00  0.00000000E+00  0.00000000E+00
  0.00000000E+00  0.00000000E+00  0.00000000E+00  0.00000000E+00 -8.61026453E-02
  0.00000000E+00  0.00000000E+00  0.00000000E+00 -5.54656506E+00  0.00000000E+00
  0.00000000E+00  0.00000000E+00  0.00000000E+00  0.00000000E+00  0.00000000E+00
 -4.86862960E-01 -9.01006707E-01  0.00000000E+00  0.00000000E+00  2.08619103E-01
  8.34892044E+00  0.00000000E+00  0.00000000E+00 -1.67026558E+00 -1.60141836E+00
 -1.60141836E+00 -1.44128539E+00  0.00000000E+00  0.00000000E+00  0.00000000E+00
  4.86862960E-01  9.01006707E-01  0.00000000E+00  0.00000000E+00  2.08619103E-01
 -8.34892044E+00  0.00000000E+00  0.00000000E+00 -1.67026558E+00  1.60141836E+00
  1.60141836E+00  1.44128539E+00  0.00000000E+00  0.00000000E+00  0.00000000E+00
Orthonormal basis                          R   N=        2025
  3.26881390E-02  1.51402051E-01  0.00000000E+00  0.00000000E+00  0.00000000E+00
  1.58515119E-01  0.00000000E+00  0.00000000E+00  0.00000000E+00  1.04247744E-01
  1.04247744E-01  1.40521640E-01  0.00000000E+00  0.00000000E+00  0.00000000E+00
  1.34443372E-02  7.23523505E-02  0.00000000E+00  0.00000000E+00 -3.74413659E-02
  1.04394678E-01  0.00000000E+00  0.00000000E+00 -8.64767476E-02  6.10942331E-02
  6.10942331E-02  8.85740117E-02  0.00000000E+00  0.00000000E+00  0.00000000E+00
  1.34443372E-02  7.23523505E-02  0.00000000E+00  0.00000000E+00  3.74413659E-02
  1.04394678E-01  0.00000000E+00  0.00000000E+00  8.64767476E-02  6.10942331E-02
  6.10942331E-02  8.85740117E-02  0.00000000E+00  0.00000000E+00  0.00000000E+00
 -6.13800045E-02 -1.46072907E-01  0.00000000E+00  0.00000000E+00  0.00000000E+00
 -2.89892949E-02  0.00000000E+00  0.00000000E+00  0.00000000E+00 -1.39592613E-01
 -1.39592613E-01 -1.74874688E-02  0.00000000E+00  0.00000000E+00  0.00000000E+00
  4.86203551E-02  1.76475332E-01  0.00000000E+00  0.00000000E+00  1.28674435E-01
  1.52146780E-01  0.00000000E+00  0.00000000E+00  2.21622522E-01  1.42700394E-01
  1.42700394E-01  8.33291725E-02  0.00000000E+00  0.00000000E+00  0.00000000E+00
  4.86203551E-02  1.76475332E-01  0.00000000E+00  0.00000000E+00 -1.28674435E-01
  1.52146780E-01  0.00000000E+00  0.00000000E+00 -2.21622522E-01  1.42700394E-01
  1.42700394E-01  8.33291725E-02  0.00000000E+00  0.00000000E+00  0.00000000E+00
  1.96816375E-01  1.12655122E-01  0.00000000E+00  0.00000000E+00  0.00000000E+00
  1.37714394E-01  0.00000000E+00  0.00000000E+00  0.00000000E+00  2.57674939E-01
  2.57674939E-01 -3.63656489E-01  0.00000000E+00  0.00000000E+00  0.00000000E+00
 -1.91769635E-01 -1.29064117E-01  0.00000000E+00  0.00000000E+00  4.31972642E-01
  4.58085472E-02  0.00000000E+00  0.00000000E+00  6.68362814E-02 -6.01221379E-03
 -6.01221379E-03  6.60596608E-02  0.00000000E+00  0.00000000E+00  0.00000000E+00
 -1.91769635E-01 -1.29064117E-01  0.00000000E+00  0.00000000E+00 -4.31972642E-01
  4.58085472E-02  0.00000000E+00  0.00000000E+00 -6.68362814E-02 -6.01221379E-03
 -6.01221379E-03  6.60596608E-02  0.00000000E+00  0.00000000E+00  0.00000000E+00
  6.11488219E-01  3.59117539E-02  0.00000000E+00  0.00000000E+00  0.00000000E+00
 -1.91674166E-02  0.00000000E+00  0.00000000E+00  0.00000000E+00 -4.07496097E-02
 -4.07496097E-02 -3.28052616E-02  0.00000000E+00  0.00000000E+00  0.00000000E+00
  5.14492721E-01  4.65117217E-02  0.00000000E+00  0.00000000E+00  1.00779541E-01
 -8.99227730E-03  0.00000000E+00  0.00000000E+00  2.11250112E-03 -1.21562469E-01
 -1.21562469E-01  5.44789247E-02  0.00000000E+00  0.00000000E+00  0.00000000E+00
  5.14492721E-01  4.65117217E-02  0.00000000E+00  0.00000000E+00 -1.00779541E-01
 -8.99227730E-03  0.00000000E+00  0.00000000E+00 -2.11250112E-03 -1.21562469E-01
 -1.21562469E-01  5.44789247E-02  0.00000000E+00  0.00000000E+00  0.00000000E+00
  6.90097464E-01 -3.49614167E-02  0.00000000E+00  0.00000000E+00  0.00000000E+00
 -8.54160192E-02  0.00000000E+00  0.00000000E+00  0.00000000E+00 -2.22795654E-01
 -2.22795654E-01  1.58086170E-01  0.00000000E+00  0.00000000E+00  0.00000000E+00
 -4.05038330E-01  6.55379245E-03  0.00000000E+00  0.00000000E+00 -1.46045775E-01
 -9.09193439E-03  0.00000000E+00  0.00000000E+00  4.65579504E-02  1.29128795E-02
  1.29128795E-02  1.48540418E-01  0.00000000E+00  0.00000000E+00  0.00000000E+00
 -4.05038330E-01  6.55379245E-03  0.00000000E+00  0.00000000E+00  1.46045775E-01
 -9.09193439E-03  0.00000000E+00  0.00000000E+00 -4.65579504E-02  1.29128795E-02
  1.29128795E-02  1.48540418E-01  0.00000000E+00  0.00000000E+00  0.00000000E+00
 -4.46862710E-16  8.20469507E-17  0.00000000E+00  0.00000000E+00  0.00000000E+00
 -5.16836787E-16  0.00000000E+00  0.00000000E+00  0.00000000E+00  5.58526975E-01
 -5.58526975E-01  7.57565497E-16  0.00000000E+00  0.00000000E+00  0.00000000E+00
 -1.33736052E-16  1.83516783E-16  0.00000000E+00  0.00000000E+00  7.86506363E-17
 -2.43299292E-16  0.00000000E+00  0.00000000E+00  5.45374538E-16  3.95337447E-01
 -3.95337447E-01  1.28668973E-15  0.00000000E+00  0.00000000E+00  0.00000000E+00
 -1.33736052E-16  1.83516783E-16  0.00000000E+00  0.00000000E+00 -7.86506363E-17
 -2.43299292E-16  0.00000000E+00  0.00000000E+00 -5.45374538E-16  3.95337447E-01
 -3.95337447E-01  1.28668973E-15  0.00000000E+00  0.00000000E+00  0.00000000E+00
 -3.13202902E-01  1.99026548E-01  0.00000000E+00  0.00000000E+00  0.00000000E+00
 -1.82424326E-01  0.00000000E+00  0.00000000E+00  0.00000000E+00  8.71249432E-03
  8.71249432E-03  3.32965605E-01  0.00000000E+00  0.00000000E+00  0.00000000E+00
 -2.86772030E-02  4.29535362E-03  0.00000000E+00  0.00000000E+00  8.31264364E-02
 -6.30528912E-02  0.00000000E+00  0.00000000E+00  2.20154073E-01 -3.01163267E-01
 -3.01163267E-01  5.17247830E-01  0.00000000E+00  0.00000000E+00  0.00000000E+00
 -2.86772030E-02  4.29535362E-03  0.00000000E+00  0.00000000E+00 -8.31264364E-02
 -6.30528912E-02  0.00000000E+00  0.00000000E+00 -2.20154073E-01 -3.01163267E-01
 -3.01163267E-01  5.17247830E-01  0.00000000E+00  0.00000000E+00  0.00000000E+00
  2.03043648E-16 -3.23108059E-16  0.00000000E+00  0.00000000E+00  0.00000000E+00
 -1.92901521E-16  0.00000000E+00  0.00000000E+00  0.00000000E+00  6.85207335E-01
 -6.85207335E-01  2.82739276E-16  0.00000000E+00  0.00000000E+00  0.00000000E+00
  1.52241254E-17  4.32716119E-17  0.00000000E+00  0.00000000E+00 -1.08848296E-16
 -4.88726391E-17  0.00000000E+00  0.00000000E+00  2.42685309E-16 -4.84025460E-01
  4.84025460E-01  6.89910580E-17  0.00000000E+00  0.00000000E+00  0.00000000E+00
  1.52241254E-17  4.32716119E-17  0.00000000E+00  0.00000000E+00  1.08848296E-16
 -4.88726391E-17  0.00000000E+00  0.00000000E+00 -2.42685309E-16 -4.84025460E-01
  4.84025460E-01  6.89910580E-17  0.00000000E+00  0.00000000E+00  0.00000000E+00
 -6.09900864E-02 -5.00488555E-02  0.00000000E+00  0.00000000E+00  0.00000000E+00
 -2.05417598E-01  0.00000000E+00  0.00000000E+00  0.00000000E+00 -1.73839446E-01
 -1.73839446E-01  2.07184984E-01  0.00000000E+00  0.00000000E+00  0.00000000E+00
 -1.85340955E-01  7.21104981E-01  0.00000000E+00  0.00000000E+00  5.12186973E-01
 -2.63303818E-01  0.00000000E+00  0.00000000E+00 -5.73885839E-01 -1.26195251E-01
 -1.26195251E-01 -1.42182529E-01  0.00000000E+00  0.00000000E+00  0.00000000E+00
 -1.85340955E-01  7.21104981E-01  0.00000000E+00  0.00000000E+00 -5.12186973E-01
 -2.63303818E-01  0.00000000E+00  0.00000000E+00  5.73885839E-01 -1.26195251E-01
 -1.26195251E-01 -1.42182529E-01  0.00000000E+00  0.00000000E+00  0.00000000E+00
  2.02747241E-01  1.63702672E-01  0.00000000E+00  0.00000000E+00  0.00000000E+00
 -3.44210822E-01  0.00000000E+00  0.00000000E+00  0.00000000E+00  7.00660322E-01
  7.00660322E-01 -5.80624864E-01  0.00000000E+00  0.00000000E+00  0.00000000E+00
 -1.59526077E-01  8.64830841E-01  0.00000000E+00  0.00000000E+00 -5.37873886E-01
  6.00098547E-02  0.00000000E+00  0.00000000E+00  5.50415481E-01 -2.61029621E-01
 -2.61029621E-01 -3.16235631E-01  0.00000000E+00  0.00000000E+00  0.00000000E+00
 -1.59526077E-01  8.64830841E-01  0.00000000E+00  0.00000000E+00  5.37873886E-01
  6.00098547E-02  0.00000000E+00  0.00000000E+00 -5.50415481E-01 -2.61029621E-01
 -2.61029621E-01 -3.16235631E-01  0.00000000E+00  0.00000000E+00  0.00000000E+00
 -1.54601583E-01 -7.89042562E-01  0.00000000E+00  0.00000000E+00  0.00000000E+00
  1.82591896E+00  0.00000000E+00  0.00000000E+00  0.00000000E+00 -4.39154044E-01
 -4.39154044E-01 -3.62016435E-01  0.00000000E+00  0.00000000E+00  0.00000000E+00
 -1.55669647E-01  1.63587217E-01  0.00000000E+00  0.00000000E+00 -1.20878727E-01
  5.24410304E-01  0.00000000E+00  0.00000000E+00 -1.98249119E-02 -6.12489052E-01
 -6.12489052E-01 -8.05336808E-02  0.00000000E+00  0.00000000E+00  0.00000000E+00
 -1.55669647E-01  1.63587217E-01  0.00000000E+00  0.00000000E+00  1.20878727E-01
  5.24410304E-01  0.00000000E+00  0.00000000E+00  1.98249119E-02 -6.12489052E-01
 -6.12489052E-01 -8.05336808E-02  0.00000000E+00  0.00000000E+00  0.00000000E+00
 -1.00535899E-01 -1.98770136E+00  0.00000000E+00  0.00000000E+00  0.00000000E+00
 -2.15922041E-01  0.00000000E+00  0.00000000E+00  0.00000000E+00  4.84566760E-01
  4.84566760E-01 -1.76122160E+00  0.00000000E+00  0.00000000E+00  0.00000000E+00
  1.66906601E-01  2.29832298E-01  0.00000000E+00  0.00000000E+00 -6.10869079E-01
 -5.82573197E-01  0.00000000E+00  0.00000000E+00 -9.16279331E-01  2.99132752E-01
  2.99132752E-01  1.64543770E+00  0.00000000E+00  0.00000000E+00  0.00000000E+00
  1.66906601E-01  2.29832298E-01  0.00000000E+00  0.00000000E+00  6.10869079E-01
 -5.82573197E-01  0.00000000E+00  0.00000000E+00  9.16279331E-01  2.99132752E-01
  2.99132752E-01  1.64543770E+00  0.00000000E+00  0.00000000E+00  0.00000000E+00
 -5.11597344E-01  3.12281380E+00  0.00000000E+00  0.00000000E+00  0.00000000E+00
  1.70236744E-02  0.00000000E+00  0.00000000E+00  0.00000000E+00 -1.53630538E+00
 -1.53630538E+00 -2.71607726E+00  0.00000000E+00  0.00000000E+00  0.00000000E+00
  3.36431122E-02  2.68420056E-01  0.00000000E+00  0.00000000E+00 -4.41258780E-01
  5.01114397E-02  0.00000000E+00  0.00000000E+00 -3.68237946E-01  6.39269413E-02
  6.39269413E-02  4.55227445E-01  0.00000000E+00  0.00000000E+00  0.00000000E+00
  3.36431122E-02  2.68420056E-01  0.00000000E+00  0.00000000E+00  4.41258780E-01
  5.01114397E-02  0.00000000E+00  0.00000000E+00  3.68237946E-01  6.39269413E-02
  6.39269413E-02  4.55227445E-01  0.00000000E+00  0.00000000E+00  0.00000000E+00
 -2.17498479E-01 -1.19526930E+00  0.00000000E+00  0.00000000E+00  0.00000000E+00
 -5.82012425E+00  0.00000000E+00  0.00000000E+00  0.00000000E+00  3.73934841E-02
  3.73934841E-02 -8.99936464E-01  0.00000000E+00  0.00000000E+00  0.00000000E+00
 -3.12135894E-01 -1.04174313E+00  0.00000000E+00  0.00000000E+00  1.14095995E-02
  6.16973203E+00  0.00000000E+00  0.00000000E+00 -2.51109961E+00 -1.22560692E+00
 -1.22560692E+00 -1.89997260E-01  0.00000000E+00  0.00000000E+00  0.00000000E+00
 -3.12135894E-01 -1.04174313E+00  0.00000000E+00  0.00000000E+00 -1.14095995E-02
  6.16973203E+00  0.00000000E+00  0.00000000E+00  2.51109961E+00 -1.22560692E+00
 -1.22560692E+00 -1.89997260E-01  0.00000000E+00  0.00000000E+00  0.00000000E+00
  0.00000000E+00  0.00000000E+00  0.00000000E+00  0.00000000E+00  0.00000000E+00
  0.00000000E+00  0.00000000E+00  0.00000000E+00  0.00000000E+00  0.00000000E+00
  0.00000000E+00  0.00000000E+00  6.44931398E-01  0.00000000E+00  0.00000000E+00
  0.00000000E+00  0.00000000E+00  0.00000000E+00  0.00000000E+00  0.00000000E+00
  0.00000000E+00  0.00000000E+00  0.00000000E+00  0.00000000E+00  0.00000000E+00
  0.00000000E+00  0.00000000E+00  4.56496363E-01  0.00000000E+00  0.00000000E+00
  0.00000000E+00  0.00000000E+00  0.00000000E+00  0.00000000E+00  0.00000000E+00
  0.00000000E+00  0.00000000E+00  0.00000000E+00  0.00000000E+00  0.00000000E+00
  0.00000000E+00  0.00000000E+00  4.56496363E-01  0.00000000E+00  0.00000000E+00
  0.00000000E+00  0.00000000E+00  0.00000000E+00  0.00000000E+00  0.00000000E+00
  0.00000000E+00  0.00000000E+00  0.00000000E+00  0.00000000E+00  0.00000000E+00
  0.00000000E+00  0.00000000E+00  7.91209279E-01  0.00000000E+00  0.00000000E+00
  0.00000000E+00  0.00000000E+00  0.00000000E+00  0.00000000E+00  0.00000000E+00
  0.00000000E+00  0.00000000E+00  0.00000000E+00  0.00000000E+00  0.00000000E+00
  0.00000000E+00  0.00000000E+00 -5.58904459E-01  0.00000000E+00  0.00000000E+00
  0.00000000E+00  0.00000000E+00  0.00000000E+00  0.00000000E+00  0.00000000E+00
  0.00000000E+00  0.00000000E+00  0.00000000E+00  0.00000000E+00  0.00000000E+00
  0.00000000E+00  0.00000000E+00 -5.58904459E-01  0.00000000E+00  0.00000000E+00
  0.00000000E+00  0.00000000E+00  0.00000000E+00  0.00000000E+00  0.00000000E+00
  0.00000000E+00  0.00000000E+00  0.00000000E+00  0.00000000E+00  0.00000000E+00
  0.00000000E+00  0.00000000E+00  0.00000000E+00  4.54607040E-01  0.00000000E+00
  0.00000000E+00  0.00000000E+00  2.44884544E-01  0.00000000E+00  0.00000000E+00
  0.00000000E+00  2.47710593E-01  0.00000000E+00  0.00000000E+00  0.00000000E+00
  0.00000000E+00  0.00000000E+00  0.00000000E+00 -2.04949492E-01  0.00000000E+00
  0.00000000E+00  0.00000000E+00 -2.44884544E-01  0.00000000E+00  0.00000000E+00
  0.00000000E+00 -2.47710593E-01  0.00000000E+00  0.00000000E+00  0.00000000E+00
  0.00000000E+00  0.00000000E+00  0.00000000E+00 -2.04949492E-01  0.00000000E+00
  0.00000000E+00  0.00000000E+00  0.00000000E+00  0.00000000E+00  0.00000000E+00
  0.00000000E+00  0.00000000E+00  0.00000000E+00  0.00000000E+00  0.00000000E+00
  0.00000000E+00  0.00000000E+00  0.00000000E+00 -2.66526100E-01  0.00000000E+00
  0.00000000E+00  0.00000000E+00  3.14926308E-01  0.00000000E+00  0.00000000E+00
  0.00000000E+00  2.82557938E-01  0.00000000E+00  0.00000000E+00  0.00000000E+00
  0.00000000E+00  0.00000000E+00  0.00000000E+00  4.22205775E-01  0.00000000E+00
  0.00000000E+00  0.00000000E+00 -3.14926308E-01  0.00000000E+00  0.00000000E+00
  0.00000000E+00 -2.82557938E-01  0.00000000E+00  0.00000000E+00  0.00000000E+00
  0.00000000E+00  0.00000000E+00  0.00000000E+00  4.22205775E-01  0.00000000E+00
  0.00000000E+00  0.00000000E+00  0.00000000E+00  0.00000000E+00  0.00000000E+00
  0.00000000E+00  0.00000000E+00  0.00000000E+00  0.00000000E+00  0.00000000E+00
  0.00000000E+00  0.00000000E+00  0.00000000E+00 -3.24175187E-01  0.00000000E+00
  0.00000000E+00  0.00000000E+00  7.28233964E-01  0.00000000E+00  0.00000000E+00
  0.00000000E+00 -6.15647820E-01  0.00000000E+00  0.00000000E+00  0.00000000E+00
  0.00000000E+00  0.00000000E+00  0.00000000E+00 -2.33498533E-01  0.00000000E+00
  0.00000000E+00  0.00000000E+00 -7.28233964E-01  0.00000000E+00  0.00000000E+00
  0.00000000E+00  6.15647820E-01  0.00000000E+00  0.00000000E+00  0.00000000E+00
  0.00000000E+00  0.00000000E+00  0.00000000E+00 -2.33498533E-01  0.00000000E+00
  0.00000000E+00  0.00000000E+00  0.00000000E+00  0.00000000E+00  0.00000000E+00
  0.00000000E+00  0.00000000E+00  0.00000000E+00  0.00000000E+00  0.00000000E+00
  0.00000000E+00  0.00000000E+00  0.00000000E+00  1.29027502E+00  0.00000000E+00
  0.00000000E+00  0.00000000E+00  3.90619196E-02  0.00000000E+00  0.00000000E+00
  0.00000000E+00 -5.85531234E-01  0.00000000E+00  0.00000000E+00  0.00000000E+00
  0.00000000E+00  0.00000000E+00  0.00000000E+00  7.69982021E-01  0.00000000E+00
  0.00000000E+00  0.00000000E+00 -3.90619196E-02  0.00000000E+00  0.00000000E+00
  0.00000000E+00  5.85531234E-01  0.00000000E+00  0.00000000E+00  0.00000000E+00
  0.00000000E+00  0.00000000E+00  0.00000000E+00  7.69982021E-01  0.00000000E+00
  0.00000000E+00  0.00000000E+00  0.00000000E+00  0.00000000E+00  0.00000000E+00
  0.00000000E+00  0.00000000E+00  0.00000000E+00  0.00000000E+00  0.00000000E+00
  0.00000000E+00  0.00000000E+00  0.00000000E+00  0.00000000E+00  4.54607040E-01
  0.00000000E+00  0.00000000E+00  0.00000000E+00  2.44884544E-01  0.00000000E+00
  0.00000000E+00  0.00000000E+00  2.47710593E-01  0.00000000E+00  0.00000000E+00
  0.00000000E+00  0.00000000E+00  0.00000000E+00  0.00000000E+00 -2.04949492E-01
  0.00000000E+00  0.00000000E+00  0.00000000E+00 -2.44884544E-01  0.00000000E+00
  0.00000000E+00  0.00000000E+00 -2.47710593E-01  0.00000000E+00  0.00000000E+00
  0.00000000E+00  0.00000000E+00  0.00000000E+00  0.00000000E+00 -2.04949492E-01
  0.00000000E+00  0.00000000E+00  0.00000000E+00  0.00000000E+00  0.00000000E+00
  0.00000000E+00  0.00000000E+00  0.00000000E+00  0.00000000E+00  0.00000000E+00
  0.00000000E+00  0.00000000E+00  0.00000000E+00  0.00000000E+00 -2.66526100E-01
  0.00000000E+00  0.00000000E+00  0.00000000E+00  3.14926308E-01  0.00000000E+00
  0.00000000E+00  0.00000000E+00  2.82557938E-01  0.00000000E+00  0.00000000E+00
  0.00000000E+00  0.00000000E+00  0.00000000E+00  0.00000000E+00  4.22205775E-01
  0.00000000E+00  0.00000000E+00  0.00000000E+00 -3.14926308E-01  0.00000000E+00
  0.00000000E+00  0.00000000E+00 -2.82557938E-01  0.00000000E+00  0.00000000E+00
  0.00000000E+00  0.00000000E+00  0.00000000E+00  0.00000000E+00  4.22205775E-01
  0.00000000E+00  0.00000000E+00  0.00000000E+00  0.00000000E+00  0.00000000E+00
  0.00000000E+00  0.00000000E+00  0.00000000E+00  0.00000000E+00  0.00000000E+00
  0.00000000E+00  0.00000000E+00  0.00000000E+00  0.00000000E+00 -3.24175187E-01
  0.00000000E+00  0.00000000E+00  0.00000000E+00  7.28233964E-01  0.00000000E+00
  0.00000000E+00  0.00000000E+00 -6.15647820E-01  0.00000000E+00  0.00000000E+00
  0.00000000E+00  0.00000000E+00  0.00000000E+00  0.00000000E+00 -2.33498533E-01
  0.00000000E+00  0.00000000E+00  0.00000000E+00 -7.28233964E-01  0.00000000E+00
  0.00000000E+00  0.00000000E+00  6.15647820E-01  0.00000000E+00  0.00000000E+00
  0.00000000E+00  0.00000000E+00  0.00000000E+00  0.00000000E+00 -2.33498533E-01
  0.00000000E+00  0.00000000E+00  0.00000000E+00  0.00000000E+00  0.00000000E+00
  0.00000000E+00  0.00000000E+00  0.00000000E+00  0.00000000E+00  0.00000000E+00
  0.00000000E+00  0.00000000E+00  0.00000000E+00  0.00000000E+00  1.29027502E+00
  0.00000000E+00  0.00000000E+00  0.00000000E+00  3.90619196E-02  0.00000000E+00
  0.00000000E+00  0.00000000E+00 -5.85531234E-01  0.00000000E+00  0.00000000E+00
  0.00000000E+00  0.00000000E+00  0.00000000E+00  0.00000000E+00  7.69982021E-01
  0.00000000E+00  0.00000000E+00  0.00000000E+00 -3.90619196E-02  0.00000000E+00
  0.00000000E+00  0.00000000E+00  5.85531234E-01  0.00000000E+00  0.00000000E+00
  0.00000000E+00  0.00000000E+00  0.00000000E+00  0.00000000E+00  7.69982021E-01
  0.00000000E+00  0.00000000E+00  0.00000000E+00  0.00000000E+00  0.00000000E+00
  0.00000000E+00  0.00000000E+00  0.00000000E+00  0.00000000E+00  0.00000000E+00
  0.00000000E+00  0.00000000E+00  0.00000000E+00  0.00000000E+00  0.00000000E+00
  0.00000000E+00  0.00000000E+00  0.00000000E+00  0.00000000E+00  0.00000000E+00
  0.00000000E+00  0.00000000E+00  0.00000000E+00  0.00000000E+00  0.00000000E+00
  0.00000000E+00  0.00000000E+00  7.07250205E-01  0.00000000E+00  0.00000000E+00
  0.00000000E+00  0.00000000E+00  0.00000000E+00  0.00000000E+00  0.00000000E+00
  0.00000000E+00  0.00000000E+00  0.00000000E+00  0.00000000E+00  0.00000000E+00
  0.00000000E+00  0.00000000E+00 -7.07250205E-01  0.00000000E+00  0.00000000E+00
  0.00000000E+00  0.00000000E+00  0.00000000E+00  0.00000000E+00  1.51083418E-01
  0.00000000E+00  0.00000000E+00  0.00000000E+00  2.10933781E-01  0.00000000E+00
  0.00000000E+00  0.00000000E+00  0.00000000E+00  0.00000000E+00  0.00000000E+00
  2.77303066E-02  1.31536829E-01  0.00000000E+00  0.00000000E+00 -1.60490791E-02
  1.49503941E-01  0.00000000E+00  0.00000000E+00  2.83167250E-03  1.12308711E-01
  1.12308711E-01  1.16476675E-01  0.00000000E+00  0.00000000E+00  0.00000000E+00
 -2.77303066E-02 -1.31536829E-01  0.00000000E+00  0.00000000E+00 -1.60490791E-02
 -1.49503941E-01  0.00000000E+00  0.00000000E+00  2.83167250E-03 -1.12308711E-01
 -1.12308711E-01 -1.16476675E-01  0.00000000E+00  0.00000000E+00  0.00000000E+00
  0.00000000E+00  0.00000000E+00  0.00000000E+00  0.00000000E+00 -3.60082879E-01
  0.00000000E+00  0.00000000E+00  0.00000000E+00  3.46701407E-03  0.00000000E+00
  0.00000000E+00  0.00000000E+00  0.00000000E+00  0.00000000E+00  0.00000000E+00
  1.85176902E-02  5.11109721E-02  0.00000000E+00  0.00000000E+00  3.71495525E-01
  7.65360908E-02  0.00000000E+00  0.00000000E+00  2.92557995E-01  6.20313552E-02
  6.20313552E-02 -5.51950254E-03  0.00000000E+00  0.00000000E+00  0.00000000E+00
 -1.85176902E-02 -5.11109721E-02  0.00000000E+00  0.00000000E+00  3.71495525E-01
 -7.65360908E-02  0.00000000E+00  0.00000000E+00  2.92557995E-01 -6.20313552E-02
 -6.20313552E-02  5.51950254E-03  0.00000000E+00  0.00000000E+00  0.00000000E+00
  0.00000000E+00  0.00000000E+00  0.00000000E+00  0.00000000E+00 -4.21600209E-02
  0.00000000E+00  0.00000000E+00  0.00000000E+00 -3.43409376E-02  0.00000000E+00
  0.00000000E+00  0.00000000E+00  0.00000000E+00  0.00000000E+00  0.00000000E+00
  6.78223919E-01  1.07246304E-01  0.00000000E+00  0.00000000E+00 -2.12773604E-02
 -4.41732350E-03  0.00000000E+00  0.00000000E+00 -3.27164985E-02 -6.66283196E-02
 -6.66283196E-02 -9.21220909E-02  0.00000000E+00  0.00000000E+00  0.00000000E+00
 -6.78223919E-01 -1.07246304E-01  0.00000000E+00  0.00000000E+00 -2.12773604E-02
  4.41732350E-03  0.00000000E+00  0.00000000E+00 -3.27164985E-02  6.66283196E-02
  6.66283196E-02  9.21220909E-02  0.00000000E+00  0.00000000E+00  0.00000000E+00
  0.00000000E+00  0.00000000E+00  0.00000000E+00  0.00000000E+00  4.15074856E-01
  0.00000000E+00  0.00000000E+00  0.00000000E+00 -1.74679711E-01  0.00000000E+00
  0.00000000E+00  0.00000000E+00  0.00000000E+00  0.00000000E+00  0.00000000E+00
  4.06074730E-02 -1.89197677E-02  0.00000000E+00  0.00000000E+00  1.85917257E-01
 -4.24850458E-02  0.00000000E+00  0.00000000E+00  1.64130012E-01 -2.87385199E-01
 -2.87385199E-01  5.31029010E-01  0.00000000E+00  0.00000000E+00  0.00000000E+00
 -4.06074730E-02  1.89197677E-02  0.00000000E+00  0.00000000E+00  1.85917257E-01
  4.24850458E-02  0.00000000E+00  0.00000000E+00  1.64130012E-01  2.87385199E-01
  2.87385199E-01 -5.31029010E-01  0.00000000E+00  0.00000000E+00  0.00000000E+00
  0.00000000E+00  0.00000000E+00  0.00000000E+00  0.00000000E+00  1.04251755E-17
  0.00000000E+00  0.00000000E+00  0.00000000E+00  3.58447848E-16  0.00000000E+00
  0.00000000E+00  0.00000000E+00  0.00000000E+00  0.00000000E+00  0.00000000E+00
 -1.27428051E-16 -1.08159160E-16  0.00000000E+00  0.00000000E+00  1.25988467E-16
  1.90753692E-16  0.00000000E+00  0.00000000E+00 -9.62163626E-17  6.12496645E-01
 -6.12496645E-01 -2.68889258E-16  0.00000000E+00  0.00000000E+00  0.00000000E+00
  1.27428051E-16  1.08159160E-16  0.00000000E+00  0.00000000E+00  1.25988467E-16
 -1.90753692E-16  0.00000000E+00  0.00000000E+00 -9.62163626E-17 -6.12496645E-01
  6.12496645E-01  2.68889258E-16  0.00000000E+00  0.00000000E+00  0.00000000E+00
  0.00000000E+00  0.00000000E+00  0.00000000E+00  0.00000000E+00  4.05869916E-01
  0.00000000E+00  0.00000000E+00  0.00000000E+00 -1.27086911E-02  0.00000000E+00
  0.00000000E+00  0.00000000E+00  0.00000000E+00  0.00000000E+00  0.00000000E+00
 -3.31964934E-02  1.30685562E-01  0.00000000E+00  0.00000000E+00  7.46062594E-01
 -1.50904152E-01  0.00000000E+00  0.00000000E+00 -7.00485170E-01  4.39775110E-02
  4.39775110E-02 -1.62688055E-01  0.00000000E+00  0.00000000E+00  0.00000000E+00
  3.31964934E-02 -1.30685562E-01  0.00000000E+00  0.00000000E+00  7.46062594E-01
  1.50904152E-01  0.00000000E+00  0.00000000E+00 -7.00485170E-01 -4.39775110E-02
 -4.39775110E-02  1.62688055E-01  0.00000000E+00  0.00000000E+00  0.00000000E+00
  0.00000000E+00  0.00000000E+00  0.00000000E+00  0.00000000E+00 -2.83039245E-01
  0.00000000E+00  0.00000000E+00  0.00000000E+00 -5.84769235E-01  0.00000000E+00
  0.00000000E+00  0.00000000E+00  0.00000000E+00  0.00000000E+00  0.00000000E+00
 -2.16861476E-01  1.01693965E+00  0.00000000E+00  0.00000000E+00 -1.65457527E-01
 -1.29639156E-01  0.00000000E+00  0.00000000E+00 -3.91641739E-02 -1.21595055E-01
 -1.21595055E-01 -4.69560547E-03  0.00000000E+00  0.00000000E+00  0.00000000E+00
  2.16861476E-01 -1.01693965E+00  0.00000000E+00  0.00000000E+00 -1.65457527E-01
  1.29639156E-01  0.00000000E+00  0.00000000E+00 -3.91641739E-02  1.21595055E-01
  1.21595055E-01  4.69560547E-03  0.00000000E+00  0.00000000E+00  0.00000000E+00
  0.00000000E+00  0.00000000E+00  0.00000000E+00  0.00000000E+00 -7.53537142E-01
  0.00000000E+00  0.00000000E+00  0.00000000E+00  1.72716912E+00  0.00000000E+00
  0.00000000E+00  0.00000000E+00  0.00000000E+00  0.00000000E+00  0.00000000E+00
 -2.03869352E-01  1.96557907E-01  0.00000000E+00  0.00000000E+00  3.38292526E-02
  3.87083190E-01  0.00000000E+00  0.00000000E+00 -2.98252973E-01 -8.12420047E-01
 -8.12420047E-01 -1.66867744E-01  0.00000000E+00  0.00000000E+00  0.00000000E+00
  2.03869352E-01 -1.96557907E-01  0.00000000E+00  0.00000000E+00  3.38292526E-02
 -3.87083190E-01  0.00000000E+00  0.00000000E+00 -2.98252973E-01  8.12420047E-01
  8.12420047E-01  1.66867744E-01  0.00000000E+00  0.00000000E+00  0.00000000E+00
  0.00000000E+00  0.00000000E+00  0.00000000E+00  0.00000000E+00 -1.85335438E+00
  0.00000000E+00  0.00000000E+00  0.00000000E+00 -1.68373847E-01  0.00000000E+00
  0.00000000E+00  0.00000000E+00  0.00000000E+00  0.00000000E+00  0.00000000E+00
  1.64581579E-01 -2.79952920E-01  0.00000000E+00  0.00000000E+00 -1.38273022E-01
 -1.78136725E-01  0.00000000E+00  0.00000000E+00 -9.74507472E-01  2.84070848E-01
  2.84070848E-01  1.31690620E+00  0.00000000E+00  0.00000000E+00  0.00000000E+00
 -1.64581579E-01  2.79952920E-01  0.00000000E+00  0.00000000E+00 -1.38273022E-01
  1.78136725E-01  0.00000000E+00  0.00000000E+00 -9.74507472E-01 -2.84070848E-01
 -2.84070848E-01 -1.31690620E+00  0.00000000E+00  0.00000000E+00  0.00000000E+00
  0.00000000E+00  0.00000000E+00  0.00000000E+00  0.00000000E+00 -6.65721530E-01
  0.00000000E+00  0.00000000E+00  0.00000000E+00 -8.74980648E+00  0.00000000E+00
  0.00000000E+00  0.00000000E+00  0.00000000E+00  0.00000000E+00  0.00000000E+00
 -4.45945449E-01 -1.70044379E+00  0.00000000E+00  0.00000000E+00  1.54466508E-01
  1.11267384E+01  0.00000000E+00  0.00000000E+00 -2.56312749E+00 -1.40829347E+00
 -1.40829347E+00 -1.10138095E+00  0.00000000E+00  0.00000000E+00  0.00000000E+00
  4.45945449E-01  1.70044379E+00  0.00000000E+00  0.00000000E+00  1.54466508E-01
 -1.11267384E+01  0.00000000E+00  0.00000000E+00 -2.56312749E+00  1.40829347E+00
  1.40829347E+00  1.10138095E+00  0.00000000E+00  0.00000000E+00  0.00000000E+00
  0.00000000E+00  0.00000000E+00  0.00000000E+00  2.91751569E-01  0.00000000E+00
  0.00000000E+00  0.00000000E+00  3.53045195E-01  0.00000000E+00  0.00000000E+00
  0.00000000E+00  0.00000000E+00  0.00000000E+00  0.00000000E+00  0.00000000E+00
  0.00000000E+00  0.00000000E+00  0.00000000E+00  1.43735243E-01  0.00000000E+00
  0.00000000E+00  0.00000000E+00  2.52442888E-01  0.00000000E+00  0.00000000E+00
  0.00000000E+00  0.00000000E+00  0.00000000E+00  0.00000000E+00 -1.00281304E-01
  0.00000000E+00  0.00000000E+00  0.00000000E+00  1.43735243E-01  0.00000000E+00
  0.00000000E+00  0.00000000E+00  2.52442888E-01  0.00000000E+00  0.00000000E+00
  0.00000000E+00  0.00000000E+00  0.00000000E+00  0.00000000E+00  1.00281304E-01
  0.00000000E+00  0.00000000E+00  0.00000000E+00 -3.41881369E-01  0.00000000E+00
  0.00000000E+00  0.00000000E+00 -2.78718704E-02  0.00000000E+00  0.00000000E+00
  0.00000000E+00  0.00000000E+00  0.00000000E+00  0.00000000E+00  0.00000000E+00
  0.00000000E+00  0.00000000E+00  0.00000000E+00  3.19292772E-01  0.00000000E+00
  0.00000000E+00  0.00000000E+00  2.14771560E-01  0.00000000E+00  0.00000000E+00
  0.00000000E+00  0.00000000E+00  0.00000000E+00  0.00000000E+00  4.51918225E-01
  0.00000000E+00  0.00000000E+00  0.00000000E+00  3.19292772E-01  0.00000000E+00
  0.00000000E+00  0.00000000E+00  2.14771560E-01  0.00000000E+00  0.00000000E+00
  0.00000000E+00  0.00000000E+00  0.00000000E+00  0.00000000E+00 -4.51918225E-01
  0.00000000E+00  0.00000000E+00  0.00000000E+00 -1.19916734E-01  0.00000000E+00
  0.00000000E+00  0.00000000E+00 -4.22538108E-01  0.00000000E+00  0.00000000E+00
  0.00000000E+00  0.00000000E+00  0.00000000E+00  0.00000000E+00  0.00000000E+00
  0.00000000E+00  0.00000000E+00  0.00000000E+00  6.15017332E-01  0.00000000E+00
  0.00000000E+00  0.00000000E+00 -1.52446835E-01  0.00000000E+00  0.00000000E+00
  0.00000000E+00  0.00000000E+00  0.00000000E+00  0.00000000E+00 -4.20466461E-01
  0.00000000E+00  0.00000000E+00  0.00000000E+00  6.15017332E-01  0.00000000E+00
  0.00000000E+00  0.00000000E+00 -1.52446835E-01  0.00000000E+00  0.00000000E+00
  0.00000000E+00  0.00000000E+00  0.00000000E+00  0.00000000E+00  4.20466461E-01
  0.00000000E+00  0.00000000E+00  0.00000000E+00  1.17616508E+00  0.00000000E+00
  0.00000000E+00  0.00000000E+00 -4.58762992E-01  0.00000000E+00  0.00000000E+00
  0.00000000E+00  0.00000000E+00  0.00000000E+00  0.00000000E+00  0.00000000E+00
  0.00000000E+00  0.00000000E+00  0.00000000E+00  1.84687389E-01  0.00000000E+00
  0.00000000E+00  0.00000000E+00 -2.89995179E-01  0.00000000E+00  0.00000000E+00
  0.00000000E+00  0.00000000E+00  0.00000000E+00  0.00000000E+00  4.38076029E-01
  0.00000000E+00  0.00000000E+00  0.00000000E+00  1.84687389E-01  0.00000000E+00
  0.00000000E+00  0.00000000E+00 -2.89995179E-01  0.00000000E+00  0.00000000E+00
  0.00000000E+00  0.00000000E+00  0.00000000E+00  0.00000000E+00 -4.38076029E-01
  0.00000000E+00  0.00000000E+00  0.00000000E+00 -2.35236200E-01  0.00000000E+00
  0.00000000E+00  0.00000000E+00  1.69231098E+00  0.00000000E+00  0.00000000E+00
  0.00000000E+00  0.00000000E+00  0.00000000E+00  0.00000000E+00  0.00000000E+00
  0.00000000E+00  0.00000000E+00  0.00000000E+00  4.21634870E-01  0.00000000E+00
  0.00000000E+00  0.00000000E+00 -1.19487369E+00  0.00000000E+00  0.00000000E+00
  0.00000000E+00  0.00000000E+00  0.00000000E+00  0.00000000E+00  2.33167001E-01
  0.00000000E+00  0.00000000E+00  0.00000000E+00  4.21634870E-01  0.00000000E+00
  0.00000000E+00  0.00000000E+00 -1.19487369E+00  0.00000000E+00  0.00000000E+00
  0.00000000E+00  0.00000000E+00  0.00000000E+00  0.00000000E+00 -2.33167001E-01
  0.00000000E+00  0.00000000E+00  2.91751569E-01  0.00000000E+00  0.00000000E+00
  0.00000000E+00  3.53045195E-01  0.00000000E+00  0.00000000E+00  0.00000000E+00
  0.00000000E+00  0.00000000E+00  0.00000000E+00  0.00000000E+00  0.00000000E+00
  0.00000000E+00  0.00000000E+00  1.43735243E-01  0.00000000E+00  0.00000000E+00
  0.00000000E+00  2.52442888E-01  0.00000000E+00  0.00000000E+00  0.00000000E+00
  0.00000000E+00  0.00000000E+00  0.00000000E+00 -1.00281304E-01  0.00000000E+00
  0.00000000E+00  0.00000000E+00  1.43735243E-01  0.00000000E+00  0.00000000E+00
  0.00000000E+00  2.52442888E-01  0.00000000E+00  0.00000000E+00  0.00000000E+00
  0.00000000E+00  0.00000000E+00  0.00000000E+00  1.00281304E-01  0.00000000E+00
  0.00000000E+00  0.00000000E+00 -3.41881369E-01  0.00000000E+00  0.00000000E+00
  0.00000000E+00 -2.78718704E-02  0.00000000E+00  0.00000000E+00  0.00000000E+00
  0.00000000E+00  0.00000000E+00  0.00000000E+00  0.00000000E+00  0.00000000E+00
  0.00000000E+00  0.00000000E+00  3.19292772E-01  0.00000000E+00  0.00000000E+00
  0.00000000E+00  2.14771560E-01  0.00000000E+00  0.00000000E+00  0.00000000E+00
  0.00000000E+00  0.00000000E+00  0.00000000E+00  4.51918225E-01  0.00000000E+00
  0.00000000E+00  0.00000000E+00  3.19292772E-01  0.00000000E+00  0.00000000E+00
  0.00000000E+00  2.14771560E-01  0.00000000E+00  0.00000000E+00  0.00000000E+00
  0.00000000E+00  0.00000000E+00  0.00000000E+00 -4.51918225E-01  0.00000000E+00
  0.00000000E+00  0.00000000E+00 -1.19916734E-01  0.00000000E+00  0.00000000E+00
  0.00000000E+00 -4.22538108E-01  0.00000000E+00  0.00000000E+00  0.00000000E+00
  0.00000000E+00  0.00000000E+00  0.00000000E+00  0.00000000E+00  0.00000000E+00
  0.00000000E+00  0.00000000E+00  6.15017332E-01  0.00000000E+00  0.00000000E+00
  0.00000000E+00 -1.52446835E-01  0.00000000E+00  0.00000000E+00  0.00000000E+00
  0.00000000E+00  0.00000000E+00  0.00000000E+00 -4.20466461E-01  0.00000000E+00
  0.00000000E+00  0.00000000E+00  6.15017332E-01  0.00000000E+00  0.00000000E+00
  0.00000000E+00 -1.52446835E-01  0.00000000E+00  0.00000000E+00  0.00000000E+00
  0.00000000E+00  0.00000000E+00  0.00000000E+00  4.20466461E-01  0.00000000E+00
  0.00000000E+00  0.00000000E+00  1.17616508E+00  0.00000000E+00  0.00000000E+00
  0.00000000E+00 -4.58762992E-01  0.00000000E+00  0.00000000E+00  0.00000000E+00
  0.00000000E+00  0.00000000E+00  0.00000000E+00  0.00000000E+00  0.00000000E+00
  0.00000000E+00  0.00000000E+00  1.84687389E-01  0.00000000E+00  0.00000000E+00
  0.00000000E+00 -2.89995179E-01  0.00000000E+00  0.00000000E+00  0.00000000E+00
  0.00000000E+00  0.00000000E+00  0.00000000E+00  4.38076029E-01  0.00000000E+00
  0.00000000E+00  0.00000000E+00  1.84687389E-01  0.00000000E+00  0.00000000E+00
  0.00000000E+00 -2.89995179E-01  0.00000000E+00  0.00000000E+00  0.00000000E+00
  0.00000000E+00  0.00000000E+00  0.00000000E+00 -4.38076029E-01  0.00000000E+00
  0.00000000E+00  0.00000000E+00 -2.35236200E-01  0.00000000E+00  0.00000000E+00
  0.00000000E+00  1.69231098E+00  0.00000000E+00  0.00000000E+00  0.00000000E+00
  0.00000000E+00  0.00000000E+00  0.00000000E+00  0.00000000E+00  0.00000000E+00
  0.00000000E+00  0.00000000E+00  4.21634870E-01  0.00000000E+00  0.00000000E+00
  0.00000000E+00 -1.19487369E+00  0.00000000E+00  0.00000000E+00  0.00000000E+00
  0.00000000E+00  0.00000000E+00  0.00000000E+00  2.33167001E-01  0.00000000E+00
  0.00000000E+00  0.00000000E+00  4.21634870E-01  0.00000000E+00  0.00000000E+00
  0.00000000E+00 -1.19487369E+00  0.00000000E+00  0.00000000E+00  0.00000000E+00
  0.00000000E+00  0.00000000E+00  0.00000000E+00 -2.33167001E-01  0.00000000E+00
Total SCF Density                          R   N=        1035
  2.05706392E+00 -8.15307715E-02  3.85810779E-01  0.00000000E+00  0.00000000E+00
  3.22539805E-01  0.00000000E+00  0.00000000E+00  0.00000000E+00  3.22539805E-01
  0.00000000E+00  0.00000000E+00  2.30391698E-18  2.30391698E-18  4.73043083E-01
 -6.52451212E-02  1.43413267E-01  0.00000000E+00  0.00000000E+00  0.00000000E+00
  7.53336646E-02  0.00000000E+00  0.00000000E+00  1.27195052E-01  0.00000000E+00
 -2.14304833E-18  0.00000000E+00  5.01599525E-02  0.00000000E+00  0.00000000E+00
  0.00000000E+00  1.27195052E-01 -2.14304833E-18  0.00000000E+00  0.00000000E+00
  5.01599525E-02  0.00000000E+00  0.00000000E+00 -2.14304833E-18 -2.14304833E-18
 -1.27994889E-02  0.00000000E+00 -7.54888245E-19 -7.54888245E-19  8.46909984E-04
 -8.15604233E-03 -2.65364283E-02  0.00000000E+00  0.00000000E+00  0.00000000E+00
 -6.91279676E-03  0.00000000E+00  0.00000000E+00  0.00000000E+00  2.26308081E-03
 -8.15604233E-03 -2.65364283E-02  0.00000000E+00  0.00000000E+00  0.00000000E+00
 -6.91279676E-03  0.00000000E+00  0.00000000E+00  0.00000000E+00  2.26308081E-03
  2.26308081E-03 -1.58669807E-02  3.19149575E-03  0.00000000E+00  0.00000000E+00
  0.00000000E+00 -6.38064132E-03  0.00000000E+00  0.00000000E+00  0.00000000E+00
 -1.11575559E-03 -1.11575559E-03  3.05309593E-03  0.00000000E+00  0.00000000E+00
  0.00000000E+00  0.00000000E+00  0.00000000E+00  0.00000000E+00  0.00000000E+00
  0.00000000E+00  0.00000000E+00  0.00000000E+00  0.00000000E+00  0.00000000E+00
  2.49733502E-35 -1.36300505E-19  5.25478335E-19  0.00000000E+00  0.00000000E+00
  0.00000000E+00  9.40651473E-21  0.00000000E+00  0.00000000E+00  0.00000000E+00
  1.16877224E-19 -5.97251704E-20 -1.02912716E-19  1.01961440E-19  6.66062672E-03
 -1.36300505E-19  5.25478335E-19  0.00000000E+00  0.00000000E+00  0.00000000E+00
  9.40651473E-21  0.00000000E+00  0.00000000E+00  0.00000000E+00 -5.97251704E-20
  1.16877224E-19 -1.02912716E-19  1.01961440E-19  0.00000000E+00  6.66062672E-03
  1.58286066E-02 -2.14460923E-02 -7.47486928E-19 -7.47486928E-19 -4.88295518E-02
  1.78862338E-02 -6.97997240E-20 -6.97997240E-20 -4.55966400E-03  5.61660691E-03
  5.61660691E-03 -1.71621691E-02  0.00000000E+00 -4.02643429E-19 -4.02643429E-19
  2.07852284E+00 -3.37476307E-02  4.24203022E-02  1.66804579E-18  1.66804579E-18
  1.08965020E-01 -5.77225252E-02 -1.96558735E-19 -1.96558735E-19 -1.28401910E-02
 -1.21189332E-02 -1.21189332E-02  2.75398936E-02  0.00000000E+00  7.01019496E-19
  7.01019496E-19 -1.86103701E-01  5.21367920E-01  1.98592286E-18 -4.34863115E-18
  2.82598629E-01  0.00000000E+00 -9.89663902E-18 -2.07341498E-18  1.11444066E-01
  0.00000000E+00 -1.63164818E-18  1.68214569E-18  2.36131770E-19 -1.32827893E-18
  8.34856527E-19  5.45369671E-02  0.00000000E+00 -7.70555410E-19  1.61188153E-18
  6.94150186E-01  1.98592286E-18 -4.34863115E-18  0.00000000E+00  2.82598629E-01
 -9.89663902E-18 -2.07341498E-18  0.00000000E+00  1.11444066E-01 -1.63164818E-18
  2.36131770E-19  1.68214569E-18 -1.32827893E-18  8.34856527E-19  0.00000000E+00
  5.45369671E-02 -7.70555410E-19  1.61188153E-18  0.00000000E+00  6.94150186E-01
  1.29730326E-01 -2.84074145E-01 -9.89663902E-18 -9.89663902E-18 -3.63898894E-01
 -1.35445745E-01 -1.63164818E-18 -1.63164818E-18  4.85671820E-03  1.54252978E-02
  1.54252978E-02  7.69103304E-03  0.00000000E+00 -9.71569356E-19 -9.71569356E-19
 -5.03364993E-02  1.05296092E-01 -1.54073992E-18 -1.54073992E-18  5.93501417E-01
  3.08085616E-03 -5.58715181E-02 -3.62129297E-19 -3.62129297E-19 -2.36560809E-02
 -1.09347331E-01 -1.63956131E-19 -1.63956131E-19 -1.07104272E-02 -7.36038848E-03
 -7.36038848E-03  3.21499964E-02  0.00000000E+00  6.98395597E-19  6.98395597E-19
 -2.23965329E-01  5.67629540E-01  4.88932436E-18  4.88932436E-18  3.19394906E-01
  6.92572310E-01  1.06348671E-18 -2.16004596E-18  1.54737079E-01  0.00000000E+00
 -4.55577550E-18 -1.06976959E-18  6.10212771E-02  0.00000000E+00 -9.21867444E-19
  1.11530750E-18  1.11850929E-19 -9.31186842E-19  5.79345920E-19  3.78457475E-02
  0.00000000E+00 -6.59527934E-19  1.29277737E-18  4.45455064E-01  0.00000000E+00
 -2.57968256E-18  2.82170822E-18  2.89274361E-01  1.06348671E-18 -2.16004596E-18
  0.00000000E+00  1.54737079E-01 -4.55577550E-18 -1.06976959E-18  0.00000000E+00
  6.10212771E-02 -9.21867444E-19  1.11850929E-19  1.11530750E-18 -9.31186842E-19
  5.79345920E-19  0.00000000E+00  3.78457475E-02 -6.59527934E-19  1.29277737E-18
  0.00000000E+00  4.45455064E-01 -2.57968256E-18  2.82170822E-18  0.00000000E+00
  2.89274361E-01  6.94722240E-02 -1.41104910E-01 -4.55577550E-18 -4.55577550E-18
 -1.42868762E-01 -6.98826527E-02 -9.21867444E-19 -9.21867444E-19  8.00325551E-04
  7.30665715E-03  7.30665715E-03  4.72101677E-03  0.00000000E+00 -6.25050356E-19
 -6.25050356E-19 -4.30836342E-02  8.44506264E-02 -2.57968256E-18 -2.57968256E-18
  2.76937410E-01  1.84327969E-01 -2.39267459E-18 -2.39267459E-18  1.32972995E-01
  3.81344128E-03 -6.29265610E-03 -6.92573222E-19 -7.86412067E-20 -5.13723348E-03
 -1.55793699E-03 -2.37600596E-19  4.50631162E-21  2.94374614E-04  5.13262129E-04
  5.13262129E-04 -3.13483357E-04  0.00000000E+00 -8.30142736E-20 -1.46137632E-20
 -1.39742423E-02 -6.55277192E-03 -9.93079850E-19  1.04887793E-19  6.85179064E-03
 -4.12754803E-03 -6.39746076E-19  4.34375413E-20  2.83755554E-03  3.42483875E-04
  3.81344128E-03 -6.29265610E-03 -7.86412067E-20 -6.92573222E-19 -5.13723348E-03
 -1.55793699E-03  4.50631162E-21 -2.37600596E-19  2.94374614E-04  5.13262129E-04
  5.13262129E-04 -3.13483357E-04  0.00000000E+00 -1.46137632E-20 -8.30142736E-20
 -1.39742423E-02 -6.55277192E-03  1.04887793E-19 -9.93079850E-19  6.85179064E-03
 -4.12754803E-03  4.34375413E-20 -6.39746076E-19  2.83755554E-03  3.42483875E-04
  3.42483875E-04 -1.46316649E-02  2.81762588E-02  9.49084242E-19  9.49084242E-19
  2.18938049E-02  1.37022991E-02  2.39334980E-19  2.39334980E-19 -1.81076040E-04
 -1.49366360E-03 -1.49366360E-03 -7.90445756E-04  0.00000000E+00  8.08307677E-20
  8.08307677E-20 -9.88905239E-03 -1.05309797E-02  3.92930782E-19  3.92930782E-19
 -4.60565029E-02 -2.71587063E-02  3.46731120E-19  3.46731120E-19 -2.19787451E-02
 -4.22935954E-04 -4.22935954E-04  3.91405360E-03  0.00000000E+00  0.00000000E+00
 -3.54453814E-19 -3.54453814E-19  0.00000000E+00  0.00000000E+00 -1.39780488E-19
 -1.39780488E-19  0.00000000E+00  0.00000000E+00  0.00000000E+00  0.00000000E+00
 -9.67251836E-36 -3.94910531E-20 -3.94910531E-20  0.00000000E+00  0.00000000E+00
 -6.33911914E-19 -6.33911914E-19  0.00000000E+00  0.00000000E+00 -3.94436245E-19
 -3.94436245E-19  0.00000000E+00  0.00000000E+00  0.00000000E+00  0.00000000E+00
  9.97870736E-36 -3.26040381E-19  6.09281294E-19 -2.31546803E-02  0.00000000E+00
  8.32261314E-19  2.69743808E-19 -9.13115445E-03  0.00000000E+00  1.31376302E-19
 -1.03875439E-19 -3.54749289E-20  5.99696019E-20 -3.94910531E-20 -2.57975136E-03
  0.00000000E+00  7.22108549E-20 -7.03198110E-20 -4.14102688E-02  0.00000000E+00
 -3.01308520E-19 -4.07104604E-19 -2.57665309E-02  0.00000000E+00 -4.42229868E-20
  5.70360117E-20 -1.35297553E-20  6.09596186E-21  4.07411646E-20  2.66141484E-03
 -3.26040381E-19  6.09281294E-19  0.00000000E+00 -2.31546803E-02  8.32261314E-19
  2.69743808E-19  0.00000000E+00 -9.13115445E-03  1.31376302E-19 -3.54749289E-20
 -1.03875439E-19  5.99696019E-20 -3.94910531E-20  0.00000000E+00 -2.57975136E-03
  7.22108549E-20 -7.03198110E-20  0.00000000E+00 -4.14102688E-02 -3.01308520E-19
 -4.07104604E-19  0.00000000E+00 -2.57665309E-02 -4.42229868E-20 -1.35297553E-20
  5.70360117E-20  6.09596186E-21  4.07411646E-20  0.00000000E+00  2.66141484E-03
  1.58286066E-02 -2.14460923E-02  7.47486928E-19  7.47486928E-19  4.88295518E-02
  1.78862338E-02  6.97997240E-20  6.97997240E-20  4.55966400E-03  5.61660691E-03
  5.61660691E-03 -1.71621691E-02  0.00000000E+00 -4.02643429E-19 -4.02643429E-19
  1.56325984E-03  8.69499024E-04 -1.82970137E-19 -1.82970137E-19 -1.19525164E-02
 -2.20326462E-02  1.64155449E-20  1.64155449E-20  1.07234477E-03  8.86897958E-04
  8.86897958E-04  4.04881150E-03  0.00000000E+00  5.58907868E-20  5.58907868E-20
  2.07852284E+00 -3.37476307E-02  4.24203022E-02 -1.66804579E-18 -1.66804579E-18
 -1.08965020E-01 -5.77225252E-02  1.96558735E-19  1.96558735E-19  1.28401910E-02
 -1.21189332E-02 -1.21189332E-02  2.75398936E-02  0.00000000E+00  7.01019496E-19
  7.01019496E-19  8.69499024E-04 -1.44443565E-03  4.32697539E-19  4.32697539E-19
  2.82659483E-02  3.25017096E-02 -1.30935868E-20 -1.30935868E-20 -8.55337998E-04
 -5.70749793E-04 -5.70749793E-04 -4.31078075E-03  0.00000000E+00 -6.61097370E-20
 -6.61097370E-20 -1.86103701E-01  5.21367920E-01 -1.98592286E-18  4.34863115E-18
  2.82598629E-01  0.00000000E+00 -9.89663902E-18  2.07341498E-18  1.11444066E-01
  0.00000000E+00 -1.63164818E-18 -1.68214569E-18 -2.36131770E-19  1.32827893E-18
 -8.34856527E-19 -5.45369671E-02  0.00000000E+00  1.82970137E-19 -4.32697539E-19
 -1.98943183E-01  0.00000000E+00  4.47592170E-18 -1.18049731E-21 -1.74304119E-01
  0.00000000E+00  2.99599666E-18  1.33183584E-20 -8.83573596E-21  4.12631820E-20
  1.27906724E-20  8.35550127E-04  0.00000000E+00  7.70555410E-19 -1.61188153E-18
  6.94150186E-01 -1.98592286E-18  4.34863115E-18  0.00000000E+00  2.82598629E-01
 -9.89663902E-18  2.07341498E-18  0.00000000E+00  1.11444066E-01 -1.63164818E-18
 -2.36131770E-19 -1.68214569E-18  1.32827893E-18 -8.34856527E-19  0.00000000E+00
 -5.45369671E-02  1.82970137E-19 -4.32697539E-19  0.00000000E+00 -1.98943183E-01
  4.47592170E-18 -1.18049731E-21  0.00000000E+00 -1.74304119E-01  2.99599666E-18
 -8.83573596E-21  1.33183584E-20  4.12631820E-20  1.27906724E-20  0.00000000E+00
  8.35550127E-04  7.70555410E-19 -1.61188153E-18  0.00000000E+00  6.94150186E-01
 -1.29730326E-01  2.84074145E-01 -9.89663902E-18 -9.89663902E-18 -3.63898894E-01
  1.35445745E-01 -1.63164818E-18 -1.63164818E-18  4.85671820E-03 -1.54252978E-02
 -1.54252978E-02 -7.69103304E-03  0.00000000E+00  9.71569356E-19  9.71569356E-19
  1.19525164E-02 -2.82659483E-02  4.47592170E-18  4.47592170E-18  9.34462116E-02
 -7.71159365E-05  2.99599666E-18  2.99599666E-18  2.14092347E-02 -5.77194075E-04
 -5.77194075E-04  4.14273088E-03  0.00000000E+00  7.06399199E-20  7.06399199E-20
  5.03364993E-02 -1.05296092E-01 -1.54073992E-18 -1.54073992E-18  5.93501417E-01
  3.08085616E-03 -5.58715181E-02  3.62129297E-19  3.62129297E-19  2.36560809E-02
 -1.09347331E-01  1.63956131E-19  1.63956131E-19  1.07104272E-02 -7.36038848E-03
 -7.36038848E-03  3.21499964E-02  0.00000000E+00  6.98395597E-19  6.98395597E-19
 -2.20326462E-02  3.25017096E-02  1.18049731E-21  1.18049731E-21  7.71159365E-05
  5.92223306E-02 -7.25258146E-20 -7.25258146E-20 -4.73774575E-03 -6.07990749E-04
 -6.07990749E-04 -6.25541553E-03  0.00000000E+00 -9.98253147E-20 -9.98253147E-20
 -2.23965329E-01  5.67629540E-01 -4.88932436E-18 -4.88932436E-18 -3.19394906E-01
  6.92572310E-01 -1.06348671E-18  2.16004596E-18  1.54737079E-01  0.00000000E+00
 -4.55577550E-18  1.06976959E-18  6.10212771E-02  0.00000000E+00 -9.21867444E-19
 -1.11530750E-18 -1.11850929E-19  9.31186842E-19 -5.79345920E-19 -3.78457475E-02
  0.00000000E+00 -1.64155449E-20  1.30935868E-20 -1.74304119E-01  0.00000000E+00
  2.99599666E-18  7.25258146E-20 -1.40805470E-01  0.00000000E+00  2.18410331E-18
  8.32447827E-20 -1.08763668E-20 -3.75145956E-20  5.43408710E-20  3.54981508E-03
  0.00000000E+00  6.59527934E-19 -1.29277737E-18  4.45455064E-01  0.00000000E+00
 -2.57968256E-18 -2.82170822E-18  2.89274361E-01 -1.06348671E-18  2.16004596E-18
  0.00000000E+00  1.54737079E-01 -4.55577550E-18  1.06976959E-18  0.00000000E+00
  6.10212771E-02 -9.21867444E-19 -1.11850929E-19 -1.11530750E-18  9.31186842E-19
 -5.79345920E-19  0.00000000E+00 -3.78457475E-02 -1.64155449E-20  1.30935868E-20
  0.00000000E+00 -1.74304119E-01  2.99599666E-18  7.25258146E-20  0.00000000E+00
 -1.40805470E-01  2.18410331E-18 -1.08763668E-20  8.32447827E-20 -3.75145956E-20
  5.43408710E-20  0.00000000E+00  3.54981508E-03  6.59527934E-19 -1.29277737E-18
  0.00000000E+00  4.45455064E-01 -2.57968256E-18 -2.82170822E-18  0.00000000E+00
  2.89274361E-01 -6.94722240E-02  1.41104910E-01 -4.55577550E-18 -4.55577550E-18
 -1.42868762E-01  6.98826527E-02 -9.21867444E-19 -9.21867444E-19  8.00325551E-04
 -7.30665715E-03 -7.30665715E-03 -4.72101677E-03  0.00000000E+00  6.25050356E-19
  6.25050356E-19 -1.07234477E-03  8.55337998E-04  2.99599666E-18  2.99599666E-18
  2.14092347E-02  4.73774575E-03  2.18410331E-18  2.18410331E-18  1.87098566E-03
 -7.10498197E-04 -7.10498197E-04  3.69782072E-03  0.00000000E+00  2.35816938E-20
  2.35816938E-20  4.30836342E-02 -8.44506264E-02 -2.57968256E-18 -2.57968256E-18
  2.76937410E-01 -1.84327969E-01 -2.39267459E-18 -2.39267459E-18  1.32972995E-01
  3.81344128E-03 -6.29265610E-03  6.92573222E-19  7.86412067E-20  5.13723348E-03
 -1.55793699E-03  2.37600596E-19 -4.50631162E-21 -2.94374614E-04  5.13262129E-04
  5.13262129E-04 -3.13483357E-04  0.00000000E+00 -8.30142736E-20 -1.46137632E-20
  8.86897958E-04 -5.70749793E-04 -1.33183584E-20  8.83573596E-21  5.77194075E-04
 -6.07990749E-04 -8.32447827E-20  1.08763668E-20  7.10498197E-04  5.63808414E-05
  5.63808414E-05 -2.01169200E-04  0.00000000E+00 -2.21333901E-20 -4.55251994E-21
 -1.39742423E-02 -6.55277192E-03  9.93079850E-19 -1.04887793E-19 -6.85179064E-03
 -4.12754803E-03  6.39746076E-19 -4.34375413E-20 -2.83755554E-03  3.42483875E-04
  3.81344128E-03 -6.29265610E-03  7.86412067E-20  6.92573222E-19  5.13723348E-03
 -1.55793699E-03 -4.50631162E-21  2.37600596E-19 -2.94374614E-04  5.13262129E-04
  5.13262129E-04 -3.13483357E-04  0.00000000E+00 -1.46137632E-20 -8.30142736E-20
  8.86897958E-04 -5.70749793E-04  8.83573596E-21 -1.33183584E-20  5.77194075E-04
 -6.07990749E-04  1.08763668E-20 -8.32447827E-20  7.10498197E-04  5.63808414E-05
  5.63808414E-05 -2.01169200E-04  0.00000000E+00 -4.55251994E-21 -2.21333901E-20
 -1.39742423E-02 -6.55277192E-03 -1.04887793E-19  9.93079850E-19 -6.85179064E-03
 -4.12754803E-03 -4.34375413E-20  6.39746076E-19 -2.83755554E-03  3.42483875E-04
  3.42483875E-04 -1.46316649E-02  2.81762588E-02 -9.49084242E-19 -9.49084242E-19
 -2.18938049E-02  1.37022991E-02 -2.39334980E-19 -2.39334980E-19  1.81076040E-04
 -1.49366360E-03 -1.49366360E-03 -7.90445756E-04  0.00000000E+00  8.08307677E-20
  8.08307677E-20  4.04881150E-03 -4.31078075E-03 -4.12631820E-20 -4.12631820E-20
 -4.14273088E-03 -6.25541553E-03  3.75145956E-20  3.75145956E-20 -3.69782072E-03
 -2.01169200E-04 -2.01169200E-04  1.21145350E-03  0.00000000E+00  4.25507477E-20
  4.25507477E-20 -9.88905239E-03 -1.05309797E-02 -3.92930782E-19 -3.92930782E-19
  4.60565029E-02 -2.71587063E-02 -3.46731120E-19 -3.46731120E-19  2.19787451E-02
 -4.22935954E-04 -4.22935954E-04  3.91405360E-03  0.00000000E+00  0.00000000E+00
  3.54453814E-19  3.54453814E-19  0.00000000E+00  0.00000000E+00  1.39780488E-19
  1.39780488E-19  0.00000000E+00  0.00000000E+00  0.00000000E+00  0.00000000E+00
 -9.67251836E-36 -3.94910531E-20 -3.94910531E-20  0.00000000E+00  0.00000000E+00
 -1.27906724E-20 -1.27906724E-20  0.00000000E+00  0.00000000E+00 -5.43408710E-20
 -5.43408710E-20  0.00000000E+00  0.00000000E+00  0.00000000E+00  0.00000000E+00
 -2.48611141E-36 -1.01503201E-20 -1.01503201E-20  0.00000000E+00  0.00000000E+00
  6.33911914E-19  6.33911914E-19  0.00000000E+00  0.00000000E+00  3.94436245E-19
  3.94436245E-19  0.00000000E+00  0.00000000E+00  0.00000000E+00  0.00000000E+00
  9.97870736E-36 -3.26040381E-19  6.09281294E-19  2.31546803E-02  0.00000000E+00
 -8.32261314E-19  2.69743808E-19  9.13115445E-03  0.00000000E+00 -1.31376302E-19
 -1.03875439E-19 -3.54749289E-20  5.99696019E-20 -3.94910531E-20 -2.57975136E-03
  0.00000000E+00  5.58907868E-20 -6.61097370E-20 -8.35550127E-04  0.00000000E+00
 -7.06399199E-20 -9.98253147E-20 -3.54981508E-03  0.00000000E+00 -2.35816938E-20
 -2.21333901E-20 -4.55251994E-21  4.25507477E-20 -1.01503201E-20 -6.63069229E-04
  0.00000000E+00  7.22108549E-20 -7.03198110E-20  4.14102688E-02  0.00000000E+00
  3.01308520E-19 -4.07104604E-19  2.57665309E-02  0.00000000E+00  4.42229868E-20
  5.70360117E-20 -1.35297553E-20  6.09596186E-21  4.07411646E-20  2.66141484E-03
 -3.26040381E-19  6.09281294E-19  0.00000000E+00  2.31546803E-02 -8.32261314E-19
  2.69743808E-19  0.00000000E+00  9.13115445E-03 -1.31376302E-19 -3.54749289E-20
 -1.03875439E-19  5.99696019E-20 -3.94910531E-20  0.00000000E+00 -2.57975136E-03
  5.58907868E-20 -6.61097370E-20  0.00000000E+00 -8.35550127E-04 -7.06399199E-20
 -9.98253147E-20  0.00000000E+00 -3.54981508E-03 -2.35816938E-20 -4.55251994E-21
 -2.21333901E-20  4.25507477E-20 -1.01503201E-20  0.00000000E+00 -6.63069229E-04
  7.22108549E-20 -7.03198110E-20  0.00000000E+00  4.14102688E-02  3.01308520E-19
 -4.07104604E-19  0.00000000E+00  2.57665309E-02  4.42229868E-20 -1.35297553E-20
  5.70360117E-20  6.09596186E-21  4.07411646E-20  0.00000000E+00  2.66141484E-03
Grdnt Energy                               R     -1.885809394508325E+02
Grdnt NVar                                 I                4
Grdnt IGetFC                               I                4
Internal Forces                            R   N=           4
 -5.95962748E-06 -5.95962746E-06 -2.68871757E-15  6.97052984E-17
Internal Force Constants                   R   N=          10
  1.05973389E+00  7.96940065E-02  1.05973389E+00  6.28145133E-15 -6.83291150E-15
  1.65084515E-01 -8.55702795E-16  2.68696938E-16 -1.30245040E-31  1.65084515E-01
Mulliken Charges                           R   N=           3
  7.19474139E-01 -3.59737070E-01 -3.59737070E-01
Optimization MaxStp                        I                2
Optimization MaxJob                        I                1
Optimization Job offset                    I                0
Optimization Num results per geometry      I                2
Optimization Num geometry variables        I                9
Optimization Reference Energy              R     -1.880000000000000E+02
Opt point       1 Results for each geome   R   N=           2
 -5.80939451E-01  0.00000000E+00
Opt point       1 Geometries               R   N=           9
  0.00000000E+00  0.00000000E+00 -0.00000000E+00  0.00000000E+00  0.00000000E+00
  2.20939580E+00  2.63677968E-16  0.00000000E+00 -2.20939580E+00
Opt point       1 Gradient at each geome   R   N=           9
 -2.43389427E-15 -6.30989687E-17 -1.78751361E-14 -2.04727642E-17 -1.52781369E-16
  5.95962748E-06  2.45436703E-15  2.15880338E-16 -5.95962746E-06
Optimization Number of geometries          I   N=           1
           1
ONIOM Charges                              I   N=          16
           0           0           0           0           0           0
           0           0           0           0           0           0
           0           0           0           0
ONIOM Multiplicities                       I   N=          16
           1           0           0           0           0           0
           0           0           0           0           0           0
           0           0           0           0
Atom Layers                                I   N=           3
           1           1           1
Atom Modifiers                             I   N=           3
           0           0           0
Int Atom Modified Types                    I   N=           3
           0           0           0
Force Field                                I                0
Atom Modified Types                        C   N=           3
                                    
Link Atoms                                 I   N=           3
           0           0           0
Atom Modified MM Charges                   R   N=           3
  0.00000000E+00  0.00000000E+00  0.00000000E+00
Link Distances                             R   N=          12
  0.00000000E+00  0.00000000E+00  0.00000000E+00  0.00000000E+00  0.00000000E+00
  0.00000000E+00  0.00000000E+00  0.00000000E+00  0.00000000E+00  0.00000000E+00
  0.00000000E+00  0.00000000E+00
Cartesian Gradient                         R   N=           9
 -2.43389427E-15 -6.30989687E-17 -1.78751361E-14 -2.04727642E-17 -1.52781369E-16
  5.95962748E-06  2.45436703E-15  2.15880338E-16 -5.95962746E-06
Cartesian Force Constants                  R   N=          45
  1.35280936E-01  7.31230128E-32  1.35280936E-01  4.14606618E-15  1.01528234E-15
  1.96007976E+00 -6.76404681E-02 -1.45807431E-31 -1.36301435E-15  3.38210735E-02
 -1.49059394E-31 -6.76404681E-02 -7.61909442E-16  1.38572352E-31  3.38210735E-02
 -1.29568037E-14 -7.61909442E-16 -9.80039882E-01  1.60986635E-16  7.92102270E-16
  1.05973389E+00 -6.76404681E-02  3.43856299E-32 -2.36171863E-15  3.38193946E-02
 -1.28568417E-33  1.28209885E-14  3.38210735E-02  3.34946045E-32 -6.76404681E-02
 -2.54683721E-16 -7.27448100E-33  3.38193946E-02 -2.86039752E-17 -2.29745055E-32
  3.38210735E-02 -1.46814875E-14 -2.59718820E-16 -9.80039882E-01  1.31228102E-14
 -2.72218271E-17 -7.96940065E-02  1.11217256E-15  2.86662619E-16  1.05973389E+00
Nonadiabatic coupling                      R   N=           9
  0.00000000E+00  0.00000000E+00 -0.00000000E+00  0.00000000E+00  0.00000000E+00
 -0.00000000E+00  0.00000000E+00  0.00000000E+00 -0.00000000E+00
Dipole Moment                              R   N=           3
 -1.14243114E-16  2.11095379E-34  5.68700468E-16
Dipole Derivatives                         R   N=          27
  5.24369092E-01 -9.46760948E-35 -1.28733539E-15 -8.79118143E-34  5.24369092E-01
  3.83628289E-17  1.39788321E-15  3.24059868E-18  2.21037438E+00 -2.62184546E-01
 -2.16517825E-35  4.29553800E-16 -1.41697996E-34 -2.62184546E-01 -1.91814144E-17
  3.72620999E-14 -1.62029934E-18 -1.10518719E+00 -2.62184546E-01  1.16327877E-34
 -2.27463612E-16  1.02081614E-33 -2.62184546E-01 -1.91814144E-17  3.62689929E-14
 -1.62029934E-18 -1.10518719E+00
Polarizability                             R   N=           6
  7.68854024E+00  0.00000000E+00  7.68854024E+00 -2.89217378E-16  0.00000000E+00
  2.20754545E+01
Quadrupole Moment                          R   N=           6
  1.10618058E+00  1.10618058E+00 -2.21236116E+00  1.28702162E-33  2.39599580E-16
  8.48817885E-18
QEq coupling tensors                       R   N=          18
 -1.66849245E-01  0.00000000E+00 -1.66849245E-01  6.64201039E-17  0.00000000E+00
  3.33698489E-01  3.91244499E-01  0.00000000E+00  3.91244499E-01  2.23791795E-19
  0.00000000E+00 -7.82488997E-01  3.91244499E-01  0.00000000E+00  3.91244499E-01
 -3.13272739E-16  0.00000000E+00 -7.82488997E-01
Number of Normal Modes                     I                4
Vib-LE2Fix                                 I               14
Vib-NDFDPol                                I                0
Vib-NumROA                                 I                0
Vib-NDim                                   I                3
Vib-NDim0                                  I                3
Vib-LFlags                                 I                8
Vib-IFlags                                 I   N=          32
           0           0           1           0           0           0
           0           0           0           0           2           0
           0           0           0           0           0           0
           3           0           0           0           0           0
           0           0           4           0           0           0
           0           0
Vib-AtMass                                 R   N=           3
  1.20000000E+01  1.59949146E+01  1.59949146E+01
Vib-E2                                     R   N=          56
  6.40032653E+02  6.40032653E+02  1.37200830E+03  2.43624356E+03  1.28773677E+01
  1.28773677E+01  1.59949146E+01  1.28773677E+01  3.10800395E+00  3.10800395E+00
  1.77396728E+01  4.50317378E+01  3.07174053E+01  3.07174053E+01  8.25578728E-25
  5.45810686E+02  0.00000000E+00  0.00000000E+00  0.00000000E+00  0.00000000E+00
  0.00000000E+00  0.00000000E+00  0.00000000E+00  0.00000000E+00  0.00000000E+00
  0.00000000E+00  0.00000000E+00  0.00000000E+00  0.00000000E+00  0.00000000E+00
  0.00000000E+00  0.00000000E+00  0.00000000E+00  0.00000000E+00  0.00000000E+00
  0.00000000E+00  1.00000000E+02  1.00000000E+02  1.00000000E+02  1.00000000E+02
  0.00000000E+00  0.00000000E+00  0.00000000E+00  0.00000000E+00  0.00000000E+00
  0.00000000E+00  0.00000000E+00  0.00000000E+00  0.00000000E+00  0.00000000E+00
  0.00000000E+00  0.00000000E+00  0.00000000E+00  0.00000000E+00  0.00000000E+00
  0.00000000E+00
Vib-Modes                                  R   N=          36
  8.83390548E-01 -1.79366905E-05 -5.05286573E-15 -3.31376779E-01  6.72839745E-06
  8.08010196E-16 -3.31376779E-01  6.72839745E-06  2.98284397E-15  1.79366905E-05
  8.83390548E-01 -4.96646606E-16 -6.72839745E-06 -3.31376779E-01  5.28783162E-16
 -6.72839745E-06 -3.31376779E-01 -1.56179781E-16  1.68739156E-15 -5.31480891E-16
  7.46586308E-14 -6.75167465E-16  1.99368700E-16  7.07106781E-01 -5.90778566E-16
  1.99368700E-16 -7.07106781E-01  5.05325491E-15  4.93957566E-16  8.83390548E-01
 -1.91534698E-15 -1.85292980E-16 -3.31376779E-01 -1.87579917E-15 -1.85292980E-16
 -3.31376779E-01
ClPar MaxAn                                I              200
ClPar NIntPar                              I                4
ClPar NRealPar                             I               16
ClPar NBits                                I               30
ClPar LenBitVec                            I                1
ClPar Read BitMap                          I   N=         200
           0           0           0           0           0           0
           0           0           0           0           0           0
           0           0           0           0           0           0
           0           0           0           0           0           0
           0           0           0           0           0           0
           0           0           0           0           0           0
           0           0           0           0           0           0
           0           0           0           0           0           0
           0           0           0           0           0           0
           0           0           0           0           0           0
           0           0           0           0           0           0
           0           0           0           0           0           0
           0           0           0           0           0           0
           0           0           0           0           0           0
           0           0           0           0           0           0
           0           0           0           0           0           0
           0           0           0           0           0           0
           0           0           0           0           0           0
           0           0           0           0           0           0
           0           0           0           0           0           0
           0           0           0           0           0           0
           0           0           0           0           0           0
           0           0           0           0           0           0
           0           0           0           0           0           0
           0           0           0           0           0           0
           0           0           0           0           0           0
           0           0           0           0           0           0
           0           0           0           0           0           0
           0           0           0           0           0           0
           0           0           0           0           0           0
           0           0           0           0           0           0
           0           0           0           0           0           0
           0           0           0           0           0           0
           0           0
ClPar Default BitMap                       I   N=         200
        2016        2016        2016        2016        2016        2016
        2016        2016        2016        2016        2016        2016
        2016        2016        2016        2016        2016        2016
        2016        2016        2016        2016        2016        2016
        2016        2016        2016        2016        2016        2016
        2016        2016        2016        2016        2016        2016
        2016        2016        2016        2016        2016        2016
        2016        2016        2016        2016        2016        2016
        2016        2016        2016        2016        2016        2016
        2016        2016        2016        2016        2016        2016
        2016        2016        2016        2016        2016        2016
        2016        2016        2016        2016        2016        2016
        2016        2016        2016        2016        2016        2016
        2016        2016        2016        2016        2016        2016
        2016        2016         480         480         480         480
         480         480         480         480         480         480
         480         480         480         480         480         480
         480         480         480         480         480         480
         480         480         480         480         480         480
         480         480         480         480         480         480
         480         480         480         480         480         480
         480         480         480         480         480         480
         480         480         480         480         480         480
         480         480         480         480         480         480
         480         480         480         480         480         480
         480         480         480         480         480         480
         480         480         480         480         480         480
         480         480         480         480         480         480
         480         480         480         480         480         480
         480         480         480         480         480         480
         480         480         480         480         480         480
         480         480         480         480         480         480
         480         480         480         480         480         480
         480         480
ClPar Int Params                           I   N=         800
           0           0           0           0           0           0
           0           0           0           0           0           0
           0           0           0           0           0           0
           0           0           0           0           0           0
           0           0           0           0           0           0
           0           0           0           0           0           0
           0           0           0           0           0           0
           0           0           0           0           0           0
           0           0           0           0           0           0
           0           0           0           0           0           0
           0           0           0           0           0           0
           0           0           0           0           0           0
           0           0           0           0           0           0
           0           0           0           0           0           0
           0           0           0           0           0           0
           0           0           0           0           0           0
           0           0           0           0           0           0
           0           0           0           0           0           0
           0           0           0           0           0           0
           0           0           0           0           0           0
           0           0           0           0           0           0
           0           0           0           0           0           0
           0           0           0           0           0           0
           0           0           0           0           0           0
           0           0           0           0           0           0
           0           0           0           0           0           0
           0           0           0           0           0           0
           0           0           0           0           0           0
           0           0           0           0           0           0
           0           0           0           0           0           0
           0           0           0           0           0           0
           0           0           0           0           0           0
           0           0           0           0           0           0
           0           0           0           0           0           0
           0           0           0           0           0           0
           0           0           0           0           0           0
           0           0           0           0           0           0
           0           0           0           0           0           0
           0           0           0           0           0           0
           0           0           0           0           0           0
           0           0           0           0           0           0
           0           0           0           0           0           0
           0           0           0           0           0           0
           0           0           0           0           0           0
           0           0           0           0           0           0
           0           0           0           0           0           0
           0           0           0           0           0           0
           0           0           0           0           0           0
           0           0           0           0           0           0
           0           0           0           0           0           0
           0           0           0           0           0           0
           0           0           0           0           0           0
           0           0           0           0           0           0
           0           0           0           0           0           0
           0           0           0           0           0           0
           0           0           0           0           0           0
           0           0           0           0           0           0
           0           0           0           0           0           0
           0           0           0           0           0           0
           0           0           0           0           0           0
           0           0           0           0           0           0
           0           0           0           0           0           0
           0           0           0           0           0           0
           0           0           0           0           0           0
           0           0           0           0           0           0
           0           0           0           0           0           0
           0           0           0           0           0           0
           0           0           0           0           0           0
           0           0           0           0           0           0
           0           0           0           0           0           0
           0           0           0           0           0           0
           0           0           0           0           0           0
           0           0           0           0           0           0
           0           0           0           0           0           0
           0           0           0           0           0           0
           0           0           0           0           0           0
           0           0           0           0           0           0
           0           0           0           0           0           0
           0           0           0           0           0           0
           0           0           0           0           0           0
           0           0           0           0           0           0
           0           0           0           0           0           0
           0           0           0           0           0           0
           0           0           0           0           0           0
           0           0           0           0           0           0
           0           0           0           0           0           0
           0           0           0           0           0           0
           0           0           0           0           0           0
           0           0           0           0           0           0
           0           0           0           0           0           0
           0           0           0           0           0           0
           0           0           0           0           0           0
           0           0           0           0           0           0
           0           0           0           0           0           0
           0           0           0           0           0           0
           0           0           0           0           0           0
           0           0           0           0           0           0
           0           0           0           0           0           0
           0           0           0           0           0           0
           0           0           0           0           0           0
           0           0           0           0           0           0
           0           0           0           0           0           0
           0           0           0           0           0           0
           0           0           0           0           0           0
           0           0           0           0           0           0
           0           0           0           0           0           0
           0           0           0           0           0           0
           0           0           0           0           0           0
           0           0           0           0           0           0
           0           0           0           0           0           0
           0           0           0           0           0           0
           0           0           0           0           0           0
           0           0           0           0           0           0
           0           0           0           0           0           0
           0           0           0           0           0           0
           0           0           0           0           0           0
           0           0           0           0           0           0
           0           0           0           0           0           0
           0           0           0           0           0           0
           0           0           0           0           0           0
           0           0           0           0           0           0
           0           0           0           0           0           0
           0           0           0           0           0           0
           0           0           0           0           0           0
           0           0           0           0           0           0
           0           0           0           0           0           0
           0           0           0           0           0           0
           0           0           0           0           0           0
           0           0           0           0           0           0
           0           0           0           0           0           0
           0           0           0           0           0           0
           0           0           0           0           0           0
           0           0           0           0           0           0
           0           0
ClPar Real Params                          R   N=        3200
  0.00000000E+00  0.00000000E+00  0.00000000E+00  0.00000000E+00  0.00000000E+00
  0.00000000E+00  0.00000000E+00  0.00000000E+00  0.00000000E+00  0.00000000E+00
  0.00000000E+00  0.00000000E+00  0.00000000E+00  0.00000000E+00  0.00000000E+00
  0.00000000E+00  0.00000000E+00  0.00000000E+00  0.00000000E+00  0.00000000E+00
  0.00000000E+00  0.00000000E+00  0.00000000E+00  0.00000000E+00  0.00000000E+00
  0.00000000E+00  0.00000000E+00  0.00000000E+00  0.00000000E+00  0.00000000E+00
  0.00000000E+00  0.00000000E+00  0.00000000E+00  0.00000000E+00  0.00000000E+00
  0.00000000E+00  0.00000000E+00  0.00000000E+00  0.00000000E+00  0.00000000E+00
  0.00000000E+00  0.00000000E+00  0.00000000E+00  0.00000000E+00  0.00000000E+00
  0.00000000E+00  0.00000000E+00  0.00000000E+00  0.00000000E+00  0.00000000E+00
  0.00000000E+00  0.00000000E+00  0.00000000E+00  0.00000000E+00  0.00000000E+00
  0.00000000E+00  0.00000000E+00  0.00000000E+00  0.00000000E+00  0.00000000E+00
  0.00000000E+00  0.00000000E+00  0.00000000E+00  0.00000000E+00  0.00000000E+00
  0.00000000E+00  0.00000000E+00  0.00000000E+00  0.00000000E+00  0.00000000E+00
  0.00000000E+00  0.00000000E+00  0.00000000E+00  0.00000000E+00  0.00000000E+00
  0.00000000E+00  0.00000000E+00  0.00000000E+00  0.00000000E+00  0.00000000E+00
  0.00000000E+00  0.00000000E+00  0.00000000E+00  0.00000000E+00  0.00000000E+00
  0.00000000E+00  0.00000000E+00  0.00000000E+00  0.00000000E+00  0.00000000E+00
  0.00000000E+00  0.00000000E+00  0.00000000E+00  0.00000000E+00  0.00000000E+00
  0.00000000E+00  0.00000000E+00  0.00000000E+00  0.00000000E+00  0.00000000E+00
  0.00000000E+00  0.00000000E+00  0.00000000E+00  0.00000000E+00  0.00000000E+00
  0.00000000E+00  0.00000000E+00  0.00000000E+00  0.00000000E+00  0.00000000E+00
  0.00000000E+00  0.00000000E+00  0.00000000E+00  0.00000000E+00  0.00000000E+00
  0.00000000E+00  0.00000000E+00  0.00000000E+00  0.00000000E+00  0.00000000E+00
  0.00000000E+00  0.00000000E+00  0.00000000E+00  0.00000000E+00  0.00000000E+00
  0.00000000E+00  0.00000000E+00  0.00000000E+00  0.00000000E+00  0.00000000E+00
  0.00000000E+00  0.00000000E+00  0.00000000E+00  0.00000000E+00  0.00000000E+00
  0.00000000E+00  0.00000000E+00  0.00000000E+00  0.00000000E+00  0.00000000E+00
  0.00000000E+00  0.00000000E+00  0.00000000E+00  0.00000000E+00  0.00000000E+00
  0.00000000E+00  0.00000000E+00  0.00000000E+00  0.00000000E+00  0.00000000E+00
  0.00000000E+00  0.00000000E+00  0.00000000E+00  0.00000000E+00  0.00000000E+00
  0.00000000E+00  0.00000000E+00  0.00000000E+00  0.00000000E+00  0.00000000E+00
  0.00000000E+00  0.00000000E+00  0.00000000E+00  0.00000000E+00  0.00000000E+00
  0.00000000E+00  0.00000000E+00  0.00000000E+00  0.00000000E+00  0.00000000E+00
  0.00000000E+00  0.00000000E+00  0.00000000E+00  0.00000000E+00  0.00000000E+00
  0.00000000E+00  0.00000000E+00  0.00000000E+00  0.00000000E+00  0.00000000E+00
  0.00000000E+00  0.00000000E+00  0.00000000E+00  0.00000000E+00  0.00000000E+00
  0.00000000E+00  0.00000000E+00  0.00000000E+00  0.00000000E+00  0.00000000E+00
  0.00000000E+00  0.00000000E+00  0.00000000E+00  0.00000000E+00  0.00000000E+00
  0.00000000E+00  0.00000000E+00  0.00000000E+00  0.00000000E+00  0.00000000E+00
  2.26000000E-01  4.43000000E-01  1.01000000E-01  1.47000000E-01  1.92000000E-01
  2.40000000E-01  2.75000000E-01  3.03000000E-01  3.25000000E-01  4.13000000E-01
  9.60000000E-02  1.35000000E-01  1.73000000E-01  2.11000000E-01  2.48000000E-01
  2.86000000E-01  3.23000000E-01  3.60000000E-01  8.20000000E-02  1.04000000E-01
  1.17000000E-01  1.23000000E-01  1.29000000E-01  1.34000000E-01  1.40000000E-01
  1.44000000E-01  1.48000000E-01  1.52000000E-01  1.55000000E-01  1.76000000E-01
  1.98000000E-01  2.19000000E-01  2.39000000E-01  2.60000000E-01  2.80000000E-01
  3.00000000E-01  7.90000000E-02  9.90000000E-02  1.19000000E-01  1.26000000E-01
  1.33000000E-01  1.40000000E-01  1.47000000E-01  1.53000000E-01  1.58000000E-01
  1.63000000E-01  1.57000000E-01  1.70000000E-01  1.87000000E-01  2.03000000E-01
  2.19000000E-01  2.34000000E-01  2.50000000E-01  2.65000000E-01  7.40000000E-02
  9.20000000E-02  1.05000000E-01  1.06000000E-01  1.07000000E-01  1.08000000E-01
  1.09000000E-01  1.10000000E-01  1.11000000E-01  1.12000000E-01  1.13000000E-01
  1.14000000E-01  1.15000000E-01  1.16000000E-01  1.17000000E-01  1.17000000E-01
  1.26000000E-01  1.36000000E-01  1.46000000E-01  1.55000000E-01  1.65000000E-01
  1.73000000E-01  1.82000000E-01  1.90000000E-01  1.62000000E-01  1.78000000E-01
  1.10000000E-01  1.35000000E-01  1.59000000E-01  1.83000000E-01  2.07000000E-01
  2.31000000E-01  6.90000000E-02  9.40000000E-02  1.02000000E-01  1.03000000E-01
  1.05000000E-01  1.07000000E-01  1.09000000E-01  1.11000000E-01  1.13000000E-01
  1.15000000E-01  1.17000000E-01  1.19000000E-01  1.20000000E-01  1.22000000E-01
  1.24000000E-01  1.26000000E-01  1.28000000E-01  1.28000000E-01  1.28000000E-01
  1.28000000E-01  1.28000000E-01  1.28000000E-01  1.28000000E-01  1.28000000E-01
  1.28000000E-01  1.28000000E-01  1.28000000E-01  1.28000000E-01  1.28000000E-01
  1.28000000E-01  1.28000000E-01  1.28000000E-01  1.28000000E-01  1.28000000E-01
  1.28000000E-01  1.28000000E-01  1.28000000E-01  1.28000000E-01  1.28000000E-01
  1.28000000E-01  1.28000000E-01  1.28000000E-01  1.28000000E-01  1.28000000E-01
  1.28000000E-01  1.28000000E-01  1.28000000E-01  1.28000000E-01  1.28000000E-01
  1.28000000E-01  1.28000000E-01  1.28000000E-01  1.28000000E-01  1.28000000E-01
  1.28000000E-01  1.28000000E-01  1.28000000E-01  1.28000000E-01  1.28000000E-01
  1.28000000E-01  1.28000000E-01  1.28000000E-01  1.28000000E-01  1.28000000E-01
  1.28000000E-01  1.28000000E-01  1.28000000E-01  1.28000000E-01  1.28000000E-01
  1.28000000E-01  1.28000000E-01  1.28000000E-01  1.28000000E-01  1.28000000E-01
  1.28000000E-01  1.28000000E-01  1.28000000E-01  1.28000000E-01  1.28000000E-01
  1.28000000E-01  1.28000000E-01  1.28000000E-01  1.28000000E-01  1.28000000E-01
  1.28000000E-01  1.28000000E-01  1.28000000E-01  1.28000000E-01  1.28000000E-01
  1.28000000E-01  1.28000000E-01  1.28000000E-01  1.28000000E-01  1.28000000E-01
  1.28000000E-01  1.28000000E-01  1.28000000E-01  1.28000000E-01  1.28000000E-01
  1.28000000E-01  1.28000000E-01  1.28000000E-01  1.28000000E-01  1.28000000E-01
  1.28000000E-01  1.28000000E-01  1.28000000E-01  1.28000000E-01  1.28000000E-01
  1.28000000E-01  1.28000000E-01  1.28000000E-01  1.28000000E-01  1.28000000E-01
  5.47000000E-01  5.92000000E-01  5.99000000E-01  6.68000000E-01  6.98000000E-01
  7.18000000E-01  7.26000000E-01  7.36000000E-01  7.43000000E-01  7.45000000E-01
  6.07000000E-01  6.66000000E-01  6.93000000E-01  7.09000000E-01  7.20000000E-01
  7.29000000E-01  7.35000000E-01  7.40000000E-01  6.08000000E-01  7.34000000E-01
  7.46000000E-01  7.55000000E-01  7.61000000E-01  7.65000000E-01  7.67000000E-01
  7.60000000E-01  7.49000000E-01  7.33000000E-01  7.08000000E-01  6.48000000E-01
  6.88000000E-01  7.09000000E-01  7.22000000E-01  7.31000000E-01  7.38000000E-01
  7.44000000E-01  6.09000000E-01  7.30000000E-01  7.41000000E-01  7.52000000E-01
  7.58000000E-01  7.63000000E-01  7.66000000E-01  7.58000000E-01  7.48000000E-01
  7.33000000E-01  7.01000000E-01  6.45000000E-01  6.86000000E-01  7.08000000E-01
  7.22000000E-01  7.31000000E-01  7.38000000E-01  7.44000000E-01  6.08000000E-01
  7.28000000E-01  7.32000000E-01  7.32000000E-01  7.32000000E-01  7.32000000E-01
  7.32000000E-01  7.32000000E-01  7.32000000E-01  7.32000000E-01  7.32000000E-01
  7.31000000E-01  7.31000000E-01  7.31000000E-01  7.31000000E-01  7.46000000E-01
  7.37000000E-01  7.46000000E-01  7.51000000E-01  7.55000000E-01  7.58000000E-01
  7.47000000E-01  7.32000000E-01  7.11000000E-01  7.41000000E-01  7.07000000E-01
  7.47000000E-01  7.43000000E-01  7.42000000E-01  7.42000000E-01  7.43000000E-01
  7.44000000E-01  6.05000000E-01  7.24000000E-01  7.26000000E-01  7.26000000E-01
  7.27000000E-01  7.27000000E-01  7.27000000E-01  7.28000000E-01  7.28000000E-01
  7.28000000E-01  7.28000000E-01  7.28000000E-01  7.29000000E-01  7.29000000E-01
  7.29000000E-01  7.29000000E-01  7.29000000E-01  7.29000000E-01  7.29000000E-01
  7.29000000E-01  7.29000000E-01  7.29000000E-01  7.29000000E-01  7.29000000E-01
  7.29000000E-01  7.29000000E-01  7.29000000E-01  7.29000000E-01  7.29000000E-01
  7.29000000E-01  7.29000000E-01  7.29000000E-01  7.29000000E-01  7.29000000E-01
  7.29000000E-01  7.29000000E-01  7.29000000E-01  7.29000000E-01  7.29000000E-01
  7.29000000E-01  7.29000000E-01  7.29000000E-01  7.29000000E-01  7.29000000E-01
  7.29000000E-01  7.29000000E-01  7.29000000E-01  7.29000000E-01  7.29000000E-01
  7.29000000E-01  7.29000000E-01  7.29000000E-01  7.29000000E-01  7.29000000E-01
  7.29000000E-01  7.29000000E-01  7.29000000E-01  7.29000000E-01  7.29000000E-01
  7.29000000E-01  7.29000000E-01  7.29000000E-01  7.29000000E-01  7.29000000E-01
  7.29000000E-01  7.29000000E-01  7.29000000E-01  7.29000000E-01  7.29000000E-01
  7.29000000E-01  7.29000000E-01  7.29000000E-01  7.29000000E-01  7.29000000E-01
  7.29000000E-01  7.29000000E-01  7.29000000E-01  7.29000000E-01  7.29000000E-01
  7.29000000E-01  7.29000000E-01  7.29000000E-01  7.29000000E-01  7.29000000E-01
  7.29000000E-01  7.29000000E-01  7.29000000E-01  7.29000000E-01  7.29000000E-01
  7.29000000E-01  7.29000000E-01  7.29000000E-01  7.29000000E-01  7.29000000E-01
  7.29000000E-01  7.29000000E-01  7.29000000E-01  7.29000000E-01  7.29000000E-01
  7.29000000E-01  7.29000000E-01  7.29000000E-01  7.29000000E-01  7.29000000E-01
  7.29000000E-01  7.29000000E-01  7.29000000E-01  7.29000000E-01  7.29000000E-01
  7.29000000E-01  7.29000000E-01  7.29000000E-01  7.29000000E-01  7.29000000E-01
  1.00000000E+00  1.70400000E+00  3.23000000E-01  3.89000000E-01  4.67000000E-01
  5.67000000E-01  6.36000000E-01  6.64000000E-01  6.96000000E-01  8.79000000E-01
  3.07000000E-01  3.48000000E-01  4.00000000E-01  4.54000000E-01  5.09000000E-01
  5.65000000E-01  6.21000000E-01  6.77000000E-01  2.56000000E-01  3.50000000E-01
  3.64000000E-01  3.62000000E-01  3.62000000E-01  3.62000000E-01  3.62000000E-01
  3.65000000E-01  3.69000000E-01  3.75000000E-01  3.86000000E-01  4.46000000E-01
  4.55000000E-01  4.74000000E-01  4.96000000E-01  5.20000000E-01  5.45000000E-01
  5.70000000E-01  2.45000000E-01  3.22000000E-01  3.55000000E-01  3.59000000E-01
  3.64000000E-01  3.70000000E-01  3.76000000E-01  3.85000000E-01  3.95000000E-01
  4.08000000E-01  3.76000000E-01  4.23000000E-01  4.22000000E-01  4.32000000E-01
  4.45000000E-01  4.59000000E-01  4.75000000E-01  4.91000000E-01  2.28000000E-01
  2.92000000E-01  2.89000000E-01  2.92000000E-01  2.95000000E-01  2.98000000E-01
  3.00000000E-01  3.03000000E-01  3.06000000E-01  3.09000000E-01  3.12000000E-01
  3.15000000E-01  3.18000000E-01  3.21000000E-01  3.24000000E-01  3.61000000E-01
  3.69000000E-01  3.70000000E-01  3.72000000E-01  3.75000000E-01  3.78000000E-01
  3.85000000E-01  3.94000000E-01  4.07000000E-01  5.26000000E-01  6.21000000E-01
  3.36000000E-01  3.54000000E-01  3.71000000E-01  3.86000000E-01  4.02000000E-01
  4.17000000E-01  2.09000000E-01  2.94000000E-01  2.65000000E-01  2.72000000E-01
  2.78000000E-01  2.84000000E-01  2.91000000E-01  2.97000000E-01  3.03000000E-01
  3.10000000E-01  3.16000000E-01  3.22000000E-01  3.29000000E-01  3.35000000E-01
  3.41000000E-01  3.48000000E-01  3.54000000E-01  3.54000000E-01  3.54000000E-01
  3.54000000E-01  3.54000000E-01  3.54000000E-01  3.54000000E-01  3.54000000E-01
  3.54000000E-01  3.54000000E-01  3.54000000E-01  3.54000000E-01  3.54000000E-01
  3.54000000E-01  3.54000000E-01  3.54000000E-01  3.54000000E-01  3.54000000E-01
  3.54000000E-01  3.54000000E-01  3.54000000E-01  3.54000000E-01  3.54000000E-01
  3.54000000E-01  3.54000000E-01  3.54000000E-01  3.54000000E-01  3.54000000E-01
  3.54000000E-01  3.54000000E-01  3.54000000E-01  3.54000000E-01  3.54000000E-01
  3.54000000E-01  3.54000000E-01  3.54000000E-01  3.54000000E-01  3.54000000E-01
  3.54000000E-01  3.54000000E-01  3.54000000E-01  3.54000000E-01  3.54000000E-01
  3.54000000E-01  3.54000000E-01  3.54000000E-01  3.54000000E-01  3.54000000E-01
  3.54000000E-01  3.54000000E-01  3.54000000E-01  3.54000000E-01  3.54000000E-01
  3.54000000E-01  3.54000000E-01  3.54000000E-01  3.54000000E-01  3.54000000E-01
  3.54000000E-01  3.54000000E-01  3.54000000E-01  3.54000000E-01  3.54000000E-01
  3.54000000E-01  3.54000000E-01  3.54000000E-01  3.54000000E-01  3.54000000E-01
  3.54000000E-01  3.54000000E-01  3.54000000E-01  3.54000000E-01  3.54000000E-01
  3.54000000E-01  3.54000000E-01  3.54000000E-01  3.54000000E-01  3.54000000E-01
  3.54000000E-01  3.54000000E-01  3.54000000E-01  3.54000000E-01  3.54000000E-01
  3.54000000E-01  3.54000000E-01  3.54000000E-01  3.54000000E-01  3.54000000E-01
  3.54000000E-01  3.54000000E-01  3.54000000E-01  3.54000000E-01  3.54000000E-01
  3.54000000E-01  3.54000000E-01  3.54000000E-01  3.54000000E-01  3.54000000E-01
  2.74000000E-01  2.96000000E-01  5.80000000E-02  4.40000000E-02  3.90000000E-02
  3.90000000E-02  3.60000000E-02  3.20000000E-02  2.90000000E-02  3.30000000E-02
  5.50000000E-02  3.90000000E-02  3.30000000E-02  3.00000000E-02  2.80000000E-02
  2.60000000E-02  2.50000000E-02  2.50000000E-02  4.50000000E-02  4.40000000E-02
  3.30000000E-02  2.50000000E-02  2.10000000E-02  1.80000000E-02  1.50000000E-02
  1.80000000E-02  2.10000000E-02  2.50000000E-02  3.30000000E-02  5.00000000E-02
  3.80000000E-02  3.10000000E-02  2.70000000E-02  2.40000000E-02  2.20000000E-02
  2.10000000E-02  4.30000000E-02  4.00000000E-02  3.20000000E-02  2.50000000E-02
  2.10000000E-02  1.80000000E-02  1.60000000E-02  1.90000000E-02  2.20000000E-02
  2.80000000E-02  3.10000000E-02  4.70000000E-02  3.40000000E-02  2.80000000E-02
  2.40000000E-02  2.10000000E-02  1.90000000E-02  1.80000000E-02  3.90000000E-02
  3.60000000E-02  2.50000000E-02  2.50000000E-02  2.50000000E-02  2.60000000E-02
  2.60000000E-02  2.60000000E-02  2.70000000E-02  2.70000000E-02  2.70000000E-02
  2.70000000E-02  2.80000000E-02  2.80000000E-02  2.80000000E-02  3.30000000E-02
  3.30000000E-02  2.60000000E-02  2.10000000E-02  1.80000000E-02  1.60000000E-02
  1.80000000E-02  2.20000000E-02  2.60000000E-02  4.90000000E-02  8.20000000E-02
  3.00000000E-02  2.40000000E-02  2.10000000E-02  1.80000000E-02  1.60000000E-02
  1.50000000E-02  3.50000000E-02  3.60000000E-02  2.20000000E-02  2.30000000E-02
  2.40000000E-02  2.40000000E-02  2.50000000E-02  2.50000000E-02  2.60000000E-02
  2.70000000E-02  2.70000000E-02  2.80000000E-02  2.80000000E-02  2.90000000E-02
  3.00000000E-02  3.00000000E-02  3.10000000E-02  3.10000000E-02  3.10000000E-02
  3.10000000E-02  3.10000000E-02  3.10000000E-02  3.10000000E-02  3.10000000E-02
  3.10000000E-02  3.10000000E-02  3.10000000E-02  3.10000000E-02  3.10000000E-02
  3.10000000E-02  3.10000000E-02  3.10000000E-02  3.10000000E-02  3.10000000E-02
  3.10000000E-02  3.10000000E-02  3.10000000E-02  3.10000000E-02  3.10000000E-02
  3.10000000E-02  3.10000000E-02  3.10000000E-02  3.10000000E-02  3.10000000E-02
  3.10000000E-02  3.10000000E-02  3.10000000E-02  3.10000000E-02  3.10000000E-02
  3.10000000E-02  3.10000000E-02  3.10000000E-02  3.10000000E-02  3.10000000E-02
  3.10000000E-02  3.10000000E-02  3.10000000E-02  3.10000000E-02  3.10000000E-02
  3.10000000E-02  3.10000000E-02  3.10000000E-02  3.10000000E-02  3.10000000E-02
  3.10000000E-02  3.10000000E-02  3.10000000E-02  3.10000000E-02  3.10000000E-02
  3.10000000E-02  3.10000000E-02  3.10000000E-02  3.10000000E-02  3.10000000E-02
  3.10000000E-02  3.10000000E-02  3.10000000E-02  3.10000000E-02  3.10000000E-02
  3.10000000E-02  3.10000000E-02  3.10000000E-02  3.10000000E-02  3.10000000E-02
  3.10000000E-02  3.10000000E-02  3.10000000E-02  3.10000000E-02  3.10000000E-02
  3.10000000E-02  3.10000000E-02  3.10000000E-02  3.10000000E-02  3.10000000E-02
  3.10000000E-02  3.10000000E-02  3.10000000E-02  3.10000000E-02  3.10000000E-02
  3.10000000E-02  3.10000000E-02  3.10000000E-02  3.10000000E-02  3.10000000E-02
  3.10000000E-02  3.10000000E-02  3.10000000E-02  3.10000000E-02  3.10000000E-02
  3.10000000E-02  3.10000000E-02  3.10000000E-02  3.10000000E-02  3.10000000E-02
 -5.92770000E-01 -9.17860000E-01 -2.48668000E+00 -8.36430000E-01 -3.18470000E-01
 -4.55790000E-01 -5.70730000E-01 -6.77940000E-01 -7.69860000E-01 -8.51140000E-01
 -1.51908000E+00 -3.18830000E-01 -2.17900000E-01 -3.01260000E-01 -3.72750000E-01
 -4.15890000E-01 -4.45930000E-01 -5.91320000E-01 -9.56370000E-01 -2.88450000E-01
 -4.87320000E-01 -6.34280000E-01 -7.17490000E-01 -7.91980000E-01 -8.68490000E-01
 -9.17520000E-01 -9.54890000E-01 -9.88460000E-01 -1.50055000E+00 -2.92560000E-01
 -2.14960000E-01 -2.91180000E-01 -3.42080000E-01 -3.84480000E-01 -4.34940000E-01
 -5.24310000E-01 -8.10070000E-01 -2.58460000E-01 -4.35550000E-01 -5.32740000E-01
 -6.08450000E-01 -6.10260000E-01 -7.58920000E-01 -8.90130000E-01 -8.45780000E-01
 -8.69340000E-01 -1.38234000E+00 -2.64850000E-01 -1.97280000E-01 -2.65040000E-01
 -2.94470000E-01 -3.16570000E-01 -3.63590000E-01 -4.57840000E-01 -8.61830000E-01
 -1.33004000E+00 -6.82880000E-01 -6.25540000E-01 -6.35430000E-01 -8.79690000E-01
 -9.02690000E-01 -9.59650000E-01 -1.01869000E+00 -6.81170000E-01 -7.96500000E-01
 -9.04950000E-01 -8.34790000E-01 -9.01560000E-01 -9.74130000E-01 -1.03326000E+00
 -7.15490000E-01 -7.83960000E-01 -8.28380000E-01 -5.61040000E-01 -1.03841000E+00
 -8.62500000E-01 -9.59300000E-01 -1.01755000E+00 -7.64900000E-01 -1.29467000E+00
 -1.92740000E-01 -2.56010000E-01 -3.19820000E-01 -1.94660000E-01 -2.60090000E-01
 -4.27990000E-01  0.00000000E+00  0.00000000E+00  0.00000000E+00  0.00000000E+00
  0.00000000E+00  0.00000000E+00  0.00000000E+00  0.00000000E+00  0.00000000E+00
  0.00000000E+00  0.00000000E+00  0.00000000E+00  0.00000000E+00  0.00000000E+00
  0.00000000E+00  0.00000000E+00  0.00000000E+00  0.00000000E+00  0.00000000E+00
  0.00000000E+00  0.00000000E+00  0.00000000E+00  0.00000000E+00  0.00000000E+00
  0.00000000E+00  0.00000000E+00  0.00000000E+00  0.00000000E+00  0.00000000E+00
  0.00000000E+00  0.00000000E+00  0.00000000E+00  0.00000000E+00  0.00000000E+00
  0.00000000E+00  0.00000000E+00  0.00000000E+00  0.00000000E+00  0.00000000E+00
  0.00000000E+00  0.00000000E+00  0.00000000E+00  0.00000000E+00  0.00000000E+00
  0.00000000E+00  0.00000000E+00  0.00000000E+00  0.00000000E+00  0.00000000E+00
  0.00000000E+00  0.00000000E+00  0.00000000E+00  0.00000000E+00  0.00000000E+00
  0.00000000E+00  0.00000000E+00  0.00000000E+00  0.00000000E+00  0.00000000E+00
  0.00000000E+00  0.00000000E+00  0.00000000E+00  0.00000000E+00  0.00000000E+00
  0.00000000E+00  0.00000000E+00  0.00000000E+00  0.00000000E+00  0.00000000E+00
  0.00000000E+00  0.00000000E+00  0.00000000E+00  0.00000000E+00  0.00000000E+00
  0.00000000E+00  0.00000000E+00  0.00000000E+00  0.00000000E+00  0.00000000E+00
  0.00000000E+00  0.00000000E+00  0.00000000E+00  0.00000000E+00  0.00000000E+00
  0.00000000E+00  0.00000000E+00  0.00000000E+00  0.00000000E+00  0.00000000E+00
  0.00000000E+00  0.00000000E+00  0.00000000E+00  0.00000000E+00  0.00000000E+00
  0.00000000E+00  0.00000000E+00  0.00000000E+00  0.00000000E+00  0.00000000E+00
  0.00000000E+00  0.00000000E+00  0.00000000E+00  0.00000000E+00  0.00000000E+00
  0.00000000E+00  0.00000000E+00  0.00000000E+00  0.00000000E+00  0.00000000E+00
  0.00000000E+00  0.00000000E+00  0.00000000E+00  0.00000000E+00  0.00000000E+00
  1.90440000E+00  1.36430000E+00  4.84000000E-01  7.31600000E+00  9.24030000E+00
  8.78200000E+00  5.61290000E+00  4.83340000E+00  3.24870000E+00  2.71090000E+00
  2.01130000E+00  1.50282000E+01  1.46788000E+01  2.13546000E+01  2.38290000E+01
  1.98022000E+01  1.50468000E+01  1.09745000E+01  1.27219000E+01  1.51949000E+01
  1.57342000E+01  2.79222000E+01  1.61366000E+01  2.21252000E+01  2.45676000E+01
  1.96016000E+01  1.79818000E+01  1.72396000E+01  5.01500000E+00  1.92898000E+01
  2.34477000E+01  2.23993000E+01  2.96586000E+01  2.60081000E+01  2.15580000E+01
  1.69594000E+01  1.56479000E+01  1.86897000E+01  1.93530000E+01  3.43444000E+01
  1.98480000E+01  2.72140000E+01  3.02182000E+01  2.41099000E+01  2.21176000E+01
  2.12047000E+01  7.56690000E+00  2.37264000E+01  2.93879000E+01  3.01278000E+01
  4.19382000E+01  3.85203000E+01  3.39511000E+01  2.75774000E+01  1.56460000E+01
  1.04460000E+01  2.01830000E+01  4.99540000E+01  4.76430000E+01  1.18690000E+01
  1.08670000E+01  9.96100000E+00  9.18700000E+00  3.67980000E+01  1.34070000E+01
  9.38200000E+00  9.81700000E+00  8.90800000E+00  8.40700000E+00  8.05800000E+00
  1.29600000E+01  2.67920000E+01  2.49300000E+01  3.45630000E+01  1.11860000E+01
  1.09440000E+01  1.01270000E+01  9.40400000E+00  1.36660000E+01  7.81000000E+00
  6.93600000E+01  5.86630000E+01  4.79690000E+01  4.52740000E+01  3.92290000E+01
  3.30660000E+01  0.00000000E+00  0.00000000E+00  0.00000000E+00  0.00000000E+00
  0.00000000E+00  0.00000000E+00  0.00000000E+00  0.00000000E+00  0.00000000E+00
  0.00000000E+00  0.00000000E+00  0.00000000E+00  0.00000000E+00  0.00000000E+00
  0.00000000E+00  0.00000000E+00  0.00000000E+00  0.00000000E+00  0.00000000E+00
  0.00000000E+00  0.00000000E+00  0.00000000E+00  0.00000000E+00  0.00000000E+00
  0.00000000E+00  0.00000000E+00  0.00000000E+00  0.00000000E+00  0.00000000E+00
  0.00000000E+00  0.00000000E+00  0.00000000E+00  0.00000000E+00  0.00000000E+00
  0.00000000E+00  0.00000000E+00  0.00000000E+00  0.00000000E+00  0.00000000E+00
  0.00000000E+00  0.00000000E+00  0.00000000E+00  0.00000000E+00  0.00000000E+00
  0.00000000E+00  0.00000000E+00  0.00000000E+00  0.00000000E+00  0.00000000E+00
  0.00000000E+00  0.00000000E+00  0.00000000E+00  0.00000000E+00  0.00000000E+00
  0.00000000E+00  0.00000000E+00  0.00000000E+00  0.00000000E+00  0.00000000E+00
  0.00000000E+00  0.00000000E+00  0.00000000E+00  0.00000000E+00  0.00000000E+00
  0.00000000E+00  0.00000000E+00  0.00000000E+00  0.00000000E+00  0.00000000E+00
  0.00000000E+00  0.00000000E+00  0.00000000E+00  0.00000000E+00  0.00000000E+00
  0.00000000E+00  0.00000000E+00  0.00000000E+00  0.00000000E+00  0.00000000E+00
  0.00000000E+00  0.00000000E+00  0.00000000E+00  0.00000000E+00  0.00000000E+00
  0.00000000E+00  0.00000000E+00  0.00000000E+00  0.00000000E+00  0.00000000E+00
  0.00000000E+00  0.00000000E+00  0.00000000E+00  0.00000000E+00  0.00000000E+00
  0.00000000E+00  0.00000000E+00  0.00000000E+00  0.00000000E+00  0.00000000E+00
  0.00000000E+00  0.00000000E+00  0.00000000E+00  0.00000000E+00  0.00000000E+00
  0.00000000E+00  0.00000000E+00  0.00000000E+00  0.00000000E+00  0.00000000E+00
  0.00000000E+00  0.00000000E+00  0.00000000E+00  0.00000000E+00  0.00000000E+00
  0.00000000E+00  0.00000000E+00  0.00000000E+00  0.00000000E+00  0.00000000E+00
  0.00000000E+00  0.00000000E+00  0.00000000E+00  0.00000000E+00  0.00000000E+00
  0.00000000E+00  0.00000000E+00  0.00000000E+00  0.00000000E+00  0.00000000E+00
  0.00000000E+00  0.00000000E+00  0.00000000E+00  0.00000000E+00  0.00000000E+00
  0.00000000E+00  0.00000000E+00  0.00000000E+00  0.00000000E+00  0.00000000E+00
  0.00000000E+00  0.00000000E+00  0.00000000E+00  0.00000000E+00  0.00000000E+00
  0.00000000E+00  0.00000000E+00  0.00000000E+00  0.00000000E+00  0.00000000E+00
  0.00000000E+00  0.00000000E+00  0.00000000E+00  0.00000000E+00  0.00000000E+00
  0.00000000E+00  0.00000000E+00  0.00000000E+00  0.00000000E+00  0.00000000E+00
  0.00000000E+00  0.00000000E+00  0.00000000E+00  0.00000000E+00  0.00000000E+00
  0.00000000E+00  0.00000000E+00  0.00000000E+00  0.00000000E+00  0.00000000E+00
  0.00000000E+00  0.00000000E+00  0.00000000E+00  0.00000000E+00  0.00000000E+00
  0.00000000E+00  0.00000000E+00  0.00000000E+00  0.00000000E+00  0.00000000E+00
  0.00000000E+00  0.00000000E+00  0.00000000E+00  0.00000000E+00  0.00000000E+00
  0.00000000E+00  0.00000000E+00  0.00000000E+00  0.00000000E+00  0.00000000E+00
  0.00000000E+00  0.00000000E+00  0.00000000E+00  0.00000000E+00  0.00000000E+00
  0.00000000E+00  0.00000000E+00  0.00000000E+00  0.00000000E+00  0.00000000E+00
  0.00000000E+00  0.00000000E+00  0.00000000E+00  0.00000000E+00  0.00000000E+00
  0.00000000E+00  0.00000000E+00  0.00000000E+00  0.00000000E+00  0.00000000E+00
  0.00000000E+00  0.00000000E+00  0.00000000E+00  0.00000000E+00  0.00000000E+00
  0.00000000E+00  0.00000000E+00  0.00000000E+00  0.00000000E+00  0.00000000E+00
  0.00000000E+00  0.00000000E+00  0.00000000E+00  0.00000000E+00  0.00000000E+00
  0.00000000E+00  0.00000000E+00  0.00000000E+00  0.00000000E+00  0.00000000E+00
  0.00000000E+00  0.00000000E+00  0.00000000E+00  0.00000000E+00  0.00000000E+00
  0.00000000E+00  0.00000000E+00  0.00000000E+00  0.00000000E+00  0.00000000E+00
  0.00000000E+00  0.00000000E+00  0.00000000E+00  0.00000000E+00  0.00000000E+00
  0.00000000E+00  0.00000000E+00  0.00000000E+00  0.00000000E+00  0.00000000E+00
  0.00000000E+00  0.00000000E+00  0.00000000E+00  0.00000000E+00  0.00000000E+00
  0.00000000E+00  0.00000000E+00  0.00000000E+00  0.00000000E+00  0.00000000E+00
  0.00000000E+00  0.00000000E+00  0.00000000E+00  0.00000000E+00  0.00000000E+00
  0.00000000E+00  0.00000000E+00  0.00000000E+00  0.00000000E+00  0.00000000E+00
  0.00000000E+00  0.00000000E+00  0.00000000E+00  0.00000000E+00  0.00000000E+00
  0.00000000E+00  0.00000000E+00  0.00000000E+00  0.00000000E+00  0.00000000E+00
  0.00000000E+00  0.00000000E+00  0.00000000E+00  0.00000000E+00  0.00000000E+00
  0.00000000E+00  0.00000000E+00  0.00000000E+00  0.00000000E+00  0.00000000E+00
  0.00000000E+00  0.00000000E+00  0.00000000E+00  0.00000000E+00  0.00000000E+00
  0.00000000E+00  0.00000000E+00  0.00000000E+00  0.00000000E+00  0.00000000E+00
  0.00000000E+00  0.00000000E+00  0.00000000E+00  0.00000000E+00  0.00000000E+00
  0.00000000E+00  0.00000000E+00  0.00000000E+00  0.00000000E+00  0.00000000E+00
  0.00000000E+00  0.00000000E+00  0.00000000E+00  0.00000000E+00  0.00000000E+00
  0.00000000E+00  0.00000000E+00  0.00000000E+00  0.00000000E+00  0.00000000E+00
  0.00000000E+00  0.00000000E+00  0.00000000E+00  0.00000000E+00  0.00000000E+00
  0.00000000E+00  0.00000000E+00  0.00000000E+00  0.00000000E+00  0.00000000E+00
  0.00000000E+00  0.00000000E+00  0.00000000E+00  0.00000000E+00  0.00000000E+00
  0.00000000E+00  0.00000000E+00  0.00000000E+00  0.00000000E+00  0.00000000E+00
  0.00000000E+00  0.00000000E+00  0.00000000E+00  0.00000000E+00  0.00000000E+00
  0.00000000E+00  0.00000000E+00  0.00000000E+00  0.00000000E+00  0.00000000E+00
  0.00000000E+00  0.00000000E+00  0.00000000E+00  0.00000000E+00  0.00000000E+00
  0.00000000E+00  0.00000000E+00  0.00000000E+00  0.00000000E+00  0.00000000E+00
  0.00000000E+00  0.00000000E+00  0.00000000E+00  0.00000000E+00  0.00000000E+00
  0.00000000E+00  0.00000000E+00  0.00000000E+00  0.00000000E+00  0.00000000E+00
  0.00000000E+00  0.00000000E+00  0.00000000E+00  0.00000000E+00  0.00000000E+00
  0.00000000E+00  0.00000000E+00  0.00000000E+00  0.00000000E+00  0.00000000E+00
  0.00000000E+00  0.00000000E+00  0.00000000E+00  0.00000000E+00  0.00000000E+00
  0.00000000E+00  0.00000000E+00  0.00000000E+00  0.00000000E+00  0.00000000E+00
  0.00000000E+00  0.00000000E+00  0.00000000E+00  0.00000000E+00  0.00000000E+00
  0.00000000E+00  0.00000000E+00  0.00000000E+00  0.00000000E+00  0.00000000E+00
  0.00000000E+00  0.00000000E+00  0.00000000E+00  0.00000000E+00  0.00000000E+00
  0.00000000E+00  0.00000000E+00  0.00000000E+00  0.00000000E+00  0.00000000E+00
  0.00000000E+00  0.00000000E+00  0.00000000E+00  0.00000000E+00  0.00000000E+00
  0.00000000E+00  0.00000000E+00  0.00000000E+00  0.00000000E+00  0.00000000E+00
  0.00000000E+00  0.00000000E+00  0.00000000E+00  0.00000000E+00  0.00000000E+00
  0.00000000E+00  0.00000000E+00  0.00000000E+00  0.00000000E+00  0.00000000E+00
  0.00000000E+00  0.00000000E+00  0.00000000E+00  0.00000000E+00  0.00000000E+00
  0.00000000E+00  0.00000000E+00  0.00000000E+00  0.00000000E+00  0.00000000E+00
  0.00000000E+00  0.00000000E+00  0.00000000E+00  0.00000000E+00  0.00000000E+00
  0.00000000E+00  0.00000000E+00  0.00000000E+00  0.00000000E+00  0.00000000E+00
  0.00000000E+00  0.00000000E+00  0.00000000E+00  0.00000000E+00  0.00000000E+00
  0.00000000E+00  0.00000000E+00  0.00000000E+00  0.00000000E+00  0.00000000E+00
  0.00000000E+00  0.00000000E+00  0.00000000E+00  0.00000000E+00  0.00000000E+00
  0.00000000E+00  0.00000000E+00  0.00000000E+00  0.00000000E+00  0.00000000E+00
  0.00000000E+00  0.00000000E+00  0.00000000E+00  0.00000000E+00  0.00000000E+00
  0.00000000E+00  0.00000000E+00  0.00000000E+00  0.00000000E+00  0.00000000E+00
  0.00000000E+00  0.00000000E+00  0.00000000E+00  0.00000000E+00  0.00000000E+00
  0.00000000E+00  0.00000000E+00  0.00000000E+00  0.00000000E+00  0.00000000E+00
  0.00000000E+00  0.00000000E+00  0.00000000E+00  0.00000000E+00  0.00000000E+00
  0.00000000E+00  0.00000000E+00  0.00000000E+00  0.00000000E+00  0.00000000E+00
  0.00000000E+00  0.00000000E+00  0.00000000E+00  0.00000000E+00  0.00000000E+00
  0.00000000E+00  0.00000000E+00  0.00000000E+00  0.00000000E+00  0.00000000E+00
  0.00000000E+00  0.00000000E+00  0.00000000E+00  0.00000000E+00  0.00000000E+00
  0.00000000E+00  0.00000000E+00  0.00000000E+00  0.00000000E+00  0.00000000E+00
  0.00000000E+00  0.00000000E+00  0.00000000E+00  0.00000000E+00  0.00000000E+00
  0.00000000E+00  0.00000000E+00  0.00000000E+00  0.00000000E+00  0.00000000E+00
  0.00000000E+00  0.00000000E+00  0.00000000E+00  0.00000000E+00  0.00000000E+00
  0.00000000E+00  0.00000000E+00  0.00000000E+00  0.00000000E+00  0.00000000E+00
  0.00000000E+00  0.00000000E+00  0.00000000E+00  0.00000000E+00  0.00000000E+00
  0.00000000E+00  0.00000000E+00  0.00000000E+00  0.00000000E+00  0.00000000E+00
  0.00000000E+00  0.00000000E+00  0.00000000E+00  0.00000000E+00  0.00000000E+00
  0.00000000E+00  0.00000000E+00  0.00000000E+00  0.00000000E+00  0.00000000E+00
  0.00000000E+00  0.00000000E+00  0.00000000E+00  0.00000000E+00  0.00000000E+00
  0.00000000E+00  0.00000000E+00  0.00000000E+00  0.00000000E+00  0.00000000E+00
  0.00000000E+00  0.00000000E+00  0.00000000E+00  0.00000000E+00  0.00000000E+00
  0.00000000E+00  0.00000000E+00  0.00000000E+00  0.00000000E+00  0.00000000E+00
  0.00000000E+00  0.00000000E+00  0.00000000E+00  0.00000000E+00  0.00000000E+00
  0.00000000E+00  0.00000000E+00  0.00000000E+00  0.00000000E+00  0.00000000E+00
  0.00000000E+00  0.00000000E+00  0.00000000E+00  0.00000000E+00  0.00000000E+00
  0.00000000E+00  0.00000000E+00  0.00000000E+00  0.00000000E+00  0.00000000E+00
  0.00000000E+00  0.00000000E+00  0.00000000E+00  0.00000000E+00  0.00000000E+00
  0.00000000E+00  0.00000000E+00  0.00000000E+00  0.00000000E+00  0.00000000E+00
  0.00000000E+00  0.00000000E+00  0.00000000E+00  0.00000000E+00  0.00000000E+00
  0.00000000E+00  0.00000000E+00  0.00000000E+00  0.00000000E+00  0.00000000E+00
  0.00000000E+00  0.00000000E+00  0.00000000E+00  0.00000000E+00  0.00000000E+00
  0.00000000E+00  0.00000000E+00  0.00000000E+00  0.00000000E+00  0.00000000E+00
  0.00000000E+00  0.00000000E+00  0.00000000E+00  0.00000000E+00  0.00000000E+00
  0.00000000E+00  0.00000000E+00  0.00000000E+00  0.00000000E+00  0.00000000E+00
  0.00000000E+00  0.00000000E+00  0.00000000E+00  0.00000000E+00  0.00000000E+00
  0.00000000E+00  0.00000000E+00  0.00000000E+00  0.00000000E+00  0.00000000E+00
  0.00000000E+00  0.00000000E+00  0.00000000E+00  0.00000000E+00  0.00000000E+00
  0.00000000E+00  0.00000000E+00  0.00000000E+00  0.00000000E+00  0.00000000E+00
  0.00000000E+00  0.00000000E+00  0.00000000E+00  0.00000000E+00  0.00000000E+00
  0.00000000E+00  0.00000000E+00  0.00000000E+00  0.00000000E+00  0.00000000E+00
  0.00000000E+00  0.00000000E+00  0.00000000E+00  0.00000000E+00  0.00000000E+00
  0.00000000E+00  0.00000000E+00  0.00000000E+00  0.00000000E+00  0.00000000E+00
  0.00000000E+00  0.00000000E+00  0.00000000E+00  0.00000000E+00  0.00000000E+00
  0.00000000E+00  0.00000000E+00  0.00000000E+00  0.00000000E+00  0.00000000E+00
  0.00000000E+00  0.00000000E+00  0.00000000E+00  0.00000000E+00  0.00000000E+00
  0.00000000E+00  0.00000000E+00  0.00000000E+00  0.00000000E+00  0.00000000E+00
  0.00000000E+00  0.00000000E+00  0.00000000E+00  0.00000000E+00  0.00000000E+00
  0.00000000E+00  0.00000000E+00  0.00000000E+00  0.00000000E+00  0.00000000E+00
  0.00000000E+00  0.00000000E+00  0.00000000E+00  0.00000000E+00  0.00000000E+00
  0.00000000E+00  0.00000000E+00  0.00000000E+00  0.00000000E+00  0.00000000E+00
  0.00000000E+00  0.00000000E+00  0.00000000E+00  0.00000000E+00  0.00000000E+00
  0.00000000E+00  0.00000000E+00  0.00000000E+00  0.00000000E+00  0.00000000E+00
  0.00000000E+00  0.00000000E+00  0.00000000E+00  0.00000000E+00  0.00000000E+00
  0.00000000E+00  0.00000000E+00  0.00000000E+00  0.00000000E+00  0.00000000E+00
  0.00000000E+00  0.00000000E+00  0.00000000E+00  0.00000000E+00  0.00000000E+00
  0.00000000E+00  0.00000000E+00  0.00000000E+00  0.00000000E+00  0.00000000E+00
  0.00000000E+00  0.00000000E+00  0.00000000E+00  0.00000000E+00  0.00000000E+00
  0.00000000E+00  0.00000000E+00  0.00000000E+00  0.00000000E+00  0.00000000E+00
  0.00000000E+00  0.00000000E+00  0.00000000E+00  0.00000000E+00  0.00000000E+00
  0.00000000E+00  0.00000000E+00  0.00000000E+00  0.00000000E+00  0.00000000E+00
  0.00000000E+00  0.00000000E+00  0.00000000E+00  0.00000000E+00  0.00000000E+00
  0.00000000E+00  0.00000000E+00  0.00000000E+00  0.00000000E+00  0.00000000E+00
  0.00000000E+00  0.00000000E+00  0.00000000E+00  0.00000000E+00  0.00000000E+00
  0.00000000E+00  0.00000000E+00  0.00000000E+00  0.00000000E+00  0.00000000E+00
  0.00000000E+00  0.00000000E+00  0.00000000E+00  0.00000000E+00  0.00000000E+00
  0.00000000E+00  0.00000000E+00  0.00000000E+00  0.00000000E+00  0.00000000E+00
  0.00000000E+00  0.00000000E+00  0.00000000E+00  0.00000000E+00  0.00000000E+00
  0.00000000E+00  0.00000000E+00  0.00000000E+00  0.00000000E+00  0.00000000E+00
  0.00000000E+00  0.00000000E+00  0.00000000E+00  0.00000000E+00  0.00000000E+00
  0.00000000E+00  0.00000000E+00  0.00000000E+00  0.00000000E+00  0.00000000E+00
  0.00000000E+00  0.00000000E+00  0.00000000E+00  0.00000000E+00  0.00000000E+00
  0.00000000E+00  0.00000000E+00  0.00000000E+00  0.00000000E+00  0.00000000E+00
  0.00000000E+00  0.00000000E+00  0.00000000E+00  0.00000000E+00  0.00000000E+00
  0.00000000E+00  0.00000000E+00  0.00000000E+00  0.00000000E+00  0.00000000E+00
  0.00000000E+00  0.00000000E+00  0.00000000E+00  0.00000000E+00  0.00000000E+00
  0.00000000E+00  0.00000000E+00  0.00000000E+00  0.00000000E+00  0.00000000E+00
  0.00000000E+00  0.00000000E+00  0.00000000E+00  0.00000000E+00  0.00000000E+00
  0.00000000E+00  0.00000000E+00  0.00000000E+00  0.00000000E+00  0.00000000E+00
  0.00000000E+00  0.00000000E+00  0.00000000E+00  0.00000000E+00  0.00000000E+00
  0.00000000E+00  0.00000000E+00  0.00000000E+00  0.00000000E+00  0.00000000E+00
  0.00000000E+00  0.00000000E+00  0.00000000E+00  0.00000000E+00  0.00000000E+00
  0.00000000E+00  0.00000000E+00  0.00000000E+00  0.00000000E+00  0.00000000E+00
  0.00000000E+00  0.00000000E+00  0.00000000E+00  0.00000000E+00  0.00000000E+00
  0.00000000E+00  0.00000000E+00  0.00000000E+00  0.00000000E+00  0.00000000E+00
  0.00000000E+00  0.00000000E+00  0.00000000E+00  0.00000000E+00  0.00000000E+00
  0.00000000E+00  0.00000000E+00  0.00000000E+00  0.00000000E+00  0.00000000E+00
  0.00000000E+00  0.00000000E+00  0.00000000E+00  0.00000000E+00  0.00000000E+00
  0.00000000E+00  0.00000000E+00  0.00000000E+00  0.00000000E+00  0.00000000E+00
  0.00000000E+00  0.00000000E+00  0.00000000E+00  0.00000000E+00  0.00000000E+00
  0.00000000E+00  0.00000000E+00  0.00000000E+00  0.00000000E+00  0.00000000E+00
  0.00000000E+00  0.00000000E+00  0.00000000E+00  0.00000000E+00  0.00000000E+00
  0.00000000E+00  0.00000000E+00  0.00000000E+00  0.00000000E+00  0.00000000E+00
  0.00000000E+00  0.00000000E+00  0.00000000E+00  0.00000000E+00  0.00000000E+00
  0.00000000E+00  0.00000000E+00  0.00000000E+00  0.00000000E+00  0.00000000E+00
  0.00000000E+00  0.00000000E+00  0.00000000E+00  0.00000000E+00  0.00000000E+00
  0.00000000E+00  0.00000000E+00  0.00000000E+00  0.00000000E+00  0.00000000E+00
  0.00000000E+00  0.00000000E+00  0.00000000E+00  0.00000000E+00  0.00000000E+00
  0.00000000E+00  0.00000000E+00  0.00000000E+00  0.00000000E+00  0.00000000E+00
  0.00000000E+00  0.00000000E+00  0.00000000E+00  0.00000000E+00  0.00000000E+00
  0.00000000E+00  0.00000000E+00  0.00000000E+00  0.00000000E+00  0.00000000E+00
  0.00000000E+00  0.00000000E+00  0.00000000E+00  0.00000000E+00  0.00000000E+00
  0.00000000E+00  0.00000000E+00  0.00000000E+00  0.00000000E+00  0.00000000E+00
  0.00000000E+00  0.00000000E+00  0.00000000E+00  0.00000000E+00  0.00000000E+00
  0.00000000E+00  0.00000000E+00  0.00000000E+00  0.00000000E+00  0.00000000E+00
  0.00000000E+00  0.00000000E+00  0.00000000E+00  0.00000000E+00  0.00000000E+00
  0.00000000E+00  0.00000000E+00  0.00000000E+00  0.00000000E+00  0.00000000E+00
  0.00000000E+00  0.00000000E+00  0.00000000E+00  0.00000000E+00  0.00000000E+00
  0.00000000E+00  0.00000000E+00  0.00000000E+00  0.00000000E+00  0.00000000E+00
  0.00000000E+00  0.00000000E+00  0.00000000E+00  0.00000000E+00  0.00000000E+00
  0.00000000E+00  0.00000000E+00  0.00000000E+00  0.00000000E+00  0.00000000E+00
  0.00000000E+00  0.00000000E+00  0.00000000E+00  0.00000000E+00  0.00000000E+00
  0.00000000E+00  0.00000000E+00  0.00000000E+00  0.00000000E+00  0.00000000E+00
  0.00000000E+00  0.00000000E+00  0.00000000E+00  0.00000000E+00  0.00000000E+00
  0.00000000E+00  0.00000000E+00  0.00000000E+00  0.00000000E+00  0.00000000E+00
  0.00000000E+00  0.00000000E+00  0.00000000E+00  0.00000000E+00  0.00000000E+00
  0.00000000E+00  0.00000000E+00  0.00000000E+00  0.00000000E+00  0.00000000E+00
  0.00000000E+00  0.00000000E+00  0.00000000E+00  0.00000000E+00  0.00000000E+00
  0.00000000E+00  0.00000000E+00  0.00000000E+00  0.00000000E+00  0.00000000E+00
  0.00000000E+00  0.00000000E+00  0.00000000E+00  0.00000000E+00  0.00000000E+00
  0.00000000E+00  0.00000000E+00  0.00000000E+00  0.00000000E+00  0.00000000E+00
  0.00000000E+00  0.00000000E+00  0.00000000E+00  0.00000000E+00  0.00000000E+00
  0.00000000E+00  0.00000000E+00  0.00000000E+00  0.00000000E+00  0.00000000E+00
  0.00000000E+00  0.00000000E+00  0.00000000E+00  0.00000000E+00  0.00000000E+00
  0.00000000E+00  0.00000000E+00  0.00000000E+00  0.00000000E+00  0.00000000E+00
  0.00000000E+00  0.00000000E+00  0.00000000E+00  0.00000000E+00  0.00000000E+00
  0.00000000E+00  0.00000000E+00  0.00000000E+00  0.00000000E+00  0.00000000E+00
  0.00000000E+00  0.00000000E+00  0.00000000E+00  0.00000000E+00  0.00000000E+00
  0.00000000E+00  0.00000000E+00  0.00000000E+00  0.00000000E+00  0.00000000E+00
  0.00000000E+00  0.00000000E+00  0.00000000E+00  0.00000000E+00  0.00000000E+00
  0.00000000E+00  0.00000000E+00  0.00000000E+00  0.00000000E+00  0.00000000E+00
  0.00000000E+00  0.00000000E+00  0.00000000E+00  0.00000000E+00  0.00000000E+00
  0.00000000E+00  0.00000000E+00  0.00000000E+00  0.00000000E+00  0.00000000E+00
  0.00000000E+00  0.00000000E+00  0.00000000E+00  0.00000000E+00  0.00000000E+00
  0.00000000E+00  0.00000000E+00  0.00000000E+00  0.00000000E+00  0.00000000E+00
  0.00000000E+00  0.00000000E+00  0.00000000E+00  0.00000000E+00  0.00000000E+00
  0.00000000E+00  0.00000000E+00  0.00000000E+00  0.00000000E+00  0.00000000E+00
  0.00000000E+00  0.00000000E+00  0.00000000E+00  0.00000000E+00  0.00000000E+00
  0.00000000E+00  0.00000000E+00  0.00000000E+00  0.00000000E+00  0.00000000E+00
  0.00000000E+00  0.00000000E+00  0.00000000E+00  0.00000000E+00  0.00000000E+00
  0.00000000E+00  0.00000000E+00  0.00000000E+00  0.00000000E+00  0.00000000E+00
  0.00000000E+00  0.00000000E+00  0.00000000E+00  0.00000000E+00  0.00000000E+00
  0.00000000E+00  0.00000000E+00  0.00000000E+00  0.00000000E+00  0.00000000E+00
  0.00000000E+00  0.00000000E+00  0.00000000E+00  0.00000000E+00  0.00000000E+00
  0.00000000E+00  0.00000000E+00  0.00000000E+00  0.00000000E+00  0.00000000E+00
  0.00000000E+00  0.00000000E+00  0.00000000E+00  0.00000000E+00  0.00000000E+00
  0.00000000E+00  0.00000000E+00  0.00000000E+00  0.00000000E+00  0.00000000E+00
  0.00000000E+00  0.00000000E+00  0.00000000E+00  0.00000000E+00  0.00000000E+00
  0.00000000E+00  0.00000000E+00  0.00000000E+00  0.00000000E+00  0.00000000E+00
  0.00000000E+00  0.00000000E+00  0.00000000E+00  0.00000000E+00  0.00000000E+00
  0.00000000E+00  0.00000000E+00  0.00000000E+00  0.00000000E+00  0.00000000E+00
  0.00000000E+00  0.00000000E+00  0.00000000E+00  0.00000000E+00  0.00000000E+00
  0.00000000E+00  0.00000000E+00  0.00000000E+00  0.00000000E+00  0.00000000E+00
  0.00000000E+00  0.00000000E+00  0.00000000E+00  0.00000000E+00  0.00000000E+00
  0.00000000E+00  0.00000000E+00  0.00000000E+00  0.00000000E+00  0.00000000E+00
  0.00000000E+00  0.00000000E+00  0.00000000E+00  0.00000000E+00  0.00000000E+00
  0.00000000E+00  0.00000000E+00  0.00000000E+00  0.00000000E+00  0.00000000E+00
  0.00000000E+00  0.00000000E+00  0.00000000E+00  0.00000000E+00  0.00000000E+00
  0.00000000E+00  0.00000000E+00  0.00000000E+00  0.00000000E+00  0.00000000E+00
  0.00000000E+00  0.00000000E+00  0.00000000E+00  0.00000000E+00  0.00000000E+00
  0.00000000E+00  0.00000000E+00  0.00000000E+00  0.00000000E+00  0.00000000E+00
  0.00000000E+00  0.00000000E+00  0.00000000E+00  0.00000000E+00  0.00000000E+00
  0.00000000E+00  0.00000000E+00  0.00000000E+00  0.00000000E+00  0.00000000E+00
  0.00000000E+00  0.00000000E+00  0.00000000E+00  0.00000000E+00  0.00000000E+00
  0.00000000E+00  0.00000000E+00  0.00000000E+00  0.00000000E+00  0.00000000E+00
  0.00000000E+00  0.00000000E+00  0.00000000E+00  0.00000000E+00  0.00000000E+00
  0.00000000E+00  0.00000000E+00  0.00000000E+00  0.00000000E+00  0.00000000E+00
  0.00000000E+00  0.00000000E+00  0.00000000E+00  0.00000000E+00  0.00000000E+00
  0.00000000E+00  0.00000000E+00  0.00000000E+00  0.00000000E+00  0.00000000E+00
  0.00000000E+00  0.00000000E+00  0.00000000E+00  0.00000000E+00  0.00000000E+00
  0.00000000E+00  0.00000000E+00  0.00000000E+00  0.00000000E+00  0.00000000E+00
  0.00000000E+00  0.00000000E+00  0.00000000E+00  0.00000000E+00  0.00000000E+00
  0.00000000E+00  0.00000000E+00  0.00000000E+00  0.00000000E+00  0.00000000E+00
  0.00000000E+00  0.00000000E+00  0.00000000E+00  0.00000000E+00  0.00000000E+00
  0.00000000E+00  0.00000000E+00  0.00000000E+00  0.00000000E+00  0.00000000E+00
  0.00000000E+00  0.00000000E+00  0.00000000E+00  0.00000000E+00  0.00000000E+00
  0.00000000E+00  0.00000000E+00  0.00000000E+00  0.00000000E+00  0.00000000E+00
  0.00000000E+00  0.00000000E+00  0.00000000E+00  0.00000000E+00  0.00000000E+00
  0.00000000E+00  0.00000000E+00  0.00000000E+00  0.00000000E+00  0.00000000E+00
  0.00000000E+00  0.00000000E+00  0.00000000E+00  0.00000000E+00  0.00000000E+00
  0.00000000E+00  0.00000000E+00  0.00000000E+00  0.00000000E+00  0.00000000E+00
  0.00000000E+00  0.00000000E+00  0.00000000E+00  0.00000000E+00  0.00000000E+00
  0.00000000E+00  0.00000000E+00  0.00000000E+00  0.00000000E+00  0.00000000E+00
  0.00000000E+00  0.00000000E+00  0.00000000E+00  0.00000000E+00  0.00000000E+00
  0.00000000E+00  0.00000000E+00  0.00000000E+00  0.00000000E+00  0.00000000E+00
  0.00000000E+00  0.00000000E+00  0.00000000E+00  0.00000000E+00  0.00000000E+00
  0.00000000E+00  0.00000000E+00  0.00000000E+00  0.00000000E+00  0.00000000E+00
  0.00000000E+00  0.00000000E+00  0.00000000E+00  0.00000000E+00  0.00000000E+00
  0.00000000E+00  0.00000000E+00  0.00000000E+00  0.00000000E+00  0.00000000E+00
  0.00000000E+00  0.00000000E+00  0.00000000E+00  0.00000000E+00  0.00000000E+00
  0.00000000E+00  0.00000000E+00  0.00000000E+00  0.00000000E+00  0.00000000E+00
  0.00000000E+00  0.00000000E+00  0.00000000E+00  0.00000000E+00  0.00000000E+00
  0.00000000E+00  0.00000000E+00  0.00000000E+00  0.00000000E+00  0.00000000E+00
  0.00000000E+00  0.00000000E+00  0.00000000E+00  0.00000000E+00  0.00000000E+00
  0.00000000E+00  0.00000000E+00  0.00000000E+00  0.00000000E+00  0.00000000E+00
  0.00000000E+00  0.00000000E+00  0.00000000E+00  0.00000000E+00  0.00000000E+00
  0.00000000E+00  0.00000000E+00  0.00000000E+00  0.00000000E+00  0.00000000E+00
  0.00000000E+00  0.00000000E+00  0.00000000E+00  0.00000000E+00  0.00000000E+00
  0.00000000E+00  0.00000000E+00  0.00000000E+00  0.00000000E+00  0.00000000E+00
  0.00000000E+00  0.00000000E+00  0.00000000E+00  0.00000000E+00  0.00000000E+00
  0.00000000E+00  0.00000000E+00  0.00000000E+00  0.00000000E+00  0.00000000E+00
  0.00000000E+00  0.00000000E+00  0.00000000E+00  0.00000000E+00  0.00000000E+00
  0.00000000E+00  0.00000000E+00  0.00000000E+00  0.00000000E+00  0.00000000E+00
  0.00000000E+00  0.00000000E+00  0.00000000E+00  0.00000000E+00  0.00000000E+00
  0.00000000E+00  0.00000000E+00  0.00000000E+00  0.00000000E+00  0.00000000E+00
  0.00000000E+00  0.00000000E+00  0.00000000E+00  0.00000000E+00  0.00000000E+00
  0.00000000E+00  0.00000000E+00  0.00000000E+00  0.00000000E+00  0.00000000E+00
  0.00000000E+00  0.00000000E+00  0.00000000E+00  0.00000000E+00  0.00000000E+00
  0.00000000E+00  0.00000000E+00  0.00000000E+00  0.00000000E+00  0.00000000E+00
  0.00000000E+00  0.00000000E+00  0.00000000E+00  0.00000000E+00  0.00000000E+00
  0.00000000E+00  0.00000000E+00  0.00000000E+00  0.00000000E+00  0.00000000E+00
  0.00000000E+00  0.00000000E+00  0.00000000E+00  0.00000000E+00  0.00000000E+00
  0.00000000E+00  0.00000000E+00  0.00000000E+00  0.00000000E+00  0.00000000E+00
  0.00000000E+00  0.00000000E+00  0.00000000E+00  0.00000000E+00  0.00000000E+00
  0.00000000E+00  0.00000000E+00  0.00000000E+00  0.00000000E+00  0.00000000E+00
  0.00000000E+00  0.00000000E+00  0.00000000E+00  0.00000000E+00  0.00000000E+00
  0.00000000E+00  0.00000000E+00  0.00000000E+00  0.00000000E+00  0.00000000E+00
  0.00000000E+00  0.00000000E+00  0.00000000E+00  0.00000000E+00  0.00000000E+00
  0.00000000E+00  0.00000000E+00  0.00000000E+00  0.00000000E+00  0.00000000E+00
  0.00000000E+00  0.00000000E+00  0.00000000E+00  0.00000000E+00  0.00000000E+00
  0.00000000E+00  0.00000000E+00  0.00000000E+00  0.00000000E+00  0.00000000E+00
  0.00000000E+00  0.00000000E+00  0.00000000E+00  0.00000000E+00  0.00000000E+00
  0.00000000E+00  0.00000000E+00  0.00000000E+00  0.00000000E+00  0.00000000E+00
  0.00000000E+00  0.00000000E+00  0.00000000E+00  0.00000000E+00  0.00000000E+00
  0.00000000E+00  0.00000000E+00  0.00000000E+00  0.00000000E+00  0.00000000E+00
  0.00000000E+00  0.00000000E+00  0.00000000E+00  0.00000000E+00  0.00000000E+00
  0.00000000E+00  0.00000000E+00  0.00000000E+00  0.00000000E+00  0.00000000E+00
  0.00000000E+00  0.00000000E+00  0.00000000E+00  0.00000000E+00  0.00000000E+00
  0.00000000E+00  0.00000000E+00  0.00000000E+00  0.00000000E+00  0.00000000E+00
  0.00000000E+00  0.00000000E+00  0.00000000E+00  0.00000000E+00  0.00000000E+00
  0.00000000E+00  0.00000000E+00  0.00000000E+00  0.00000000E+00  0.00000000E+00
  0.00000000E+00  0.00000000E+00  0.00000000E+00  0.00000000E+00  0.00000000E+00
  0.00000000E+00  0.00000000E+00  0.00000000E+00  0.00000000E+00  0.00000000E+00
  0.00000000E+00  0.00000000E+00  0.00000000E+00  0.00000000E+00  0.00000000E+00
  0.00000000E+00  0.00000000E+00  0.00000000E+00  0.00000000E+00  0.00000000E+00
  0.00000000E+00  0.00000000E+00  0.00000000E+00  0.00000000E+00  0.00000000E+00
  0.00000000E+00  0.00000000E+00  0.00000000E+00  0.00000000E+00  0.00000000E+00
  0.00000000E+00  0.00000000E+00  0.00000000E+00  0.00000000E+00  0.00000000E+00
  0.00000000E+00  0.00000000E+00  0.00000000E+00  0.00000000E+00  0.00000000E+00
  0.00000000E+00  0.00000000E+00  0.00000000E+00  0.00000000E+00  0.00000000E+00
  0.00000000E+00  0.00000000E+00  0.00000000E+00  0.00000000E+00  0.00000000E+00
  0.00000000E+00  0.00000000E+00  0.00000000E+00  0.00000000E+00  0.00000000E+00
  0.00000000E+00  0.00000000E+00  0.00000000E+00  0.00000000E+00  0.00000000E+00
  0.00000000E+00  0.00000000E+00  0.00000000E+00  0.00000000E+00  0.00000000E+00
  0.00000000E+00  0.00000000E+00  0.00000000E+00  0.00000000E+00  0.00000000E+00
  0.00000000E+00  0.00000000E+00  0.00000000E+00  0.00000000E+00  0.00000000E+00
  0.00000000E+00  0.00000000E+00  0.00000000E+00  0.00000000E+00  0.00000000E+00
  0.00000000E+00  0.00000000E+00  0.00000000E+00  0.00000000E+00  0.00000000E+00
  0.00000000E+00  0.00000000E+00  0.00000000E+00  0.00000000E+00  0.00000000E+00
  0.00000000E+00  0.00000000E+00  0.00000000E+00  0.00000000E+00  0.00000000E+00
  0.00000000E+00  0.00000000E+00  0.00000000E+00  0.00000000E+00  0.00000000E+00
  0.00000000E+00  0.00000000E+00  0.00000000E+00  0.00000000E+00  0.00000000E+00
  0.00000000E+00  0.00000000E+00  0.00000000E+00  0.00000000E+00  0.00000000E+00
  0.00000000E+00  0.00000000E+00  0.00000000E+00  0.00000000E+00  0.00000000E+00
  0.00000000E+00  0.00000000E+00  0.00000000E+00  0.00000000E+00  0.00000000E+00
  0.00000000E+00  0.00000000E+00  0.00000000E+00  0.00000000E+00  0.00000000E+00
  0.00000000E+00  0.00000000E+00  0.00000000E+00  0.00000000E+00  0.00000000E+00
  0.00000000E+00  0.00000000E+00  0.00000000E+00  0.00000000E+00  0.00000000E+00
  0.00000000E+00  0.00000000E+00  0.00000000E+00  0.00000000E+00  0.00000000E+00
  0.00000000E+00  0.00000000E+00  0.00000000E+00  0.00000000E+00  0.00000000E+00
  0.00000000E+00  0.00000000E+00  0.00000000E+00  0.00000000E+00  0.00000000E+00
  0.00000000E+00  0.00000000E+00  0.00000000E+00  0.00000000E+00  0.00000000E+00
  0.00000000E+00  0.00000000E+00  0.00000000E+00  0.00000000E+00  0.00000000E+00
  0.00000000E+00  0.00000000E+00  0.00000000E+00  0.00000000E+00  0.00000000E+00
  0.00000000E+00  0.00000000E+00  0.00000000E+00  0.00000000E+00  0.00000000E+00
  0.00000000E+00  0.00000000E+00  0.00000000E+00  0.00000000E+00  0.00000000E+00
  0.00000000E+00  0.00000000E+00  0.00000000E+00  0.00000000E+00  0.00000000E+00
  0.00000000E+00  0.00000000E+00  0.00000000E+00  0.00000000E+00  0.00000000E+00
  0.00000000E+00  0.00000000E+00  0.00000000E+00  0.00000000E+00  0.00000000E+00
  0.00000000E+00  0.00000000E+00  0.00000000E+00  0.00000000E+00  0.00000000E+00
  0.00000000E+00  0.00000000E+00  0.00000000E+00  0.00000000E+00  0.00000000E+00
  0.00000000E+00  0.00000000E+00  0.00000000E+00  0.00000000E+00  0.00000000E+00
  0.00000000E+00  0.00000000E+00  0.00000000E+00  0.00000000E+00  0.00000000E+00
  0.00000000E+00  0.00000000E+00  0.00000000E+00  0.00000000E+00  0.00000000E+00
  0.00000000E+00  0.00000000E+00  0.00000000E+00  0.00000000E+00  0.00000000E+00
  0.00000000E+00  0.00000000E+00  0.00000000E+00  0.00000000E+00  0.00000000E+00
  0.00000000E+00  0.00000000E+00  0.00000000E+00  0.00000000E+00  0.00000000E+00
  0.00000000E+00  0.00000000E+00  0.00000000E+00  0.00000000E+00  0.00000000E+00
  0.00000000E+00  0.00000000E+00  0.00000000E+00  0.00000000E+00  0.00000000E+00
  0.00000000E+00  0.00000000E+00  0.00000000E+00  0.00000000E+00  0.00000000E+00
  0.00000000E+00  0.00000000E+00  0.00000000E+00  0.00000000E+00  0.00000000E+00
  0.00000000E+00  0.00000000E+00  0.00000000E+00  0.00000000E+00  0.00000000E+00
  0.00000000E+00  0.00000000E+00  0.00000000E+00  0.00000000E+00  0.00000000E+00
  0.00000000E+00  0.00000000E+00  0.00000000E+00  0.00000000E+00  0.00000000E+00
  0.00000000E+00  0.00000000E+00  0.00000000E+00  0.00000000E+00  0.00000000E+00
  0.00000000E+00  0.00000000E+00  0.00000000E+00  0.00000000E+00  0.00000000E+00
  0.00000000E+00  0.00000000E+00  0.00000000E+00  0.00000000E+00  0.00000000E+00
  0.00000000E+00  0.00000000E+00  0.00000000E+00  0.00000000E+00  0.00000000E+00
  0.00000000E+00  0.00000000E+00  0.00000000E+00  0.00000000E+00  0.00000000E+00
  0.00000000E+00  0.00000000E+00  0.00000000E+00  0.00000000E+00  0.00000000E+00
Gaussian Version                           C   N=           2
ES64L-G16RevC.01        
