nh3.xyz                                                                 
Freq      RB3LYP                                                      6-31G(d)            
Number of atoms                            I                4
Info1-9                                    I   N=           9
          12          12           0           0           0         100
           6          18        -502
Full Title                                 C   N=           1
nh3.xyz     
Route                                      C   N=           2
#p B3LYP/6-31G(d) Freq  
Charge                                     I                0
Multiplicity                               I                1
Number of electrons                        I               10
Number of alpha electrons                  I                5
Number of beta electrons                   I                5
Number of basis functions                  I               21
Number of independent functions            I               21
Number of point charges in /Mol/           I                0
Number of translation vectors              I                0
Atomic numbers                             I   N=           4
           7           1           1           1
Nuclear charges                            R   N=           4
  7.00000000E+00  1.00000000E+00  1.00000000E+00  1.00000000E+00
Current cartesian coordinates              R   N=          12
  2.03558105E-07  4.14047148E-07 -1.15008127E-06 -1.80108024E+00 -2.42150813E-01
 -6.01655879E-01  1.39502445E+00 -1.12101819E+00 -6.79512595E-01  4.06054368E-01
  1.36316610E+00  1.28117652E+00
Number of symbols in /Mol/                 I                0
Int Atom Types                             I   N=           4
           0           0           0           0
Force Field                                I                0
Atom Types                                 C   N=           4
                                                
MM charges                                 R   N=           4
  0.00000000E+00  0.00000000E+00  0.00000000E+00  0.00000000E+00
Integer atomic weights                     I   N=           4
          14           1           1           1
Real atomic weights                        R   N=           4
  1.40030740E+01  1.00782504E+00  1.00782504E+00  1.00782504E+00
Atom fragment info                         I   N=           4
           0           0           0           0
Atom residue num                           I   N=           4
           0           0           0           0
Nuclear spins                              I   N=           4
           2           1           1           1
Nuclear ZEff                               R   N=           4
 -4.55000000E+00 -1.00000000E+00 -1.00000000E+00 -1.00000000E+00
Nuclear ZNuc                               R   N=           4
  7.00000000E+00  1.00000000E+00  1.00000000E+00  1.00000000E+00
Nuclear QMom                               R   N=           4
  2.04400000E+00  0.00000000E+00  0.00000000E+00  0.00000000E+00
Nuclear GFac                               R   N=           4
  4.03761000E-01  2.79284600E+00  2.79284600E+00  2.79284600E+00
MicOpt                                     I   N=           4
          -1          -1          -1          -1
Number of residues                         I                0
Number of secondary structures             I                0
SymInf integers                            I   N=          26
           1           1           1           1           1           0
           0           0           0           0           0           0
           0           0           0           0           0           0
           0           0           0           0           0           0
           0           0
RotTr to input orientation                 R   N=          12
  7.99147070E-01 -5.51730902E-01 -2.38656600E-01 -1.34993214E-01  2.22159324E-01
 -9.65620043E-01  5.85782206E-01  8.03889449E-01  1.03058045E-01 -7.02301029E-01
  2.90879590E+00  5.66917837E-07
Number of contracted shells                I               10
Number of primitive shells                 I               23
Pure/Cartesian d shells                    I                1
Pure/Cartesian f shells                    I                0
Highest angular momentum                   I                2
Largest degree of contraction              I                6
Shell types                                I   N=          10
           0          -1          -1           2           0           0
           0           0           0           0
Number of primitives per shell             I   N=          10
           6           3           1           1           3           1
           3           1           3           1
Shell to atom map                          I   N=          10
           1           1           1           1           2           2
           3           3           4           4
Primitive exponents                        R   N=          23
  4.17351146E+03  6.27457911E+02  1.42902093E+02  4.02343293E+01  1.28202129E+01
  4.39043701E+00  1.16263619E+01  2.71627981E+00  7.72218397E-01  2.12031498E-01
  8.00000000E-01  1.87311370E+01  2.82539436E+00  6.40121692E-01  1.61277759E-01
  1.87311370E+01  2.82539436E+00  6.40121692E-01  1.61277759E-01  1.87311370E+01
  2.82539436E+00  6.40121692E-01  1.61277759E-01
Contraction coefficients                   R   N=          23
  1.83477216E-03  1.39946270E-02  6.85865518E-02  2.32240873E-01  4.69069948E-01
  3.60455199E-01 -1.14961182E-01 -1.69117479E-01  1.14585195E+00  1.00000000E+00
  1.00000000E+00  3.34946043E-02  2.34726953E-01  8.13757326E-01  1.00000000E+00
  3.34946043E-02  2.34726953E-01  8.13757326E-01  1.00000000E+00  3.34946043E-02
  2.34726953E-01  8.13757326E-01  1.00000000E+00
P(S=P) Contraction coefficients            R   N=          23
  0.00000000E+00  0.00000000E+00  0.00000000E+00  0.00000000E+00  0.00000000E+00
  0.00000000E+00  6.75797439E-02  3.23907296E-01  7.40895140E-01  1.00000000E+00
  0.00000000E+00  0.00000000E+00  0.00000000E+00  0.00000000E+00  0.00000000E+00
  0.00000000E+00  0.00000000E+00  0.00000000E+00  0.00000000E+00  0.00000000E+00
  0.00000000E+00  0.00000000E+00  0.00000000E+00
Coordinates of each shell                  R   N=          30
  2.03558105E-07  4.14047148E-07 -1.15008127E-06  2.03558105E-07  4.14047148E-07
 -1.15008127E-06  2.03558105E-07  4.14047148E-07 -1.15008127E-06  2.03558105E-07
  4.14047148E-07 -1.15008127E-06 -1.80108024E+00 -2.42150813E-01 -6.01655879E-01
 -1.80108024E+00 -2.42150813E-01 -6.01655879E-01  1.39502445E+00 -1.12101819E+00
 -6.79512595E-01  1.39502445E+00 -1.12101819E+00 -6.79512595E-01  4.06054368E-01
  1.36316610E+00  1.28117652E+00  4.06054368E-01  1.36316610E+00  1.28117652E+00
Num ILSW                                   I              100
ILSW                                       I   N=         100
           0           1           0           0           2           0
           0           0           0           0         402          -1
           5           0           0           0           2           0
           0           0           0           0           1           0
           1           0           0           0           0           0
           0           0      100000           0          -1           0
           0           0           0           0           0           0
           0           0           0           1           0           0
           0 -2000000000           1           0           0           0
           0           0           4          52           0           0
           0           0           5           0           0           0
           0           0           0           4           0           1
           0           0           0           0           0           0
           0           0           0           0           0           0
           0           0           0           0           0           0
           0           0           0           0           0           0
           0           0           0           0
Num RLSW                                   I               52
RLSW                                       R   N=          52
  8.00000000E-01  7.20000000E-01  1.00000000E+00  8.10000000E-01  2.00000000E-01
  0.00000000E+00  0.00000000E+00  1.00000000E+00  0.00000000E+00  0.00000000E+00
  0.00000000E+00  0.00000000E+00  1.00000000E+00  0.00000000E+00  0.00000000E+00
  0.00000000E+00  0.00000000E+00  1.00000000E+00  0.00000000E+00  0.00000000E+00
  0.00000000E+00  0.00000000E+00  1.00000000E+00  0.00000000E+00  0.00000000E+00
  0.00000000E+00  0.00000000E+00  1.00000000E+00  0.00000000E+00  0.00000000E+00
  0.00000000E+00  0.00000000E+00  1.00000000E+00  0.00000000E+00  0.00000000E+00
  0.00000000E+00  0.00000000E+00  0.00000000E+00  1.00000000E+00  1.00000000E+00
  0.00000000E+00  1.00000000E+00  0.00000000E+00  0.00000000E+00  0.00000000E+00
  0.00000000E+00  0.00000000E+00  0.00000000E+00  0.00000000E+00  0.00000000E+00
  0.00000000E+00  0.00000000E+00
MxBond                                     I                3
NBond                                      I   N=           4
           3           1           1           1
IBond                                      I   N=          12
           2           3           4           1           0           0
           1           0           0           1           0           0
RBond                                      R   N=          12
  1.00000000E+00  1.00000000E+00  1.00000000E+00  1.00000000E+00  0.00000000E+00
  0.00000000E+00  1.00000000E+00  0.00000000E+00  0.00000000E+00  1.00000000E+00
  0.00000000E+00  0.00000000E+00
Virial Ratio                               R      2.010669859867915E+00
SCF Energy                                 R     -5.653736156887116E+01
Total Energy                               R     -5.653736156887116E+01
RMS Force                                  R      5.398676443081014E-03
RMS Density                                R      1.250870023731071E-09
NImag                                      I                1
Job Status                                 I                1
Nuclear derivative order                   I                2
Thermal Energy                             R     -5.650229007251323E+01
Thermal Enthalpy                           R     -5.650134588769959E+01
Thermal Free Energy                        R     -5.652417553949662E+01
External E-field                           R   N=          35
  0.00000000E+00  0.00000000E+00  0.00000000E+00  0.00000000E+00  0.00000000E+00
  0.00000000E+00  0.00000000E+00  0.00000000E+00  0.00000000E+00  0.00000000E+00
  0.00000000E+00  0.00000000E+00  0.00000000E+00  0.00000000E+00  0.00000000E+00
  0.00000000E+00  0.00000000E+00  0.00000000E+00  0.00000000E+00  0.00000000E+00
  0.00000000E+00  0.00000000E+00  0.00000000E+00  0.00000000E+00  0.00000000E+00
  0.00000000E+00  0.00000000E+00  0.00000000E+00  0.00000000E+00  0.00000000E+00
  0.00000000E+00  0.00000000E+00  0.00000000E+00  0.00000000E+00  0.00000000E+00
IOpCl                                      I                0
IROHF                                      I                0
Alpha Orbital Energies                     R   N=          21
 -1.42893705E+01 -8.15816747E-01 -4.64216907E-01 -4.64216439E-01 -2.13280091E-01
  8.50026041E-02  1.77551553E-01  1.77551766E-01  7.21111858E-01  7.26633012E-01
  7.26634026E-01  7.87803000E-01  9.34658255E-01  9.34658844E-01  1.09195001E+00
  1.71094084E+00  1.71094108E+00  2.16640803E+00  2.33534360E+00  2.33534486E+00
  3.69407465E+00
Alpha MO coefficients                      R   N=         441
  9.92659354E-01  3.46294058E-02  1.70044180E-10 -4.05811515E-09  7.09994396E-09
  4.41124787E-03 -4.96392914E-10  5.70966501E-10 -2.13798177E-09 -8.27728034E-03
 -8.30207706E-03 -8.31012973E-03 -7.53682900E-06  8.60986464E-06  3.48355336E-05
  2.95165920E-04 -5.56606246E-04  2.95166068E-04 -5.56605925E-04  2.95165480E-04
 -5.56604339E-04 -2.04017578E-01  4.26289449E-01  7.06047432E-08 -4.56119289E-07
  5.05766306E-07  4.31949238E-01 -1.51781490E-08 -1.71461087E-07  2.89515732E-07
  1.40636654E-02 -7.83243978E-06 -4.57766327E-03 -4.27712527E-03  4.88584400E-03
  1.97684847E-02  1.36922757E-01  1.80767816E-02  1.36922998E-01  1.80767980E-02
  1.36922783E-01  1.80767563E-02  3.81776465E-08 -7.26286730E-08  4.45379780E-01
 -1.66411608E-01 -4.93152376E-02 -2.03220787E-07  2.30029369E-01 -8.59481023E-02
 -2.54702676E-02 -5.00876121E-03  5.37832037E-03 -3.69582280E-04 -1.29754562E-02
 -1.26098300E-02  2.62910676E-03 -2.27776176E-01 -1.35255549E-01  2.61740409E-01
  1.55423700E-01 -3.39643565E-02 -2.01683738E-02  5.62509635E-08 -1.33674827E-07
  1.55646231E-01  3.22837382E-01  3.16288196E-01 -1.40955580E-07  8.03881271E-02
  1.66738902E-01  1.63356399E-01 -1.54448303E-02  7.97915759E-03  7.46570500E-03
  6.32128963E-03  1.67518140E-03  9.43340806E-03 -1.70725098E-01 -1.01378269E-01
 -1.11897227E-01 -6.64456681E-02  2.82622496E-01  1.67824110E-01  4.28716634E-07
 -9.37531892E-07 -9.65566947E-02 -3.90674609E-01  4.46279842E-01 -1.90550428E-06
 -8.77306995E-02 -3.54964044E-01  4.05486594E-01 -6.08459666E-08  7.44966370E-08
  1.26394011E-07  2.49738771E-08 -3.17593410E-08 -1.87521379E-07  3.77613720E-07
  3.45377155E-07  3.81238488E-07  3.88279500E-07  3.70528634E-07  3.49438226E-07
 -1.42720873E-01  2.11164921E-01 -6.22974797E-07 -3.98502877E-07  1.07149136E-06
  1.85579466E+00 -1.14751292E-06 -9.16992532E-07  2.39978907E-06 -2.83165865E-02
 -3.34702846E-02 -3.51440081E-02 -1.56651014E-03  1.78945595E-03  7.24030372E-03
 -8.24453661E-02 -9.11636442E-01 -8.24450659E-02 -9.11634588E-01 -8.24450991E-02
 -9.11635564E-01 -9.10011451E-09  8.89597746E-08 -2.19443147E-01 -2.26985767E-01
 -2.46182472E-01 -1.90802940E-07 -6.05628059E-01 -6.26444077E-01 -6.79423993E-01
 -5.08359706E-03  2.84517855E-03  2.23843333E-03  9.02943053E-04 -4.79689605E-04
  3.07122238E-03 -6.55328997E-02 -1.32236269E+00 -1.26630179E-02 -2.55516864E-01
  7.81956072E-02  1.57788032E+00  1.54067057E-07 -1.97161380E-07 -3.28618446E-01
  2.02525728E-01  1.06191977E-01 -3.23576311E-06 -9.06935783E-01  5.58939199E-01
  2.93073139E-01 -3.10549734E-04  1.00802544E-03 -6.97321697E-04 -4.43633072E-03
 -3.96130766E-03  5.91042183E-05 -5.24567076E-02 -1.05851248E+00  8.29812016E-02
  1.67445944E+00 -3.05245237E-02 -6.15942885E-01 -2.16120417E-07  7.26294841E-07
  1.61330359E-01  6.52752709E-01 -7.45661407E-01  1.40218932E-06 -1.66294609E-01
 -6.72837918E-01  7.68608985E-01  3.95591340E-07 -8.16356006E-09  4.75824384E-08
 -1.67034510E-07 -1.30987440E-07 -3.59159546E-07 -3.10920832E-07 -3.02078163E-07
 -1.24152079E-07 -1.45426805E-07 -2.91168617E-06 -8.41406703E-07  5.80768820E-07
  7.38997436E-07 -7.04876450E-02 -2.93276044E-01 -2.71982085E-01 -5.16510240E-06
  2.45187819E-01  1.02014844E+00  9.46086027E-01  1.46304397E-01 -7.10996096E-02
 -7.52033939E-02 -8.40272730E-02 -3.70064546E-02 -9.00494336E-02  3.53937794E-01
  7.40700284E-02  4.06438687E-01  8.50598402E-02 -7.60361959E-01 -1.59135828E-01
  6.01347513E-08 -2.46906896E-07 -3.94622495E-01  9.60499416E-02 -1.29788385E-03
  1.16045080E-06  1.37268612E+00 -3.34107924E-01  4.51419788E-03  7.48784058E-02
 -6.65733700E-02 -8.30484346E-03  1.19514961E-01  1.23329933E-01 -4.14357543E-02
  6.73653466E-01  1.40989969E-01 -6.43340242E-01 -1.34648899E-01 -3.03110283E-02
 -6.34370740E-03  8.33685497E-02 -5.59904537E-02  2.41763362E-06  2.85118767E-06
  1.79963848E-07 -4.04609434E-01 -6.03561934E-06 -6.74519807E-06 -7.20990380E-06
  1.23972032E-01  1.37343124E-02 -2.20668325E-02 -3.35072903E-02  3.82772844E-02
  1.54872077E-01  7.15329528E-01 -3.28135911E-01  7.15329013E-01 -3.28130430E-01
  7.15337888E-01 -3.28130654E-01 -1.07143960E-08  3.98996904E-07  5.28388568E-01
  5.72973763E-01  6.15904446E-01 -9.14456521E-07 -7.41143413E-01 -8.03680838E-01
 -8.63897482E-01  1.18597823E-01 -6.59916524E-02 -5.26060083E-02 -2.31234874E-02
  9.38657125E-03 -7.17096609E-02  4.50118636E-01 -1.11965532E+00  9.97344147E-02
 -2.48086828E-01 -5.49853898E-01  1.36774346E+00 -1.78141978E-07 -1.46292618E-06
  8.25929476E-01 -4.91370745E-01 -2.51449899E-01  4.33457778E-06 -1.15848784E+00
  6.89219939E-01  3.52695609E-01  9.58668119E-03 -2.48512164E-02  1.52634222E-02
  1.03210918E-01  9.27456526E-02 -2.78949208E-03  3.75039800E-01 -9.32900329E-01
 -5.77336446E-01  1.43610006E+00  2.02293458E-01 -5.03201040E-01 -4.36670966E-02
 -1.68224588E+00 -6.79164554E-07  1.01523181E-06 -6.84612107E-07  3.99997358E+00
  1.23304137E-06 -1.87717516E-06  3.25149343E-06 -3.28682070E-01 -2.84039751E-01
 -2.69541732E-01  1.35690476E-02 -1.55009667E-02 -6.27171356E-02  3.89781301E-02
 -9.18634532E-01  3.89794263E-02 -9.18638274E-01  3.89770499E-02 -9.18634783E-01
  9.93581662E-10 -1.02446120E-10 -1.54118322E-07  7.74256439E-08  9.68963559E-09
 -9.89664070E-09 -6.05743193E-07  2.32110446E-07  6.92400153E-08 -2.56355454E-01
  4.15549510E-01 -1.59194047E-01 -5.39548193E-01  7.03971316E-01 -1.93607750E-01
 -4.51642789E-07 -7.55626872E-08  5.26436553E-07  8.91555288E-08 -7.66978024E-08
 -8.28882783E-09  1.18306912E-09  4.62184902E-09 -5.40365221E-08 -1.14808336E-07
 -9.91837608E-08 -2.40930819E-08 -2.32426060E-07 -4.26160780E-07 -4.56385095E-07
 -9.86623224E-02 -7.47912308E-01  8.46574647E-01 -3.37207025E-01  1.57537764E-01
  6.53921796E-02 -3.50851878E-07 -6.36668027E-08 -2.15332682E-07 -2.94832711E-08
  5.64115438E-07  1.07435032E-07 -5.31758009E-02 -3.36117279E-01  1.15279194E-07
 -3.13693926E-07  1.09041125E-07  1.24919322E+00 -7.53926222E-07  1.91418130E-06
  4.36294524E-06  4.54914299E-01 -2.00923217E-01 -4.13912217E-01 -1.99343457E-01
  2.27721381E-01  9.21368549E-01 -5.13746169E-01 -1.04380401E-01 -5.13743595E-01
 -1.04380561E-01 -5.13749504E-01 -1.04381748E-01 -8.88989449E-08 -2.37390000E-07
  6.41774202E-02 -3.71359949E-03  1.06344699E-02  2.21029482E-06  8.45333191E-01
 -4.89135926E-02  1.40076399E-01 -6.50249524E-01  4.92985167E-01  1.57264200E-01
 -5.79442847E-01 -6.69690556E-01  3.72956516E-01  9.06900085E-01  9.69749142E-02
 -6.47594193E-01 -6.92485357E-02 -2.59308083E-01 -2.77274387E-02 -3.15207199E-07
 -5.52985333E-07  4.15621403E-03 -4.93704221E-02 -4.23197782E-02  5.28390766E-06
  5.47426685E-02 -6.50292070E-01 -5.57423382E-01  7.49720933E-01 -3.20767739E-01
 -4.28954266E-01 -6.65219769E-01 -3.95030925E-01 -4.68167909E-01 -2.24179188E-01
 -2.39702085E-02 -6.73313982E-01 -7.19968274E-02  8.97485071E-01  9.59663864E-02
 -4.62941963E-01  1.18840568E+00 -1.06994936E-07  3.99970592E-07 -3.96917744E-07
  3.10993153E+00 -6.64470096E-09 -4.68398010E-07  1.63993715E-06 -1.52417597E+00
 -1.50895931E+00 -1.50401761E+00  4.62543075E-03 -5.28311397E-03 -2.13766296E-02
  1.95265215E-01 -5.63329978E-01  1.95265884E-01 -5.63330723E-01  1.95264596E-01
 -5.63329995E-01
Orthonormal basis                          R   N=         441
  3.11948823E-02  1.57031699E-01  1.90835137E-05  1.90139676E-05  2.09141781E-05
  1.90531747E-01  3.07410414E-05  3.06425659E-05  3.37317263E-05  1.37915889E-01
  1.32247195E-01  1.30398417E-01 -2.79842012E-03  3.19835489E-03  1.29614800E-02
  8.78981157E-02  1.35739599E-01  8.80242043E-02  1.35780030E-01  8.82292700E-02
  1.35845700E-01  1.95250557E-05  6.96542548E-05  2.04882047E-01 -1.44580051E-01
 -8.22376877E-02  6.15907115E-05  2.84181536E-01 -2.00539666E-01 -1.14067725E-01
  8.10388138E-04  7.59174321E-03 -8.25345355E-03 -7.90793088E-02 -6.88839649E-02
 -3.13383305E-03 -1.60556138E-01 -1.18262765E-01  2.84055750E-01  2.09442774E-01
 -1.23745739E-01 -9.11309869E-02 -3.18247903E-04 -1.13130342E-03  1.63398080E-01
  1.41153229E-01  1.58918583E-01 -9.97785101E-04  2.26250898E-01  1.95449303E-01
  2.20048293E-01 -4.97275329E-02  2.72259684E-02  2.00905813E-02  9.83542016E-03
 -1.37593160E-02  5.47548033E-02 -2.33205496E-01 -1.75403388E-01 -1.98322356E-02
 -1.60715291E-02  2.57052303E-01  1.90685339E-01 -5.60849509E-07 -1.28801837E-06
 -9.21771575E-02 -3.72954629E-01  4.26037681E-01 -6.64142944E-07 -9.21771606E-02
 -3.72954632E-01  4.26037677E-01 -5.46591923E-07 -8.16180332E-07 -9.06928249E-07
 -2.05665132E-07  2.36000815E-07  9.67686491E-07  9.52198015E-07  5.33592492E-07
  9.65977442E-07  5.16994159E-07  9.88520753E-07  4.89837833E-07 -2.34517583E-01
 -2.16581852E-01 -5.28665760E-02 -5.97581844E-02 -6.37535482E-02 -6.33344282E-02
 -4.29847516E-02 -4.85879962E-02 -5.18363100E-02 -4.80854952E-02 -9.15552641E-02
 -1.26684253E-01 -1.04122803E-01  1.46967866E-01  7.34962841E-01  1.52741923E-01
  7.49395350E-02  1.90568067E-01  6.42396240E-02  2.65608922E-01  4.30131804E-02
  1.05678412E-02  7.39628845E-03  2.31907942E-01 -1.57270971E-01 -8.74999710E-02
  1.75663837E-03  1.75795198E-01 -1.19217461E-01 -6.63283529E-02  8.09871037E-04
 -1.60847016E-02  2.30707897E-02  6.37381315E-01  5.46494928E-01 -1.40721778E-02
  1.08868937E-01 -2.81308402E-02 -2.03080528E-01  4.17359559E-02  7.55583227E-02
 -2.06701930E-02 -3.67991991E-01 -8.84676497E-02  9.87595001E-02  8.78838500E-02
  9.83006253E-02 -4.41405881E-03  6.37101467E-02  5.66942345E-02  6.34142265E-02
  1.10772032E-01 -5.17690932E-02 -4.88648240E-02 -5.21074873E-01  6.07590196E-01
 -3.36260813E-01  1.31029429E-01  2.57000368E-02  4.72247382E-02  3.62916043E-02
 -6.65906146E-02  5.06759484E-02  8.46160674E-01  9.94119439E-02 -2.75765015E-03
 -2.48660636E-03 -2.77307160E-03 -1.40592035E-02 -1.69641966E-03 -1.52965016E-03
 -1.70598449E-03 -6.61969884E-02 -6.07882306E-02 -6.06975244E-02 -3.17621541E-01
  3.57514494E-01  1.63547048E-01  5.55883167E-03 -5.01990644E-02  7.88868550E-03
 -5.04399676E-02  1.11177434E-02 -5.07738060E-02 -2.02859090E-01  2.51097307E-01
 -2.54061001E-01 -2.28905440E-01 -2.55350633E-01  8.28089432E-03 -7.81962884E-02
 -7.04539869E-02 -7.85936406E-02 -4.42005833E-01  4.34027951E-01  4.46933327E-01
 -1.89773467E-01  2.13948169E-01  8.65856264E-02 -3.54331820E-01 -1.60700245E-01
 -1.67145774E-01 -1.35699797E-01  9.19775280E-02 -1.01091850E-01 -1.53809582E-01
  5.12386704E-01  2.39515347E-01  1.71614191E-01  2.02056812E-01 -9.00395938E-02
 -9.23515364E-03 -6.61720263E-03 -7.79150586E-03  5.62609094E-01 -5.26308839E-02
  2.38656285E-01 -4.06466673E-02  7.96982174E-03  3.60940528E-01  5.63108757E-02
 -2.90352437E-01 -6.15531237E-02 -3.66364906E-01 -1.76790897E-01 -4.40685004E-01
 -1.97368060E-02  1.06896008E-01 -3.92257355E-01  2.85360065E-01  1.64937369E-01
 -3.05054327E-02  9.67884911E-02 -7.04117794E-02 -4.06979125E-02  1.22073654E-01
  7.37901484E-01 -7.11371280E-01  1.50420623E-01  1.32621737E-01  1.31694755E-02
 -4.18693288E-02 -1.83659120E-01  1.16025464E-01  8.55459637E-02 -3.17629719E-02
 -1.66427799E-01 -5.98716129E-03  4.35229462E-02  6.87611784E-01 -4.99288962E-01
 -2.88307556E-01 -1.49989366E-02 -2.50160772E-01  1.81646645E-01  1.04889256E-01
  6.28037358E-02  4.28935819E-01 -4.32345366E-01 -1.56198955E-01 -1.37613505E-01
 -1.32113161E-02  5.62932121E-02  1.55817311E-01 -6.89549529E-02 -3.91939314E-01
  4.81309043E-02  1.20116476E-01  9.15638686E-03 -9.04483101E-02  5.55224473E-01
  4.65616458E-01  5.27729063E-01  3.59500589E-02 -2.61023321E-01 -2.18896329E-01
 -2.48096784E-01 -4.94287598E-01  2.46411709E-01  1.25933708E-01  2.40596193E-03
 -6.60607551E-03  6.92660712E-02 -4.61739966E-02  4.17704562E-01 -3.67738603E-02
  1.10284140E-01 -2.51180658E-02 -2.70967065E-01  2.45242082E-07 -2.44398280E-06
 -1.63872155E-01 -6.63037384E-01  7.57408421E-01  1.33581563E-06  1.63872140E-01
  6.63037368E-01 -7.57408438E-01 -9.59250142E-07 -7.04209185E-07 -5.83127556E-07
  5.12929033E-08 -6.23594462E-08 -2.84408023E-07  6.80480131E-09  1.25954688E-06
  3.72432657E-08  1.23939190E-06  9.02227031E-08  1.20430768E-06  1.22796326E-01
 -1.80886434E-01 -7.12873058E-04 -7.42690106E-04 -8.04880340E-04 -2.33596267E-01
 -4.30279576E-02 -4.48867743E-02 -4.86057145E-02 -1.71589646E-01  1.59090298E-01
  3.16694855E-01  9.58332839E-02 -1.16606302E-01 -5.32338709E-01  7.31066509E-01
 -3.99474522E-01  8.03321530E-01 -4.31473918E-01  9.29193048E-01 -4.87219625E-01
  9.01160189E-04 -2.87685516E-03 -1.12622729E-01  7.91720155E-02  4.49404487E-02
 -6.42420361E-04 -5.33621955E-01  3.75130886E-01  2.12936655E-01 -1.06252566E-02
 -1.15126360E-01  1.28945936E-01  5.58691857E-01  4.85905093E-01  1.87629999E-02
 -7.38913511E-01  3.44194390E-01  1.31593952E+00 -6.13777263E-01 -5.64003097E-01
  2.62649957E-01  1.25010871E-02 -4.34178346E-02  9.77670193E-02  8.47961048E-02
  9.53834752E-02 -6.20799586E-03  3.84966619E-01  3.33895716E-01  3.75584124E-01
 -7.15844561E-01  4.29427962E-01  3.34715408E-01  7.43169533E-02 -1.00076275E-01
  3.38169960E-01  1.12087984E+00 -5.41003840E-01  1.53380431E-01 -7.71056447E-02
 -1.10983244E+00  5.28578837E-01 -3.61689388E-01  1.98906874E+00  2.13688325E-03
  2.12161842E-03  2.31998644E-03 -3.41319779E-01 -4.47098290E-04 -4.43686477E-04
 -4.87882079E-04 -1.08595193E+00 -9.39244951E-01 -8.94931192E-01  3.96306167E-02
 -4.48932175E-02 -1.76589308E-01  3.05292344E-01  1.85318421E-01  2.96922874E-01
  1.92904625E-01  2.83447598E-01  2.05119739E-01 -4.29193389E-05  2.32568643E-04
  4.24847846E-01 -2.99812758E-01 -1.70537232E-01  2.46591040E-05 -1.76674852E+00
  1.24678749E+00  7.09189147E-01 -4.25336068E-03 -3.96530722E-02  4.34094249E-02
  2.15605165E-01  1.87734572E-01  8.38000765E-03 -6.90394221E-02 -1.19199703E+00
  1.22821953E-01  2.11046752E+00 -5.31629410E-02 -9.18635135E-01  6.90431097E-04
 -3.75562880E-03  3.32113260E-01  2.86888950E-01  3.22999089E-01 -3.94794479E-04
 -1.38953330E+00 -1.20032244E+00 -1.35140366E+00  2.64042544E-01 -1.46630477E-01
 -1.09397228E-01 -2.77185796E-02  3.86313039E-02 -1.48321971E-01 -1.14501598E-01
 -1.74376855E+00 -1.33866340E-02 -1.56547834E-01  1.17828182E-01  1.90299575E+00
 -3.93066834E-01 -3.98039955E-01  1.13328141E-05  1.21258826E-05  1.16889091E-05
  5.55013195E+00 -5.09517370E-04 -5.12764461E-04 -5.52588568E-04 -1.07228899E+00
 -1.16191326E+00 -1.19081137E+00 -2.67926526E-02  3.05790821E-02  1.23389526E-01
  3.95260845E-03 -1.29849896E+00  4.41672166E-03 -1.29826864E+00  5.17009335E-03
 -1.29788514E+00
Total SCF Density                          R   N=         231
  2.05399153E+00 -1.05190675E-01  3.65843781E-01 -5.97449433E-08  1.34951202E-07
  4.63824185E-01 -1.33307933E-07  2.81243116E-07  2.77086110E-02  5.69086897E-01
  2.22197953E-07 -4.82501894E-07 -3.16525008E-02 -1.28067843E-01  6.03271826E-01
 -1.67492742E-01  3.68576324E-01  2.04075953E-07  1.07141285E-06 -1.33290433E-06
  3.73199207E-01 -4.34077211E-08  9.66205148E-08  2.46867050E-01  4.38937843E-02
 -5.01411599E-02  2.05069879E-07  1.34144874E-01 -2.21066423E-07  4.87342669E-07
  4.38937794E-02  4.13615504E-01 -2.02874400E-01  1.19257840E-06  4.95489686E-02
  3.22376821E-01  2.41733643E-07 -5.53599830E-07 -5.01411591E-02 -2.02874432E-01
  4.67768532E-01 -1.33091936E-06 -5.66012342E-02 -2.29012347E-01  3.83506851E-01
 -2.21715115E-02  1.14171146E-02 -9.26944745E-03 -8.30527036E-03 -9.27605874E-03
  1.20765592E-02 -4.78747606E-03 -4.28948269E-03 -4.79091592E-03  1.05986105E-03
 -1.64790717E-02 -5.81672679E-04  7.27462750E-03  3.36185268E-03  4.51702680E-03
 -8.00159079E-05  3.75718928E-03  1.73630620E-03  2.33297883E-03 -1.63133982E-04
  3.23035661E-04 -1.46304077E-02 -4.47837076E-03  1.99478368E-03  4.94332836E-03
  4.75918888E-03 -4.02795436E-03  1.03025650E-03  2.55308853E-03  2.45806798E-03
 -2.18097697E-04  2.53218993E-04  2.91773199E-04  1.73025419E-03 -3.64710855E-03
 -9.59024723E-03  8.40001462E-03  5.27849197E-03 -3.69506501E-03 -4.95316297E-03
  4.33842519E-03  2.72624068E-03 -1.85459917E-04 -3.85030448E-05  1.43260507E-04
  4.53230046E-04 -1.97650357E-03  4.16616519E-03 -1.07108484E-02  5.27848688E-03
  2.30337033E-03  4.22095381E-03 -5.53192765E-03  2.72623860E-03  1.18963176E-03
  2.11856688E-04 -1.09125834E-04 -1.05410357E-05  3.06620343E-04  3.71371182E-04
 -7.99707584E-03  1.68566027E-02  5.27848980E-03  5.21601424E-03  5.70789382E-03
  1.70782674E-02  2.72624385E-03  2.69402508E-03  2.94794641E-03  2.37726113E-04
  1.77933570E-04 -4.26551671E-05 -1.18070206E-04  1.58472226E-04  9.73391180E-04
 -5.52833368E-02  1.16757975E-01 -2.56039296E-01 -3.44241077E-02 -8.55305184E-02
  1.18290106E-01 -1.32239032E-01 -1.77794856E-02 -4.41746486E-02  1.14017786E-02
 -5.18163727E-03 -3.63928064E-03  2.58131798E-03  6.51041825E-03  9.94796624E-04
  1.99553948E-01 -8.48102494E-03  1.53733794E-02 -1.52038528E-01 -2.04414894E-02
 -5.07888540E-02  1.56116770E-02 -7.85247765E-02 -1.05577384E-02 -2.62312973E-02
  5.00413180E-03 -3.06376291E-03 -1.56999229E-03  2.07369716E-03  3.24807606E-03
 -1.90922533E-03  1.01181530E-01  5.77973935E-02 -5.52833909E-02  1.16758094E-01
  1.98314954E-01 -1.59362923E-01 -9.65986466E-02  1.18290099E-01  1.02425474E-01
 -8.23077423E-02 -4.98910643E-02  4.68086908E-03  1.02271046E-03 -3.12273311E-03
 -9.37835006E-03 -5.63792653E-03  4.67868350E-03 -4.35332059E-02 -4.31658654E-02
  1.99554052E-01 -8.48100487E-03  1.53733419E-02  1.17761039E-01 -9.46312267E-02
 -5.73611097E-02  1.56115632E-02  6.08210771E-02 -4.88751816E-02 -2.96256913E-02
  1.01319018E-03  6.20434792E-04 -1.26325926E-03 -5.02805652E-03 -3.96571873E-03
  2.78295829E-04 -4.31658245E-02 -2.79173819E-02  1.01181428E-01  5.77972678E-02
 -5.52832824E-02  1.16757848E-01  5.77241250E-02  1.93785925E-01  1.82130709E-01
  1.18289922E-01  2.98133180E-02  1.00086363E-01  9.40669287E-02 -4.54348819E-03
  4.13779063E-03  2.98657909E-03  3.28320710E-03  3.14142922E-03  1.05671272E-02
 -4.35330997E-02 -4.31659054E-02 -4.35331062E-02 -4.31658907E-02  1.99553976E-01
 -8.48097176E-03  1.53732693E-02  3.42771437E-02  1.15072006E-01  1.08151117E-01
  1.56115325E-02  1.77034333E-02  5.94322283E-02  5.58579662E-02 -4.46432741E-03
  2.47020486E-03  2.36451064E-03  2.49049260E-03  1.24754202E-03  3.77491839E-03
 -4.31659149E-02 -2.79175077E-02 -4.31659432E-02 -2.79174974E-02  1.01181660E-01
  5.77975482E-02
Grdnt Energy                               R     -5.653736156887116E+01
Grdnt NVar                                 I                0
Grdnt IGetFC                               I                4
Mulliken Charges                           R   N=           4
 -9.54212510E-01  3.18070868E-01  3.18070964E-01  3.18070678E-01
ONIOM Charges                              I   N=          16
           0           0           0           0           0           0
           0           0           0           0           0           0
           0           0           0           0
ONIOM Multiplicities                       I   N=          16
           1           0           0           0           0           0
           0           0           0           0           0           0
           0           0           0           0
Atom Layers                                I   N=           4
           1           1           1           1
Atom Modifiers                             I   N=           4
           0           0           0           0
Int Atom Modified Types                    I   N=           4
           0           0           0           0
Force Field                                I                0
Atom Modified Types                        C   N=           4
                                                
Link Atoms                                 I   N=           4
           0           0           0           0
Atom Modified MM Charges                   R   N=           4
  0.00000000E+00  0.00000000E+00  0.00000000E+00  0.00000000E+00
Link Distances                             R   N=          16
  0.00000000E+00  0.00000000E+00  0.00000000E+00  0.00000000E+00  0.00000000E+00
  0.00000000E+00  0.00000000E+00  0.00000000E+00  0.00000000E+00  0.00000000E+00
  0.00000000E+00  0.00000000E+00  0.00000000E+00  0.00000000E+00  0.00000000E+00
  0.00000000E+00
Cartesian Gradient                         R   N=          12
  4.34583128E-07 -1.00092475E-06 -7.89142454E-07 -1.01590632E-02 -1.36555675E-03
 -3.39349841E-03  7.86832757E-03 -6.32240947E-03 -3.83239574E-03  2.29030109E-03
  7.68896715E-03  7.22668329E-03
Cartesian Force Constants                  R   N=          78
  7.76756740E-01 -8.97444752E-02  4.35841295E-01  1.02513561E-01  4.14789335E-01
  3.25119304E-01 -4.10097212E-01 -3.51102908E-02 -1.23800733E-01  4.22211782E-01
 -3.51109213E-02 -4.17419709E-02 -6.16947312E-02  4.15487528E-02  4.18725262E-02
 -1.23800591E-01 -6.16949243E-02 -6.07361961E-02  1.28351464E-01  4.82061148E-02
  6.70431465E-02 -2.75612422E-01  1.72127257E-01  8.67077931E-02 -1.27598504E-02
  1.78313259E-02  1.47016817E-02  2.77959647E-01  1.72127833E-01 -1.65883468E-01
 -1.25527673E-01 -8.33417600E-03  2.19823006E-03  7.61948218E-03 -1.80741301E-01
  1.75030469E-01  8.67079838E-02 -1.25527840E-01 -7.10709452E-02 -8.20288428E-03
  1.32804004E-02  1.28531163E-03 -9.74469454E-02  1.16675200E-01  7.81290914E-02
 -9.10471057E-02 -4.72724907E-02 -6.54206207E-02  6.45280627E-04 -2.42691574E-02
 -1.92525543E-02  1.04126260E-02  1.69476441E-02  1.89418459E-02  7.99891990E-02
 -4.72724360E-02 -2.28215856E-01 -2.27566931E-01  1.89571402E-03 -2.32878538E-03
  5.86932736E-03 -9.21728197E-03 -1.13452307E-02 -4.42776070E-03  5.45940040E-02
  2.41889872E-01 -6.54209534E-02 -2.27566571E-01 -1.93312163E-01  3.65215369E-03
  2.08216007E-04 -7.59226204E-03 -3.96252939E-03  1.23299047E-03 -8.34345786E-03
  6.57313290E-02  2.26125364E-01  2.09247883E-01
Nonadiabatic coupling                      R   N=          12
  0.00000000E+00  0.00000000E+00  0.00000000E+00  0.00000000E+00  0.00000000E+00
  0.00000000E+00  0.00000000E+00  0.00000000E+00  0.00000000E+00  0.00000000E+00
  0.00000000E+00  0.00000000E+00
Dipole Moment                              R   N=           3
 -7.46173591E-07 -2.50946094E-06  3.84694633E-06
Dipole Derivatives                         R   N=          36
 -4.36855828E-01 -8.16449316E-02  9.32661048E-02 -8.16459568E-02 -7.47017877E-01
  3.77360383E-01  9.32656444E-02  3.77360857E-01 -8.47747460E-01  1.35444060E-01
  2.28380422E-02 -3.71210663E-02  2.28382897E-02  2.55974464E-01 -1.20633565E-01
 -3.71203587E-02 -1.20633652E-01  2.85788949E-01  1.44495016E-01  3.67869464E-02
 -2.29531053E-02  3.67873543E-02  2.47618882E-01 -1.24929929E-01 -2.29535013E-02
 -1.24929539E-01  2.85093679E-01  1.56916752E-01  2.20199430E-02 -3.31919332E-02
  2.20203128E-02  2.43424531E-01 -1.31796889E-01 -3.31917843E-02 -1.31797665E-01
  2.76864832E-01
Polarizability                             R   N=           6
  8.82048924E+00 -5.25388775E-01  6.82456158E+00  6.00175222E-01  2.42833773E+00
  6.17637588E+00
Quadrupole Moment                          R   N=           6
  8.78817964E-01 -2.55259028E-01 -6.23558935E-01 -2.98526468E-01  3.41015202E-01
  1.37976839E+00
QEq coupling tensors                       R   N=          24
 -6.38927135E-01  2.17037701E-01  1.85580695E-01 -2.47929384E-01 -1.00313700E+00
  4.53346441E-01 -3.33060626E-01 -5.65686053E-02  1.83691929E-01 -1.74399542E-01
 -6.51485304E-02  1.49368697E-01 -1.36961088E-01  2.45635256E-01  2.66394511E-03
  1.32575256E-01 -1.58236489E-01  1.34297143E-01  1.32185168E-01 -7.43054642E-02
 -8.82290865E-02 -8.92683360E-02 -3.07027889E-01 -4.39560814E-02
Number of Normal Modes                     I                6
Vib-LE2Fix                                 I               14
Vib-NDFDPol                                I                0
Vib-NumROA                                 I                0
Vib-NDim                                   I                4
Vib-NDim0                                  I                4
Vib-LFlags                                 I                8
Vib-IFlags                                 I   N=          48
           0           0           1           0           0           0
           0           0           0           0           2           0
           0           0           0           0           0           0
           3           0           0           0           0           0
           0           0           4           0           0           0
           0           0           0           0           5           0
           0           0           0           0           0           0
           6           0           0           0           0           0
Vib-AtMass                                 R   N=           4
  1.40030740E+01  1.00782504E+00  1.00782504E+00  1.00782504E+00
Vib-E2                                     R   N=          84
 -7.99618946E+02  1.62809586E+03  1.62812627E+03  3.50331465E+03  3.69459339E+03
  3.69460688E+03  1.20667817E+00  1.09226352E+00  1.09226181E+00  1.00782504E+00
  1.10445229E+00  1.10445171E+00  4.54577368E-01  1.70583718E+00  1.70589824E+00
  7.28775285E+00  8.88240270E+00  8.88246290E+00  5.62932481E+02  3.78513666E+01
  3.78506730E+01  1.22010256E-07  3.06914361E+01  3.06911098E+01  0.00000000E+00
  0.00000000E+00  0.00000000E+00  0.00000000E+00  0.00000000E+00  0.00000000E+00
  0.00000000E+00  0.00000000E+00  0.00000000E+00  0.00000000E+00  0.00000000E+00
  0.00000000E+00  0.00000000E+00  0.00000000E+00  0.00000000E+00  0.00000000E+00
  0.00000000E+00  0.00000000E+00  0.00000000E+00  0.00000000E+00  0.00000000E+00
  0.00000000E+00  0.00000000E+00  0.00000000E+00  0.00000000E+00  0.00000000E+00
  0.00000000E+00  0.00000000E+00  0.00000000E+00  0.00000000E+00  1.00000000E+02
  1.00000000E+02  1.00000000E+02  1.00000000E+02  1.00000000E+02  1.00000000E+02
  0.00000000E+00  0.00000000E+00  0.00000000E+00  0.00000000E+00  0.00000000E+00
  0.00000000E+00  0.00000000E+00  0.00000000E+00  0.00000000E+00  0.00000000E+00
  0.00000000E+00  0.00000000E+00  0.00000000E+00  0.00000000E+00  0.00000000E+00
  0.00000000E+00  0.00000000E+00  0.00000000E+00  0.00000000E+00  0.00000000E+00
  0.00000000E+00  0.00000000E+00  0.00000000E+00  0.00000000E+00
Vib-Modes                                  R   N=          72
  1.98761045E-02  8.04203259E-02 -9.18667451E-02 -9.20528513E-02 -3.72463239E-01
  4.25476613E-01 -9.20580320E-02 -3.72460894E-01  4.25478073E-01 -9.20546740E-02
 -3.72464038E-01  4.25474043E-01 -6.94407565E-02 -2.21563821E-02 -3.44197386E-02
 -1.08299503E-01  1.14468327E-01  7.67716056E-02  4.97662707E-01  3.84684881E-01
  4.44427952E-01  5.75470985E-01 -1.91304676E-01 -4.29596560E-02  3.88310772E-02
 -5.71000106E-02 -4.15842197E-02 -2.24767458E-01  5.97008125E-01  4.73993266E-01
  2.14931479E-01  8.79181147E-02  1.23464993E-01 -5.29696607E-01  1.08441305E-01
 -1.96725478E-02  1.98994907E-06 -4.08899497E-06 -2.47884938E-06  5.43196859E-01
  7.30310835E-02  1.81454068E-01 -4.20771751E-01  3.38129685E-01  2.04958772E-01
 -1.22452756E-01 -4.11103955E-01 -3.86378398E-01 -7.31009319E-02  4.10666665E-02
  2.01336955E-02  5.04874930E-01  7.64866514E-02  1.76190046E-01  5.78608805E-01
 -4.67954316E-01 -2.84458522E-01 -6.77937869E-02 -1.79126982E-01 -1.71476140E-01
 -4.35867387E-02 -5.10535734E-02 -5.41227058E-02  5.75064252E-01  6.96730522E-02
  1.85410174E-01 -1.28721821E-01  8.88753684E-02  4.99506263E-02  1.59266981E-01
  5.50807808E-01  5.16639028E-01
ClPar MaxAn                                I              200
ClPar NIntPar                              I                4
ClPar NRealPar                             I               16
ClPar NBits                                I               30
ClPar LenBitVec                            I                1
ClPar Read BitMap                          I   N=         200
           0           0           0           0           0           0
           0           0           0           0           0           0
           0           0           0           0           0           0
           0           0           0           0           0           0
           0           0           0           0           0           0
           0           0           0           0           0           0
           0           0           0           0           0           0
           0           0           0           0           0           0
           0           0           0           0           0           0
           0           0           0           0           0           0
           0           0           0           0           0           0
           0           0           0           0           0           0
           0           0           0           0           0           0
           0           0           0           0           0           0
           0           0           0           0           0           0
           0           0           0           0           0           0
           0           0           0           0           0           0
           0           0           0           0           0           0
           0           0           0           0           0           0
           0           0           0           0           0           0
           0           0           0           0           0           0
           0           0           0           0           0           0
           0           0           0           0           0           0
           0           0           0           0           0           0
           0           0           0           0           0           0
           0           0           0           0           0           0
           0           0           0           0           0           0
           0           0           0           0           0           0
           0           0           0           0           0           0
           0           0           0           0           0           0
           0           0           0           0           0           0
           0           0           0           0           0           0
           0           0           0           0           0           0
           0           0
ClPar Default BitMap                       I   N=         200
        2016        2016        2016        2016        2016        2016
        2016        2016        2016        2016        2016        2016
        2016        2016        2016        2016        2016        2016
        2016        2016        2016        2016        2016        2016
        2016        2016        2016        2016        2016        2016
        2016        2016        2016        2016        2016        2016
        2016        2016        2016        2016        2016        2016
        2016        2016        2016        2016        2016        2016
        2016        2016        2016        2016        2016        2016
        2016        2016        2016        2016        2016        2016
        2016        2016        2016        2016        2016        2016
        2016        2016        2016        2016        2016        2016
        2016        2016        2016        2016        2016        2016
        2016        2016        2016        2016        2016        2016
        2016        2016         480         480         480         480
         480         480         480         480         480         480
         480         480         480         480         480         480
         480         480         480         480         480         480
         480         480         480         480         480         480
         480         480         480         480         480         480
         480         480         480         480         480         480
         480         480         480         480         480         480
         480         480         480         480         480         480
         480         480         480         480         480         480
         480         480         480         480         480         480
         480         480         480         480         480         480
         480         480         480         480         480         480
         480         480         480         480         480         480
         480         480         480         480         480         480
         480         480         480         480         480         480
         480         480         480         480         480         480
         480         480         480         480         480         480
         480         480         480         480         480         480
         480         480
ClPar Int Params                           I   N=         800
           0           0           0           0           0           0
           0           0           0           0           0           0
           0           0           0           0           0           0
           0           0           0           0           0           0
           0           0           0           0           0           0
           0           0           0           0           0           0
           0           0           0           0           0           0
           0           0           0           0           0           0
           0           0           0           0           0           0
           0           0           0           0           0           0
           0           0           0           0           0           0
           0           0           0           0           0           0
           0           0           0           0           0           0
           0           0           0           0           0           0
           0           0           0           0           0           0
           0           0           0           0           0           0
           0           0           0           0           0           0
           0           0           0           0           0           0
           0           0           0           0           0           0
           0           0           0           0           0           0
           0           0           0           0           0           0
           0           0           0           0           0           0
           0           0           0           0           0           0
           0           0           0           0           0           0
           0           0           0           0           0           0
           0           0           0           0           0           0
           0           0           0           0           0           0
           0           0           0           0           0           0
           0           0           0           0           0           0
           0           0           0           0           0           0
           0           0           0           0           0           0
           0           0           0           0           0           0
           0           0           0           0           0           0
           0           0           0           0           0           0
           0           0           0           0           0           0
           0           0           0           0           0           0
           0           0           0           0           0           0
           0           0           0           0           0           0
           0           0           0           0           0           0
           0           0           0           0           0           0
           0           0           0           0           0           0
           0           0           0           0           0           0
           0           0           0           0           0           0
           0           0           0           0           0           0
           0           0           0           0           0           0
           0           0           0           0           0           0
           0           0           0           0           0           0
           0           0           0           0           0           0
           0           0           0           0           0           0
           0           0           0           0           0           0
           0           0           0           0           0           0
           0           0           0           0           0           0
           0           0           0           0           0           0
           0           0           0           0           0           0
           0           0           0           0           0           0
           0           0           0           0           0           0
           0           0           0           0           0           0
           0           0           0           0           0           0
           0           0           0           0           0           0
           0           0           0           0           0           0
           0           0           0           0           0           0
           0           0           0           0           0           0
           0           0           0           0           0           0
           0           0           0           0           0           0
           0           0           0           0           0           0
           0           0           0           0           0           0
           0           0           0           0           0           0
           0           0           0           0           0           0
           0           0           0           0           0           0
           0           0           0           0           0           0
           0           0           0           0           0           0
           0           0           0           0           0           0
           0           0           0           0           0           0
           0           0           0           0           0           0
           0           0           0           0           0           0
           0           0           0           0           0           0
           0           0           0           0           0           0
           0           0           0           0           0           0
           0           0           0           0           0           0
           0           0           0           0           0           0
           0           0           0           0           0           0
           0           0           0           0           0           0
           0           0           0           0           0           0
           0           0           0           0           0           0
           0           0           0           0           0           0
           0           0           0           0           0           0
           0           0           0           0           0           0
           0           0           0           0           0           0
           0           0           0           0           0           0
           0           0           0           0           0           0
           0           0           0           0           0           0
           0           0           0           0           0           0
           0           0           0           0           0           0
           0           0           0           0           0           0
           0           0           0           0           0           0
           0           0           0           0           0           0
           0           0           0           0           0           0
           0           0           0           0           0           0
           0           0           0           0           0           0
           0           0           0           0           0           0
           0           0           0           0           0           0
           0           0           0           0           0           0
           0           0           0           0           0           0
           0           0           0           0           0           0
           0           0           0           0           0           0
           0           0           0           0           0           0
           0           0           0           0           0           0
           0           0           0           0           0           0
           0           0           0           0           0           0
           0           0           0           0           0           0
           0           0           0           0           0           0
           0           0           0           0           0           0
           0           0           0           0           0           0
           0           0           0           0           0           0
           0           0           0           0           0           0
           0           0           0           0           0           0
           0           0           0           0           0           0
           0           0           0           0           0           0
           0           0           0           0           0           0
           0           0           0           0           0           0
           0           0           0           0           0           0
           0           0           0           0           0           0
           0           0           0           0           0           0
           0           0           0           0           0           0
           0           0           0           0           0           0
           0           0           0           0           0           0
           0           0           0           0           0           0
           0           0           0           0           0           0
           0           0           0           0           0           0
           0           0           0           0           0           0
           0           0           0           0           0           0
           0           0           0           0           0           0
           0           0           0           0           0           0
           0           0
ClPar Real Params                          R   N=        3200
  0.00000000E+00  0.00000000E+00  0.00000000E+00  0.00000000E+00  0.00000000E+00
  0.00000000E+00  0.00000000E+00  0.00000000E+00  0.00000000E+00  0.00000000E+00
  0.00000000E+00  0.00000000E+00  0.00000000E+00  0.00000000E+00  0.00000000E+00
  0.00000000E+00  0.00000000E+00  0.00000000E+00  0.00000000E+00  0.00000000E+00
  0.00000000E+00  0.00000000E+00  0.00000000E+00  0.00000000E+00  0.00000000E+00
  0.00000000E+00  0.00000000E+00  0.00000000E+00  0.00000000E+00  0.00000000E+00
  0.00000000E+00  0.00000000E+00  0.00000000E+00  0.00000000E+00  0.00000000E+00
  0.00000000E+00  0.00000000E+00  0.00000000E+00  0.00000000E+00  0.00000000E+00
  0.00000000E+00  0.00000000E+00  0.00000000E+00  0.00000000E+00  0.00000000E+00
  0.00000000E+00  0.00000000E+00  0.00000000E+00  0.00000000E+00  0.00000000E+00
  0.00000000E+00  0.00000000E+00  0.00000000E+00  0.00000000E+00  0.00000000E+00
  0.00000000E+00  0.00000000E+00  0.00000000E+00  0.00000000E+00  0.00000000E+00
  0.00000000E+00  0.00000000E+00  0.00000000E+00  0.00000000E+00  0.00000000E+00
  0.00000000E+00  0.00000000E+00  0.00000000E+00  0.00000000E+00  0.00000000E+00
  0.00000000E+00  0.00000000E+00  0.00000000E+00  0.00000000E+00  0.00000000E+00
  0.00000000E+00  0.00000000E+00  0.00000000E+00  0.00000000E+00  0.00000000E+00
  0.00000000E+00  0.00000000E+00  0.00000000E+00  0.00000000E+00  0.00000000E+00
  0.00000000E+00  0.00000000E+00  0.00000000E+00  0.00000000E+00  0.00000000E+00
  0.00000000E+00  0.00000000E+00  0.00000000E+00  0.00000000E+00  0.00000000E+00
  0.00000000E+00  0.00000000E+00  0.00000000E+00  0.00000000E+00  0.00000000E+00
  0.00000000E+00  0.00000000E+00  0.00000000E+00  0.00000000E+00  0.00000000E+00
  0.00000000E+00  0.00000000E+00  0.00000000E+00  0.00000000E+00  0.00000000E+00
  0.00000000E+00  0.00000000E+00  0.00000000E+00  0.00000000E+00  0.00000000E+00
  0.00000000E+00  0.00000000E+00  0.00000000E+00  0.00000000E+00  0.00000000E+00
  0.00000000E+00  0.00000000E+00  0.00000000E+00  0.00000000E+00  0.00000000E+00
  0.00000000E+00  0.00000000E+00  0.00000000E+00  0.00000000E+00  0.00000000E+00
  0.00000000E+00  0.00000000E+00  0.00000000E+00  0.00000000E+00  0.00000000E+00
  0.00000000E+00  0.00000000E+00  0.00000000E+00  0.00000000E+00  0.00000000E+00
  0.00000000E+00  0.00000000E+00  0.00000000E+00  0.00000000E+00  0.00000000E+00
  0.00000000E+00  0.00000000E+00  0.00000000E+00  0.00000000E+00  0.00000000E+00
  0.00000000E+00  0.00000000E+00  0.00000000E+00  0.00000000E+00  0.00000000E+00
  0.00000000E+00  0.00000000E+00  0.00000000E+00  0.00000000E+00  0.00000000E+00
  0.00000000E+00  0.00000000E+00  0.00000000E+00  0.00000000E+00  0.00000000E+00
  0.00000000E+00  0.00000000E+00  0.00000000E+00  0.00000000E+00  0.00000000E+00
  0.00000000E+00  0.00000000E+00  0.00000000E+00  0.00000000E+00  0.00000000E+00
  0.00000000E+00  0.00000000E+00  0.00000000E+00  0.00000000E+00  0.00000000E+00
  0.00000000E+00  0.00000000E+00  0.00000000E+00  0.00000000E+00  0.00000000E+00
  0.00000000E+00  0.00000000E+00  0.00000000E+00  0.00000000E+00  0.00000000E+00
  0.00000000E+00  0.00000000E+00  0.00000000E+00  0.00000000E+00  0.00000000E+00
  0.00000000E+00  0.00000000E+00  0.00000000E+00  0.00000000E+00  0.00000000E+00
  2.26000000E-01  4.43000000E-01  1.01000000E-01  1.47000000E-01  1.92000000E-01
  2.40000000E-01  2.75000000E-01  3.03000000E-01  3.25000000E-01  4.13000000E-01
  9.60000000E-02  1.35000000E-01  1.73000000E-01  2.11000000E-01  2.48000000E-01
  2.86000000E-01  3.23000000E-01  3.60000000E-01  8.20000000E-02  1.04000000E-01
  1.17000000E-01  1.23000000E-01  1.29000000E-01  1.34000000E-01  1.40000000E-01
  1.44000000E-01  1.48000000E-01  1.52000000E-01  1.55000000E-01  1.76000000E-01
  1.98000000E-01  2.19000000E-01  2.39000000E-01  2.60000000E-01  2.80000000E-01
  3.00000000E-01  7.90000000E-02  9.90000000E-02  1.19000000E-01  1.26000000E-01
  1.33000000E-01  1.40000000E-01  1.47000000E-01  1.53000000E-01  1.58000000E-01
  1.63000000E-01  1.57000000E-01  1.70000000E-01  1.87000000E-01  2.03000000E-01
  2.19000000E-01  2.34000000E-01  2.50000000E-01  2.65000000E-01  7.40000000E-02
  9.20000000E-02  1.05000000E-01  1.06000000E-01  1.07000000E-01  1.08000000E-01
  1.09000000E-01  1.10000000E-01  1.11000000E-01  1.12000000E-01  1.13000000E-01
  1.14000000E-01  1.15000000E-01  1.16000000E-01  1.17000000E-01  1.17000000E-01
  1.26000000E-01  1.36000000E-01  1.46000000E-01  1.55000000E-01  1.65000000E-01
  1.73000000E-01  1.82000000E-01  1.90000000E-01  1.62000000E-01  1.78000000E-01
  1.10000000E-01  1.35000000E-01  1.59000000E-01  1.83000000E-01  2.07000000E-01
  2.31000000E-01  6.90000000E-02  9.40000000E-02  1.02000000E-01  1.03000000E-01
  1.05000000E-01  1.07000000E-01  1.09000000E-01  1.11000000E-01  1.13000000E-01
  1.15000000E-01  1.17000000E-01  1.19000000E-01  1.20000000E-01  1.22000000E-01
  1.24000000E-01  1.26000000E-01  1.28000000E-01  1.28000000E-01  1.28000000E-01
  1.28000000E-01  1.28000000E-01  1.28000000E-01  1.28000000E-01  1.28000000E-01
  1.28000000E-01  1.28000000E-01  1.28000000E-01  1.28000000E-01  1.28000000E-01
  1.28000000E-01  1.28000000E-01  1.28000000E-01  1.28000000E-01  1.28000000E-01
  1.28000000E-01  1.28000000E-01  1.28000000E-01  1.28000000E-01  1.28000000E-01
  1.28000000E-01  1.28000000E-01  1.28000000E-01  1.28000000E-01  1.28000000E-01
  1.28000000E-01  1.28000000E-01  1.28000000E-01  1.28000000E-01  1.28000000E-01
  1.28000000E-01  1.28000000E-01  1.28000000E-01  1.28000000E-01  1.28000000E-01
  1.28000000E-01  1.28000000E-01  1.28000000E-01  1.28000000E-01  1.28000000E-01
  1.28000000E-01  1.28000000E-01  1.28000000E-01  1.28000000E-01  1.28000000E-01
  1.28000000E-01  1.28000000E-01  1.28000000E-01  1.28000000E-01  1.28000000E-01
  1.28000000E-01  1.28000000E-01  1.28000000E-01  1.28000000E-01  1.28000000E-01
  1.28000000E-01  1.28000000E-01  1.28000000E-01  1.28000000E-01  1.28000000E-01
  1.28000000E-01  1.28000000E-01  1.28000000E-01  1.28000000E-01  1.28000000E-01
  1.28000000E-01  1.28000000E-01  1.28000000E-01  1.28000000E-01  1.28000000E-01
  1.28000000E-01  1.28000000E-01  1.28000000E-01  1.28000000E-01  1.28000000E-01
  1.28000000E-01  1.28000000E-01  1.28000000E-01  1.28000000E-01  1.28000000E-01
  1.28000000E-01  1.28000000E-01  1.28000000E-01  1.28000000E-01  1.28000000E-01
  1.28000000E-01  1.28000000E-01  1.28000000E-01  1.28000000E-01  1.28000000E-01
  1.28000000E-01  1.28000000E-01  1.28000000E-01  1.28000000E-01  1.28000000E-01
  5.47000000E-01  5.92000000E-01  5.99000000E-01  6.68000000E-01  6.98000000E-01
  7.18000000E-01  7.26000000E-01  7.36000000E-01  7.43000000E-01  7.45000000E-01
  6.07000000E-01  6.66000000E-01  6.93000000E-01  7.09000000E-01  7.20000000E-01
  7.29000000E-01  7.35000000E-01  7.40000000E-01  6.08000000E-01  7.34000000E-01
  7.46000000E-01  7.55000000E-01  7.61000000E-01  7.65000000E-01  7.67000000E-01
  7.60000000E-01  7.49000000E-01  7.33000000E-01  7.08000000E-01  6.48000000E-01
  6.88000000E-01  7.09000000E-01  7.22000000E-01  7.31000000E-01  7.38000000E-01
  7.44000000E-01  6.09000000E-01  7.30000000E-01  7.41000000E-01  7.52000000E-01
  7.58000000E-01  7.63000000E-01  7.66000000E-01  7.58000000E-01  7.48000000E-01
  7.33000000E-01  7.01000000E-01  6.45000000E-01  6.86000000E-01  7.08000000E-01
  7.22000000E-01  7.31000000E-01  7.38000000E-01  7.44000000E-01  6.08000000E-01
  7.28000000E-01  7.32000000E-01  7.32000000E-01  7.32000000E-01  7.32000000E-01
  7.32000000E-01  7.32000000E-01  7.32000000E-01  7.32000000E-01  7.32000000E-01
  7.31000000E-01  7.31000000E-01  7.31000000E-01  7.31000000E-01  7.46000000E-01
  7.37000000E-01  7.46000000E-01  7.51000000E-01  7.55000000E-01  7.58000000E-01
  7.47000000E-01  7.32000000E-01  7.11000000E-01  7.41000000E-01  7.07000000E-01
  7.47000000E-01  7.43000000E-01  7.42000000E-01  7.42000000E-01  7.43000000E-01
  7.44000000E-01  6.05000000E-01  7.24000000E-01  7.26000000E-01  7.26000000E-01
  7.27000000E-01  7.27000000E-01  7.27000000E-01  7.28000000E-01  7.28000000E-01
  7.28000000E-01  7.28000000E-01  7.28000000E-01  7.29000000E-01  7.29000000E-01
  7.29000000E-01  7.29000000E-01  7.29000000E-01  7.29000000E-01  7.29000000E-01
  7.29000000E-01  7.29000000E-01  7.29000000E-01  7.29000000E-01  7.29000000E-01
  7.29000000E-01  7.29000000E-01  7.29000000E-01  7.29000000E-01  7.29000000E-01
  7.29000000E-01  7.29000000E-01  7.29000000E-01  7.29000000E-01  7.29000000E-01
  7.29000000E-01  7.29000000E-01  7.29000000E-01  7.29000000E-01  7.29000000E-01
  7.29000000E-01  7.29000000E-01  7.29000000E-01  7.29000000E-01  7.29000000E-01
  7.29000000E-01  7.29000000E-01  7.29000000E-01  7.29000000E-01  7.29000000E-01
  7.29000000E-01  7.29000000E-01  7.29000000E-01  7.29000000E-01  7.29000000E-01
  7.29000000E-01  7.29000000E-01  7.29000000E-01  7.29000000E-01  7.29000000E-01
  7.29000000E-01  7.29000000E-01  7.29000000E-01  7.29000000E-01  7.29000000E-01
  7.29000000E-01  7.29000000E-01  7.29000000E-01  7.29000000E-01  7.29000000E-01
  7.29000000E-01  7.29000000E-01  7.29000000E-01  7.29000000E-01  7.29000000E-01
  7.29000000E-01  7.29000000E-01  7.29000000E-01  7.29000000E-01  7.29000000E-01
  7.29000000E-01  7.29000000E-01  7.29000000E-01  7.29000000E-01  7.29000000E-01
  7.29000000E-01  7.29000000E-01  7.29000000E-01  7.29000000E-01  7.29000000E-01
  7.29000000E-01  7.29000000E-01  7.29000000E-01  7.29000000E-01  7.29000000E-01
  7.29000000E-01  7.29000000E-01  7.29000000E-01  7.29000000E-01  7.29000000E-01
  7.29000000E-01  7.29000000E-01  7.29000000E-01  7.29000000E-01  7.29000000E-01
  7.29000000E-01  7.29000000E-01  7.29000000E-01  7.29000000E-01  7.29000000E-01
  7.29000000E-01  7.29000000E-01  7.29000000E-01  7.29000000E-01  7.29000000E-01
  1.00000000E+00  1.70400000E+00  3.23000000E-01  3.89000000E-01  4.67000000E-01
  5.67000000E-01  6.36000000E-01  6.64000000E-01  6.96000000E-01  8.79000000E-01
  3.07000000E-01  3.48000000E-01  4.00000000E-01  4.54000000E-01  5.09000000E-01
  5.65000000E-01  6.21000000E-01  6.77000000E-01  2.56000000E-01  3.50000000E-01
  3.64000000E-01  3.62000000E-01  3.62000000E-01  3.62000000E-01  3.62000000E-01
  3.65000000E-01  3.69000000E-01  3.75000000E-01  3.86000000E-01  4.46000000E-01
  4.55000000E-01  4.74000000E-01  4.96000000E-01  5.20000000E-01  5.45000000E-01
  5.70000000E-01  2.45000000E-01  3.22000000E-01  3.55000000E-01  3.59000000E-01
  3.64000000E-01  3.70000000E-01  3.76000000E-01  3.85000000E-01  3.95000000E-01
  4.08000000E-01  3.76000000E-01  4.23000000E-01  4.22000000E-01  4.32000000E-01
  4.45000000E-01  4.59000000E-01  4.75000000E-01  4.91000000E-01  2.28000000E-01
  2.92000000E-01  2.89000000E-01  2.92000000E-01  2.95000000E-01  2.98000000E-01
  3.00000000E-01  3.03000000E-01  3.06000000E-01  3.09000000E-01  3.12000000E-01
  3.15000000E-01  3.18000000E-01  3.21000000E-01  3.24000000E-01  3.61000000E-01
  3.69000000E-01  3.70000000E-01  3.72000000E-01  3.75000000E-01  3.78000000E-01
  3.85000000E-01  3.94000000E-01  4.07000000E-01  5.26000000E-01  6.21000000E-01
  3.36000000E-01  3.54000000E-01  3.71000000E-01  3.86000000E-01  4.02000000E-01
  4.17000000E-01  2.09000000E-01  2.94000000E-01  2.65000000E-01  2.72000000E-01
  2.78000000E-01  2.84000000E-01  2.91000000E-01  2.97000000E-01  3.03000000E-01
  3.10000000E-01  3.16000000E-01  3.22000000E-01  3.29000000E-01  3.35000000E-01
  3.41000000E-01  3.48000000E-01  3.54000000E-01  3.54000000E-01  3.54000000E-01
  3.54000000E-01  3.54000000E-01  3.54000000E-01  3.54000000E-01  3.54000000E-01
  3.54000000E-01  3.54000000E-01  3.54000000E-01  3.54000000E-01  3.54000000E-01
  3.54000000E-01  3.54000000E-01  3.54000000E-01  3.54000000E-01  3.54000000E-01
  3.54000000E-01  3.54000000E-01  3.54000000E-01  3.54000000E-01  3.54000000E-01
  3.54000000E-01  3.54000000E-01  3.54000000E-01  3.54000000E-01  3.54000000E-01
  3.54000000E-01  3.54000000E-01  3.54000000E-01  3.54000000E-01  3.54000000E-01
  3.54000000E-01  3.54000000E-01  3.54000000E-01  3.54000000E-01  3.54000000E-01
  3.54000000E-01  3.54000000E-01  3.54000000E-01  3.54000000E-01  3.54000000E-01
  3.54000000E-01  3.54000000E-01  3.54000000E-01  3.54000000E-01  3.54000000E-01
  3.54000000E-01  3.54000000E-01  3.54000000E-01  3.54000000E-01  3.54000000E-01
  3.54000000E-01  3.54000000E-01  3.54000000E-01  3.54000000E-01  3.54000000E-01
  3.54000000E-01  3.54000000E-01  3.54000000E-01  3.54000000E-01  3.54000000E-01
  3.54000000E-01  3.54000000E-01  3.54000000E-01  3.54000000E-01  3.54000000E-01
  3.54000000E-01  3.54000000E-01  3.54000000E-01  3.54000000E-01  3.54000000E-01
  3.54000000E-01  3.54000000E-01  3.54000000E-01  3.54000000E-01  3.54000000E-01
  3.54000000E-01  3.54000000E-01  3.54000000E-01  3.54000000E-01  3.54000000E-01
  3.54000000E-01  3.54000000E-01  3.54000000E-01  3.54000000E-01  3.54000000E-01
  3.54000000E-01  3.54000000E-01  3.54000000E-01  3.54000000E-01  3.54000000E-01
  3.54000000E-01  3.54000000E-01  3.54000000E-01  3.54000000E-01  3.54000000E-01
  2.74000000E-01  2.96000000E-01  5.80000000E-02  4.40000000E-02  3.90000000E-02
  3.90000000E-02  3.60000000E-02  3.20000000E-02  2.90000000E-02  3.30000000E-02
  5.50000000E-02  3.90000000E-02  3.30000000E-02  3.00000000E-02  2.80000000E-02
  2.60000000E-02  2.50000000E-02  2.50000000E-02  4.50000000E-02  4.40000000E-02
  3.30000000E-02  2.50000000E-02  2.10000000E-02  1.80000000E-02  1.50000000E-02
  1.80000000E-02  2.10000000E-02  2.50000000E-02  3.30000000E-02  5.00000000E-02
  3.80000000E-02  3.10000000E-02  2.70000000E-02  2.40000000E-02  2.20000000E-02
  2.10000000E-02  4.30000000E-02  4.00000000E-02  3.20000000E-02  2.50000000E-02
  2.10000000E-02  1.80000000E-02  1.60000000E-02  1.90000000E-02  2.20000000E-02
  2.80000000E-02  3.10000000E-02  4.70000000E-02  3.40000000E-02  2.80000000E-02
  2.40000000E-02  2.10000000E-02  1.90000000E-02  1.80000000E-02  3.90000000E-02
  3.60000000E-02  2.50000000E-02  2.50000000E-02  2.50000000E-02  2.60000000E-02
  2.60000000E-02  2.60000000E-02  2.70000000E-02  2.70000000E-02  2.70000000E-02
  2.70000000E-02  2.80000000E-02  2.80000000E-02  2.80000000E-02  3.30000000E-02
  3.30000000E-02  2.60000000E-02  2.10000000E-02  1.80000000E-02  1.60000000E-02
  1.80000000E-02  2.20000000E-02  2.60000000E-02  4.90000000E-02  8.20000000E-02
  3.00000000E-02  2.40000000E-02  2.10000000E-02  1.80000000E-02  1.60000000E-02
  1.50000000E-02  3.50000000E-02  3.60000000E-02  2.20000000E-02  2.30000000E-02
  2.40000000E-02  2.40000000E-02  2.50000000E-02  2.50000000E-02  2.60000000E-02
  2.70000000E-02  2.70000000E-02  2.80000000E-02  2.80000000E-02  2.90000000E-02
  3.00000000E-02  3.00000000E-02  3.10000000E-02  3.10000000E-02  3.10000000E-02
  3.10000000E-02  3.10000000E-02  3.10000000E-02  3.10000000E-02  3.10000000E-02
  3.10000000E-02  3.10000000E-02  3.10000000E-02  3.10000000E-02  3.10000000E-02
  3.10000000E-02  3.10000000E-02  3.10000000E-02  3.10000000E-02  3.10000000E-02
  3.10000000E-02  3.10000000E-02  3.10000000E-02  3.10000000E-02  3.10000000E-02
  3.10000000E-02  3.10000000E-02  3.10000000E-02  3.10000000E-02  3.10000000E-02
  3.10000000E-02  3.10000000E-02  3.10000000E-02  3.10000000E-02  3.10000000E-02
  3.10000000E-02  3.10000000E-02  3.10000000E-02  3.10000000E-02  3.10000000E-02
  3.10000000E-02  3.10000000E-02  3.10000000E-02  3.10000000E-02  3.10000000E-02
  3.10000000E-02  3.10000000E-02  3.10000000E-02  3.10000000E-02  3.10000000E-02
  3.10000000E-02  3.10000000E-02  3.10000000E-02  3.10000000E-02  3.10000000E-02
  3.10000000E-02  3.10000000E-02  3.10000000E-02  3.10000000E-02  3.10000000E-02
  3.10000000E-02  3.10000000E-02  3.10000000E-02  3.10000000E-02  3.10000000E-02
  3.10000000E-02  3.10000000E-02  3.10000000E-02  3.10000000E-02  3.10000000E-02
  3.10000000E-02  3.10000000E-02  3.10000000E-02  3.10000000E-02  3.10000000E-02
  3.10000000E-02  3.10000000E-02  3.10000000E-02  3.10000000E-02  3.10000000E-02
  3.10000000E-02  3.10000000E-02  3.10000000E-02  3.10000000E-02  3.10000000E-02
  3.10000000E-02  3.10000000E-02  3.10000000E-02  3.10000000E-02  3.10000000E-02
  3.10000000E-02  3.10000000E-02  3.10000000E-02  3.10000000E-02  3.10000000E-02
  3.10000000E-02  3.10000000E-02  3.10000000E-02  3.10000000E-02  3.10000000E-02
 -5.92770000E-01 -9.17860000E-01 -2.48668000E+00 -8.36430000E-01 -3.18470000E-01
 -4.55790000E-01 -5.70730000E-01 -6.77940000E-01 -7.69860000E-01 -8.51140000E-01
 -1.51908000E+00 -3.18830000E-01 -2.17900000E-01 -3.01260000E-01 -3.72750000E-01
 -4.15890000E-01 -4.45930000E-01 -5.91320000E-01 -9.56370000E-01 -2.88450000E-01
 -4.87320000E-01 -6.34280000E-01 -7.17490000E-01 -7.91980000E-01 -8.68490000E-01
 -9.17520000E-01 -9.54890000E-01 -9.88460000E-01 -1.50055000E+00 -2.92560000E-01
 -2.14960000E-01 -2.91180000E-01 -3.42080000E-01 -3.84480000E-01 -4.34940000E-01
 -5.24310000E-01 -8.10070000E-01 -2.58460000E-01 -4.35550000E-01 -5.32740000E-01
 -6.08450000E-01 -6.10260000E-01 -7.58920000E-01 -8.90130000E-01 -8.45780000E-01
 -8.69340000E-01 -1.38234000E+00 -2.64850000E-01 -1.97280000E-01 -2.65040000E-01
 -2.94470000E-01 -3.16570000E-01 -3.63590000E-01 -4.57840000E-01 -8.61830000E-01
 -1.33004000E+00 -6.82880000E-01 -6.25540000E-01 -6.35430000E-01 -8.79690000E-01
 -9.02690000E-01 -9.59650000E-01 -1.01869000E+00 -6.81170000E-01 -7.96500000E-01
 -9.04950000E-01 -8.34790000E-01 -9.01560000E-01 -9.74130000E-01 -1.03326000E+00
 -7.15490000E-01 -7.83960000E-01 -8.28380000E-01 -5.61040000E-01 -1.03841000E+00
 -8.62500000E-01 -9.59300000E-01 -1.01755000E+00 -7.64900000E-01 -1.29467000E+00
 -1.92740000E-01 -2.56010000E-01 -3.19820000E-01 -1.94660000E-01 -2.60090000E-01
 -4.27990000E-01  0.00000000E+00  0.00000000E+00  0.00000000E+00  0.00000000E+00
  0.00000000E+00  0.00000000E+00  0.00000000E+00  0.00000000E+00  0.00000000E+00
  0.00000000E+00  0.00000000E+00  0.00000000E+00  0.00000000E+00  0.00000000E+00
  0.00000000E+00  0.00000000E+00  0.00000000E+00  0.00000000E+00  0.00000000E+00
  0.00000000E+00  0.00000000E+00  0.00000000E+00  0.00000000E+00  0.00000000E+00
  0.00000000E+00  0.00000000E+00  0.00000000E+00  0.00000000E+00  0.00000000E+00
  0.00000000E+00  0.00000000E+00  0.00000000E+00  0.00000000E+00  0.00000000E+00
  0.00000000E+00  0.00000000E+00  0.00000000E+00  0.00000000E+00  0.00000000E+00
  0.00000000E+00  0.00000000E+00  0.00000000E+00  0.00000000E+00  0.00000000E+00
  0.00000000E+00  0.00000000E+00  0.00000000E+00  0.00000000E+00  0.00000000E+00
  0.00000000E+00  0.00000000E+00  0.00000000E+00  0.00000000E+00  0.00000000E+00
  0.00000000E+00  0.00000000E+00  0.00000000E+00  0.00000000E+00  0.00000000E+00
  0.00000000E+00  0.00000000E+00  0.00000000E+00  0.00000000E+00  0.00000000E+00
  0.00000000E+00  0.00000000E+00  0.00000000E+00  0.00000000E+00  0.00000000E+00
  0.00000000E+00  0.00000000E+00  0.00000000E+00  0.00000000E+00  0.00000000E+00
  0.00000000E+00  0.00000000E+00  0.00000000E+00  0.00000000E+00  0.00000000E+00
  0.00000000E+00  0.00000000E+00  0.00000000E+00  0.00000000E+00  0.00000000E+00
  0.00000000E+00  0.00000000E+00  0.00000000E+00  0.00000000E+00  0.00000000E+00
  0.00000000E+00  0.00000000E+00  0.00000000E+00  0.00000000E+00  0.00000000E+00
  0.00000000E+00  0.00000000E+00  0.00000000E+00  0.00000000E+00  0.00000000E+00
  0.00000000E+00  0.00000000E+00  0.00000000E+00  0.00000000E+00  0.00000000E+00
  0.00000000E+00  0.00000000E+00  0.00000000E+00  0.00000000E+00  0.00000000E+00
  0.00000000E+00  0.00000000E+00  0.00000000E+00  0.00000000E+00  0.00000000E+00
  1.90440000E+00  1.36430000E+00  4.84000000E-01  7.31600000E+00  9.24030000E+00
  8.78200000E+00  5.61290000E+00  4.83340000E+00  3.24870000E+00  2.71090000E+00
  2.01130000E+00  1.50282000E+01  1.46788000E+01  2.13546000E+01  2.38290000E+01
  1.98022000E+01  1.50468000E+01  1.09745000E+01  1.27219000E+01  1.51949000E+01
  1.57342000E+01  2.79222000E+01  1.61366000E+01  2.21252000E+01  2.45676000E+01
  1.96016000E+01  1.79818000E+01  1.72396000E+01  5.01500000E+00  1.92898000E+01
  2.34477000E+01  2.23993000E+01  2.96586000E+01  2.60081000E+01  2.15580000E+01
  1.69594000E+01  1.56479000E+01  1.86897000E+01  1.93530000E+01  3.43444000E+01
  1.98480000E+01  2.72140000E+01  3.02182000E+01  2.41099000E+01  2.21176000E+01
  2.12047000E+01  7.56690000E+00  2.37264000E+01  2.93879000E+01  3.01278000E+01
  4.19382000E+01  3.85203000E+01  3.39511000E+01  2.75774000E+01  1.56460000E+01
  1.04460000E+01  2.01830000E+01  4.99540000E+01  4.76430000E+01  1.18690000E+01
  1.08670000E+01  9.96100000E+00  9.18700000E+00  3.67980000E+01  1.34070000E+01
  9.38200000E+00  9.81700000E+00  8.90800000E+00  8.40700000E+00  8.05800000E+00
  1.29600000E+01  2.67920000E+01  2.49300000E+01  3.45630000E+01  1.11860000E+01
  1.09440000E+01  1.01270000E+01  9.40400000E+00  1.36660000E+01  7.81000000E+00
  6.93600000E+01  5.86630000E+01  4.79690000E+01  4.52740000E+01  3.92290000E+01
  3.30660000E+01  0.00000000E+00  0.00000000E+00  0.00000000E+00  0.00000000E+00
  0.00000000E+00  0.00000000E+00  0.00000000E+00  0.00000000E+00  0.00000000E+00
  0.00000000E+00  0.00000000E+00  0.00000000E+00  0.00000000E+00  0.00000000E+00
  0.00000000E+00  0.00000000E+00  0.00000000E+00  0.00000000E+00  0.00000000E+00
  0.00000000E+00  0.00000000E+00  0.00000000E+00  0.00000000E+00  0.00000000E+00
  0.00000000E+00  0.00000000E+00  0.00000000E+00  0.00000000E+00  0.00000000E+00
  0.00000000E+00  0.00000000E+00  0.00000000E+00  0.00000000E+00  0.00000000E+00
  0.00000000E+00  0.00000000E+00  0.00000000E+00  0.00000000E+00  0.00000000E+00
  0.00000000E+00  0.00000000E+00  0.00000000E+00  0.00000000E+00  0.00000000E+00
  0.00000000E+00  0.00000000E+00  0.00000000E+00  0.00000000E+00  0.00000000E+00
  0.00000000E+00  0.00000000E+00  0.00000000E+00  0.00000000E+00  0.00000000E+00
  0.00000000E+00  0.00000000E+00  0.00000000E+00  0.00000000E+00  0.00000000E+00
  0.00000000E+00  0.00000000E+00  0.00000000E+00  0.00000000E+00  0.00000000E+00
  0.00000000E+00  0.00000000E+00  0.00000000E+00  0.00000000E+00  0.00000000E+00
  0.00000000E+00  0.00000000E+00  0.00000000E+00  0.00000000E+00  0.00000000E+00
  0.00000000E+00  0.00000000E+00  0.00000000E+00  0.00000000E+00  0.00000000E+00
  0.00000000E+00  0.00000000E+00  0.00000000E+00  0.00000000E+00  0.00000000E+00
  0.00000000E+00  0.00000000E+00  0.00000000E+00  0.00000000E+00  0.00000000E+00
  0.00000000E+00  0.00000000E+00  0.00000000E+00  0.00000000E+00  0.00000000E+00
  0.00000000E+00  0.00000000E+00  0.00000000E+00  0.00000000E+00  0.00000000E+00
  0.00000000E+00  0.00000000E+00  0.00000000E+00  0.00000000E+00  0.00000000E+00
  0.00000000E+00  0.00000000E+00  0.00000000E+00  0.00000000E+00  0.00000000E+00
  0.00000000E+00  0.00000000E+00  0.00000000E+00  0.00000000E+00  0.00000000E+00
  0.00000000E+00  0.00000000E+00  0.00000000E+00  0.00000000E+00  0.00000000E+00
  0.00000000E+00  0.00000000E+00  0.00000000E+00  0.00000000E+00  0.00000000E+00
  0.00000000E+00  0.00000000E+00  0.00000000E+00  0.00000000E+00  0.00000000E+00
  0.00000000E+00  0.00000000E+00  0.00000000E+00  0.00000000E+00  0.00000000E+00
  0.00000000E+00  0.00000000E+00  0.00000000E+00  0.00000000E+00  0.00000000E+00
  0.00000000E+00  0.00000000E+00  0.00000000E+00  0.00000000E+00  0.00000000E+00
  0.00000000E+00  0.00000000E+00  0.00000000E+00  0.00000000E+00  0.00000000E+00
  0.00000000E+00  0.00000000E+00  0.00000000E+00  0.00000000E+00  0.00000000E+00
  0.00000000E+00  0.00000000E+00  0.00000000E+00  0.00000000E+00  0.00000000E+00
  0.00000000E+00  0.00000000E+00  0.00000000E+00  0.00000000E+00  0.00000000E+00
  0.00000000E+00  0.00000000E+00  0.00000000E+00  0.00000000E+00  0.00000000E+00
  0.00000000E+00  0.00000000E+00  0.00000000E+00  0.00000000E+00  0.00000000E+00
  0.00000000E+00  0.00000000E+00  0.00000000E+00  0.00000000E+00  0.00000000E+00
  0.00000000E+00  0.00000000E+00  0.00000000E+00  0.00000000E+00  0.00000000E+00
  0.00000000E+00  0.00000000E+00  0.00000000E+00  0.00000000E+00  0.00000000E+00
  0.00000000E+00  0.00000000E+00  0.00000000E+00  0.00000000E+00  0.00000000E+00
  0.00000000E+00  0.00000000E+00  0.00000000E+00  0.00000000E+00  0.00000000E+00
  0.00000000E+00  0.00000000E+00  0.00000000E+00  0.00000000E+00  0.00000000E+00
  0.00000000E+00  0.00000000E+00  0.00000000E+00  0.00000000E+00  0.00000000E+00
  0.00000000E+00  0.00000000E+00  0.00000000E+00  0.00000000E+00  0.00000000E+00
  0.00000000E+00  0.00000000E+00  0.00000000E+00  0.00000000E+00  0.00000000E+00
  0.00000000E+00  0.00000000E+00  0.00000000E+00  0.00000000E+00  0.00000000E+00
  0.00000000E+00  0.00000000E+00  0.00000000E+00  0.00000000E+00  0.00000000E+00
  0.00000000E+00  0.00000000E+00  0.00000000E+00  0.00000000E+00  0.00000000E+00
  0.00000000E+00  0.00000000E+00  0.00000000E+00  0.00000000E+00  0.00000000E+00
  0.00000000E+00  0.00000000E+00  0.00000000E+00  0.00000000E+00  0.00000000E+00
  0.00000000E+00  0.00000000E+00  0.00000000E+00  0.00000000E+00  0.00000000E+00
  0.00000000E+00  0.00000000E+00  0.00000000E+00  0.00000000E+00  0.00000000E+00
  0.00000000E+00  0.00000000E+00  0.00000000E+00  0.00000000E+00  0.00000000E+00
  0.00000000E+00  0.00000000E+00  0.00000000E+00  0.00000000E+00  0.00000000E+00
  0.00000000E+00  0.00000000E+00  0.00000000E+00  0.00000000E+00  0.00000000E+00
  0.00000000E+00  0.00000000E+00  0.00000000E+00  0.00000000E+00  0.00000000E+00
  0.00000000E+00  0.00000000E+00  0.00000000E+00  0.00000000E+00  0.00000000E+00
  0.00000000E+00  0.00000000E+00  0.00000000E+00  0.00000000E+00  0.00000000E+00
  0.00000000E+00  0.00000000E+00  0.00000000E+00  0.00000000E+00  0.00000000E+00
  0.00000000E+00  0.00000000E+00  0.00000000E+00  0.00000000E+00  0.00000000E+00
  0.00000000E+00  0.00000000E+00  0.00000000E+00  0.00000000E+00  0.00000000E+00
  0.00000000E+00  0.00000000E+00  0.00000000E+00  0.00000000E+00  0.00000000E+00
  0.00000000E+00  0.00000000E+00  0.00000000E+00  0.00000000E+00  0.00000000E+00
  0.00000000E+00  0.00000000E+00  0.00000000E+00  0.00000000E+00  0.00000000E+00
  0.00000000E+00  0.00000000E+00  0.00000000E+00  0.00000000E+00  0.00000000E+00
  0.00000000E+00  0.00000000E+00  0.00000000E+00  0.00000000E+00  0.00000000E+00
  0.00000000E+00  0.00000000E+00  0.00000000E+00  0.00000000E+00  0.00000000E+00
  0.00000000E+00  0.00000000E+00  0.00000000E+00  0.00000000E+00  0.00000000E+00
  0.00000000E+00  0.00000000E+00  0.00000000E+00  0.00000000E+00  0.00000000E+00
  0.00000000E+00  0.00000000E+00  0.00000000E+00  0.00000000E+00  0.00000000E+00
  0.00000000E+00  0.00000000E+00  0.00000000E+00  0.00000000E+00  0.00000000E+00
  0.00000000E+00  0.00000000E+00  0.00000000E+00  0.00000000E+00  0.00000000E+00
  0.00000000E+00  0.00000000E+00  0.00000000E+00  0.00000000E+00  0.00000000E+00
  0.00000000E+00  0.00000000E+00  0.00000000E+00  0.00000000E+00  0.00000000E+00
  0.00000000E+00  0.00000000E+00  0.00000000E+00  0.00000000E+00  0.00000000E+00
  0.00000000E+00  0.00000000E+00  0.00000000E+00  0.00000000E+00  0.00000000E+00
  0.00000000E+00  0.00000000E+00  0.00000000E+00  0.00000000E+00  0.00000000E+00
  0.00000000E+00  0.00000000E+00  0.00000000E+00  0.00000000E+00  0.00000000E+00
  0.00000000E+00  0.00000000E+00  0.00000000E+00  0.00000000E+00  0.00000000E+00
  0.00000000E+00  0.00000000E+00  0.00000000E+00  0.00000000E+00  0.00000000E+00
  0.00000000E+00  0.00000000E+00  0.00000000E+00  0.00000000E+00  0.00000000E+00
  0.00000000E+00  0.00000000E+00  0.00000000E+00  0.00000000E+00  0.00000000E+00
  0.00000000E+00  0.00000000E+00  0.00000000E+00  0.00000000E+00  0.00000000E+00
  0.00000000E+00  0.00000000E+00  0.00000000E+00  0.00000000E+00  0.00000000E+00
  0.00000000E+00  0.00000000E+00  0.00000000E+00  0.00000000E+00  0.00000000E+00
  0.00000000E+00  0.00000000E+00  0.00000000E+00  0.00000000E+00  0.00000000E+00
  0.00000000E+00  0.00000000E+00  0.00000000E+00  0.00000000E+00  0.00000000E+00
  0.00000000E+00  0.00000000E+00  0.00000000E+00  0.00000000E+00  0.00000000E+00
  0.00000000E+00  0.00000000E+00  0.00000000E+00  0.00000000E+00  0.00000000E+00
  0.00000000E+00  0.00000000E+00  0.00000000E+00  0.00000000E+00  0.00000000E+00
  0.00000000E+00  0.00000000E+00  0.00000000E+00  0.00000000E+00  0.00000000E+00
  0.00000000E+00  0.00000000E+00  0.00000000E+00  0.00000000E+00  0.00000000E+00
  0.00000000E+00  0.00000000E+00  0.00000000E+00  0.00000000E+00  0.00000000E+00
  0.00000000E+00  0.00000000E+00  0.00000000E+00  0.00000000E+00  0.00000000E+00
  0.00000000E+00  0.00000000E+00  0.00000000E+00  0.00000000E+00  0.00000000E+00
  0.00000000E+00  0.00000000E+00  0.00000000E+00  0.00000000E+00  0.00000000E+00
  0.00000000E+00  0.00000000E+00  0.00000000E+00  0.00000000E+00  0.00000000E+00
  0.00000000E+00  0.00000000E+00  0.00000000E+00  0.00000000E+00  0.00000000E+00
  0.00000000E+00  0.00000000E+00  0.00000000E+00  0.00000000E+00  0.00000000E+00
  0.00000000E+00  0.00000000E+00  0.00000000E+00  0.00000000E+00  0.00000000E+00
  0.00000000E+00  0.00000000E+00  0.00000000E+00  0.00000000E+00  0.00000000E+00
  0.00000000E+00  0.00000000E+00  0.00000000E+00  0.00000000E+00  0.00000000E+00
  0.00000000E+00  0.00000000E+00  0.00000000E+00  0.00000000E+00  0.00000000E+00
  0.00000000E+00  0.00000000E+00  0.00000000E+00  0.00000000E+00  0.00000000E+00
  0.00000000E+00  0.00000000E+00  0.00000000E+00  0.00000000E+00  0.00000000E+00
  0.00000000E+00  0.00000000E+00  0.00000000E+00  0.00000000E+00  0.00000000E+00
  0.00000000E+00  0.00000000E+00  0.00000000E+00  0.00000000E+00  0.00000000E+00
  0.00000000E+00  0.00000000E+00  0.00000000E+00  0.00000000E+00  0.00000000E+00
  0.00000000E+00  0.00000000E+00  0.00000000E+00  0.00000000E+00  0.00000000E+00
  0.00000000E+00  0.00000000E+00  0.00000000E+00  0.00000000E+00  0.00000000E+00
  0.00000000E+00  0.00000000E+00  0.00000000E+00  0.00000000E+00  0.00000000E+00
  0.00000000E+00  0.00000000E+00  0.00000000E+00  0.00000000E+00  0.00000000E+00
  0.00000000E+00  0.00000000E+00  0.00000000E+00  0.00000000E+00  0.00000000E+00
  0.00000000E+00  0.00000000E+00  0.00000000E+00  0.00000000E+00  0.00000000E+00
  0.00000000E+00  0.00000000E+00  0.00000000E+00  0.00000000E+00  0.00000000E+00
  0.00000000E+00  0.00000000E+00  0.00000000E+00  0.00000000E+00  0.00000000E+00
  0.00000000E+00  0.00000000E+00  0.00000000E+00  0.00000000E+00  0.00000000E+00
  0.00000000E+00  0.00000000E+00  0.00000000E+00  0.00000000E+00  0.00000000E+00
  0.00000000E+00  0.00000000E+00  0.00000000E+00  0.00000000E+00  0.00000000E+00
  0.00000000E+00  0.00000000E+00  0.00000000E+00  0.00000000E+00  0.00000000E+00
  0.00000000E+00  0.00000000E+00  0.00000000E+00  0.00000000E+00  0.00000000E+00
  0.00000000E+00  0.00000000E+00  0.00000000E+00  0.00000000E+00  0.00000000E+00
  0.00000000E+00  0.00000000E+00  0.00000000E+00  0.00000000E+00  0.00000000E+00
  0.00000000E+00  0.00000000E+00  0.00000000E+00  0.00000000E+00  0.00000000E+00
  0.00000000E+00  0.00000000E+00  0.00000000E+00  0.00000000E+00  0.00000000E+00
  0.00000000E+00  0.00000000E+00  0.00000000E+00  0.00000000E+00  0.00000000E+00
  0.00000000E+00  0.00000000E+00  0.00000000E+00  0.00000000E+00  0.00000000E+00
  0.00000000E+00  0.00000000E+00  0.00000000E+00  0.00000000E+00  0.00000000E+00
  0.00000000E+00  0.00000000E+00  0.00000000E+00  0.00000000E+00  0.00000000E+00
  0.00000000E+00  0.00000000E+00  0.00000000E+00  0.00000000E+00  0.00000000E+00
  0.00000000E+00  0.00000000E+00  0.00000000E+00  0.00000000E+00  0.00000000E+00
  0.00000000E+00  0.00000000E+00  0.00000000E+00  0.00000000E+00  0.00000000E+00
  0.00000000E+00  0.00000000E+00  0.00000000E+00  0.00000000E+00  0.00000000E+00
  0.00000000E+00  0.00000000E+00  0.00000000E+00  0.00000000E+00  0.00000000E+00
  0.00000000E+00  0.00000000E+00  0.00000000E+00  0.00000000E+00  0.00000000E+00
  0.00000000E+00  0.00000000E+00  0.00000000E+00  0.00000000E+00  0.00000000E+00
  0.00000000E+00  0.00000000E+00  0.00000000E+00  0.00000000E+00  0.00000000E+00
  0.00000000E+00  0.00000000E+00  0.00000000E+00  0.00000000E+00  0.00000000E+00
  0.00000000E+00  0.00000000E+00  0.00000000E+00  0.00000000E+00  0.00000000E+00
  0.00000000E+00  0.00000000E+00  0.00000000E+00  0.00000000E+00  0.00000000E+00
  0.00000000E+00  0.00000000E+00  0.00000000E+00  0.00000000E+00  0.00000000E+00
  0.00000000E+00  0.00000000E+00  0.00000000E+00  0.00000000E+00  0.00000000E+00
  0.00000000E+00  0.00000000E+00  0.00000000E+00  0.00000000E+00  0.00000000E+00
  0.00000000E+00  0.00000000E+00  0.00000000E+00  0.00000000E+00  0.00000000E+00
  0.00000000E+00  0.00000000E+00  0.00000000E+00  0.00000000E+00  0.00000000E+00
  0.00000000E+00  0.00000000E+00  0.00000000E+00  0.00000000E+00  0.00000000E+00
  0.00000000E+00  0.00000000E+00  0.00000000E+00  0.00000000E+00  0.00000000E+00
  0.00000000E+00  0.00000000E+00  0.00000000E+00  0.00000000E+00  0.00000000E+00
  0.00000000E+00  0.00000000E+00  0.00000000E+00  0.00000000E+00  0.00000000E+00
  0.00000000E+00  0.00000000E+00  0.00000000E+00  0.00000000E+00  0.00000000E+00
  0.00000000E+00  0.00000000E+00  0.00000000E+00  0.00000000E+00  0.00000000E+00
  0.00000000E+00  0.00000000E+00  0.00000000E+00  0.00000000E+00  0.00000000E+00
  0.00000000E+00  0.00000000E+00  0.00000000E+00  0.00000000E+00  0.00000000E+00
  0.00000000E+00  0.00000000E+00  0.00000000E+00  0.00000000E+00  0.00000000E+00
  0.00000000E+00  0.00000000E+00  0.00000000E+00  0.00000000E+00  0.00000000E+00
  0.00000000E+00  0.00000000E+00  0.00000000E+00  0.00000000E+00  0.00000000E+00
  0.00000000E+00  0.00000000E+00  0.00000000E+00  0.00000000E+00  0.00000000E+00
  0.00000000E+00  0.00000000E+00  0.00000000E+00  0.00000000E+00  0.00000000E+00
  0.00000000E+00  0.00000000E+00  0.00000000E+00  0.00000000E+00  0.00000000E+00
  0.00000000E+00  0.00000000E+00  0.00000000E+00  0.00000000E+00  0.00000000E+00
  0.00000000E+00  0.00000000E+00  0.00000000E+00  0.00000000E+00  0.00000000E+00
  0.00000000E+00  0.00000000E+00  0.00000000E+00  0.00000000E+00  0.00000000E+00
  0.00000000E+00  0.00000000E+00  0.00000000E+00  0.00000000E+00  0.00000000E+00
  0.00000000E+00  0.00000000E+00  0.00000000E+00  0.00000000E+00  0.00000000E+00
  0.00000000E+00  0.00000000E+00  0.00000000E+00  0.00000000E+00  0.00000000E+00
  0.00000000E+00  0.00000000E+00  0.00000000E+00  0.00000000E+00  0.00000000E+00
  0.00000000E+00  0.00000000E+00  0.00000000E+00  0.00000000E+00  0.00000000E+00
  0.00000000E+00  0.00000000E+00  0.00000000E+00  0.00000000E+00  0.00000000E+00
  0.00000000E+00  0.00000000E+00  0.00000000E+00  0.00000000E+00  0.00000000E+00
  0.00000000E+00  0.00000000E+00  0.00000000E+00  0.00000000E+00  0.00000000E+00
  0.00000000E+00  0.00000000E+00  0.00000000E+00  0.00000000E+00  0.00000000E+00
  0.00000000E+00  0.00000000E+00  0.00000000E+00  0.00000000E+00  0.00000000E+00
  0.00000000E+00  0.00000000E+00  0.00000000E+00  0.00000000E+00  0.00000000E+00
  0.00000000E+00  0.00000000E+00  0.00000000E+00  0.00000000E+00  0.00000000E+00
  0.00000000E+00  0.00000000E+00  0.00000000E+00  0.00000000E+00  0.00000000E+00
  0.00000000E+00  0.00000000E+00  0.00000000E+00  0.00000000E+00  0.00000000E+00
  0.00000000E+00  0.00000000E+00  0.00000000E+00  0.00000000E+00  0.00000000E+00
  0.00000000E+00  0.00000000E+00  0.00000000E+00  0.00000000E+00  0.00000000E+00
  0.00000000E+00  0.00000000E+00  0.00000000E+00  0.00000000E+00  0.00000000E+00
  0.00000000E+00  0.00000000E+00  0.00000000E+00  0.00000000E+00  0.00000000E+00
  0.00000000E+00  0.00000000E+00  0.00000000E+00  0.00000000E+00  0.00000000E+00
  0.00000000E+00  0.00000000E+00  0.00000000E+00  0.00000000E+00  0.00000000E+00
  0.00000000E+00  0.00000000E+00  0.00000000E+00  0.00000000E+00  0.00000000E+00
  0.00000000E+00  0.00000000E+00  0.00000000E+00  0.00000000E+00  0.00000000E+00
  0.00000000E+00  0.00000000E+00  0.00000000E+00  0.00000000E+00  0.00000000E+00
  0.00000000E+00  0.00000000E+00  0.00000000E+00  0.00000000E+00  0.00000000E+00
  0.00000000E+00  0.00000000E+00  0.00000000E+00  0.00000000E+00  0.00000000E+00
  0.00000000E+00  0.00000000E+00  0.00000000E+00  0.00000000E+00  0.00000000E+00
  0.00000000E+00  0.00000000E+00  0.00000000E+00  0.00000000E+00  0.00000000E+00
  0.00000000E+00  0.00000000E+00  0.00000000E+00  0.00000000E+00  0.00000000E+00
  0.00000000E+00  0.00000000E+00  0.00000000E+00  0.00000000E+00  0.00000000E+00
  0.00000000E+00  0.00000000E+00  0.00000000E+00  0.00000000E+00  0.00000000E+00
  0.00000000E+00  0.00000000E+00  0.00000000E+00  0.00000000E+00  0.00000000E+00
  0.00000000E+00  0.00000000E+00  0.00000000E+00  0.00000000E+00  0.00000000E+00
  0.00000000E+00  0.00000000E+00  0.00000000E+00  0.00000000E+00  0.00000000E+00
  0.00000000E+00  0.00000000E+00  0.00000000E+00  0.00000000E+00  0.00000000E+00
  0.00000000E+00  0.00000000E+00  0.00000000E+00  0.00000000E+00  0.00000000E+00
  0.00000000E+00  0.00000000E+00  0.00000000E+00  0.00000000E+00  0.00000000E+00
  0.00000000E+00  0.00000000E+00  0.00000000E+00  0.00000000E+00  0.00000000E+00
  0.00000000E+00  0.00000000E+00  0.00000000E+00  0.00000000E+00  0.00000000E+00
  0.00000000E+00  0.00000000E+00  0.00000000E+00  0.00000000E+00  0.00000000E+00
  0.00000000E+00  0.00000000E+00  0.00000000E+00  0.00000000E+00  0.00000000E+00
  0.00000000E+00  0.00000000E+00  0.00000000E+00  0.00000000E+00  0.00000000E+00
  0.00000000E+00  0.00000000E+00  0.00000000E+00  0.00000000E+00  0.00000000E+00
  0.00000000E+00  0.00000000E+00  0.00000000E+00  0.00000000E+00  0.00000000E+00
  0.00000000E+00  0.00000000E+00  0.00000000E+00  0.00000000E+00  0.00000000E+00
  0.00000000E+00  0.00000000E+00  0.00000000E+00  0.00000000E+00  0.00000000E+00
  0.00000000E+00  0.00000000E+00  0.00000000E+00  0.00000000E+00  0.00000000E+00
  0.00000000E+00  0.00000000E+00  0.00000000E+00  0.00000000E+00  0.00000000E+00
  0.00000000E+00  0.00000000E+00  0.00000000E+00  0.00000000E+00  0.00000000E+00
  0.00000000E+00  0.00000000E+00  0.00000000E+00  0.00000000E+00  0.00000000E+00
  0.00000000E+00  0.00000000E+00  0.00000000E+00  0.00000000E+00  0.00000000E+00
  0.00000000E+00  0.00000000E+00  0.00000000E+00  0.00000000E+00  0.00000000E+00
  0.00000000E+00  0.00000000E+00  0.00000000E+00  0.00000000E+00  0.00000000E+00
  0.00000000E+00  0.00000000E+00  0.00000000E+00  0.00000000E+00  0.00000000E+00
  0.00000000E+00  0.00000000E+00  0.00000000E+00  0.00000000E+00  0.00000000E+00
  0.00000000E+00  0.00000000E+00  0.00000000E+00  0.00000000E+00  0.00000000E+00
  0.00000000E+00  0.00000000E+00  0.00000000E+00  0.00000000E+00  0.00000000E+00
  0.00000000E+00  0.00000000E+00  0.00000000E+00  0.00000000E+00  0.00000000E+00
  0.00000000E+00  0.00000000E+00  0.00000000E+00  0.00000000E+00  0.00000000E+00
  0.00000000E+00  0.00000000E+00  0.00000000E+00  0.00000000E+00  0.00000000E+00
  0.00000000E+00  0.00000000E+00  0.00000000E+00  0.00000000E+00  0.00000000E+00
  0.00000000E+00  0.00000000E+00  0.00000000E+00  0.00000000E+00  0.00000000E+00
  0.00000000E+00  0.00000000E+00  0.00000000E+00  0.00000000E+00  0.00000000E+00
  0.00000000E+00  0.00000000E+00  0.00000000E+00  0.00000000E+00  0.00000000E+00
  0.00000000E+00  0.00000000E+00  0.00000000E+00  0.00000000E+00  0.00000000E+00
  0.00000000E+00  0.00000000E+00  0.00000000E+00  0.00000000E+00  0.00000000E+00
  0.00000000E+00  0.00000000E+00  0.00000000E+00  0.00000000E+00  0.00000000E+00
  0.00000000E+00  0.00000000E+00  0.00000000E+00  0.00000000E+00  0.00000000E+00
  0.00000000E+00  0.00000000E+00  0.00000000E+00  0.00000000E+00  0.00000000E+00
  0.00000000E+00  0.00000000E+00  0.00000000E+00  0.00000000E+00  0.00000000E+00
  0.00000000E+00  0.00000000E+00  0.00000000E+00  0.00000000E+00  0.00000000E+00
  0.00000000E+00  0.00000000E+00  0.00000000E+00  0.00000000E+00  0.00000000E+00
  0.00000000E+00  0.00000000E+00  0.00000000E+00  0.00000000E+00  0.00000000E+00
  0.00000000E+00  0.00000000E+00  0.00000000E+00  0.00000000E+00  0.00000000E+00
  0.00000000E+00  0.00000000E+00  0.00000000E+00  0.00000000E+00  0.00000000E+00
  0.00000000E+00  0.00000000E+00  0.00000000E+00  0.00000000E+00  0.00000000E+00
  0.00000000E+00  0.00000000E+00  0.00000000E+00  0.00000000E+00  0.00000000E+00
  0.00000000E+00  0.00000000E+00  0.00000000E+00  0.00000000E+00  0.00000000E+00
  0.00000000E+00  0.00000000E+00  0.00000000E+00  0.00000000E+00  0.00000000E+00
  0.00000000E+00  0.00000000E+00  0.00000000E+00  0.00000000E+00  0.00000000E+00
  0.00000000E+00  0.00000000E+00  0.00000000E+00  0.00000000E+00  0.00000000E+00
  0.00000000E+00  0.00000000E+00  0.00000000E+00  0.00000000E+00  0.00000000E+00
  0.00000000E+00  0.00000000E+00  0.00000000E+00  0.00000000E+00  0.00000000E+00
  0.00000000E+00  0.00000000E+00  0.00000000E+00  0.00000000E+00  0.00000000E+00
  0.00000000E+00  0.00000000E+00  0.00000000E+00  0.00000000E+00  0.00000000E+00
  0.00000000E+00  0.00000000E+00  0.00000000E+00  0.00000000E+00  0.00000000E+00
  0.00000000E+00  0.00000000E+00  0.00000000E+00  0.00000000E+00  0.00000000E+00
  0.00000000E+00  0.00000000E+00  0.00000000E+00  0.00000000E+00  0.00000000E+00
  0.00000000E+00  0.00000000E+00  0.00000000E+00  0.00000000E+00  0.00000000E+00
  0.00000000E+00  0.00000000E+00  0.00000000E+00  0.00000000E+00  0.00000000E+00
  0.00000000E+00  0.00000000E+00  0.00000000E+00  0.00000000E+00  0.00000000E+00
  0.00000000E+00  0.00000000E+00  0.00000000E+00  0.00000000E+00  0.00000000E+00
  0.00000000E+00  0.00000000E+00  0.00000000E+00  0.00000000E+00  0.00000000E+00
  0.00000000E+00  0.00000000E+00  0.00000000E+00  0.00000000E+00  0.00000000E+00
  0.00000000E+00  0.00000000E+00  0.00000000E+00  0.00000000E+00  0.00000000E+00
  0.00000000E+00  0.00000000E+00  0.00000000E+00  0.00000000E+00  0.00000000E+00
  0.00000000E+00  0.00000000E+00  0.00000000E+00  0.00000000E+00  0.00000000E+00
  0.00000000E+00  0.00000000E+00  0.00000000E+00  0.00000000E+00  0.00000000E+00
  0.00000000E+00  0.00000000E+00  0.00000000E+00  0.00000000E+00  0.00000000E+00
  0.00000000E+00  0.00000000E+00  0.00000000E+00  0.00000000E+00  0.00000000E+00
  0.00000000E+00  0.00000000E+00  0.00000000E+00  0.00000000E+00  0.00000000E+00
  0.00000000E+00  0.00000000E+00  0.00000000E+00  0.00000000E+00  0.00000000E+00
  0.00000000E+00  0.00000000E+00  0.00000000E+00  0.00000000E+00  0.00000000E+00
  0.00000000E+00  0.00000000E+00  0.00000000E+00  0.00000000E+00  0.00000000E+00
  0.00000000E+00  0.00000000E+00  0.00000000E+00  0.00000000E+00  0.00000000E+00
  0.00000000E+00  0.00000000E+00  0.00000000E+00  0.00000000E+00  0.00000000E+00
  0.00000000E+00  0.00000000E+00  0.00000000E+00  0.00000000E+00  0.00000000E+00
  0.00000000E+00  0.00000000E+00  0.00000000E+00  0.00000000E+00  0.00000000E+00
  0.00000000E+00  0.00000000E+00  0.00000000E+00  0.00000000E+00  0.00000000E+00
  0.00000000E+00  0.00000000E+00  0.00000000E+00  0.00000000E+00  0.00000000E+00
  0.00000000E+00  0.00000000E+00  0.00000000E+00  0.00000000E+00  0.00000000E+00
  0.00000000E+00  0.00000000E+00  0.00000000E+00  0.00000000E+00  0.00000000E+00
  0.00000000E+00  0.00000000E+00  0.00000000E+00  0.00000000E+00  0.00000000E+00
  0.00000000E+00  0.00000000E+00  0.00000000E+00  0.00000000E+00  0.00000000E+00
  0.00000000E+00  0.00000000E+00  0.00000000E+00  0.00000000E+00  0.00000000E+00
  0.00000000E+00  0.00000000E+00  0.00000000E+00  0.00000000E+00  0.00000000E+00
  0.00000000E+00  0.00000000E+00  0.00000000E+00  0.00000000E+00  0.00000000E+00
  0.00000000E+00  0.00000000E+00  0.00000000E+00  0.00000000E+00  0.00000000E+00
  0.00000000E+00  0.00000000E+00  0.00000000E+00  0.00000000E+00  0.00000000E+00
  0.00000000E+00  0.00000000E+00  0.00000000E+00  0.00000000E+00  0.00000000E+00
  0.00000000E+00  0.00000000E+00  0.00000000E+00  0.00000000E+00  0.00000000E+00
  0.00000000E+00  0.00000000E+00  0.00000000E+00  0.00000000E+00  0.00000000E+00
  0.00000000E+00  0.00000000E+00  0.00000000E+00  0.00000000E+00  0.00000000E+00
  0.00000000E+00  0.00000000E+00  0.00000000E+00  0.00000000E+00  0.00000000E+00
  0.00000000E+00  0.00000000E+00  0.00000000E+00  0.00000000E+00  0.00000000E+00
  0.00000000E+00  0.00000000E+00  0.00000000E+00  0.00000000E+00  0.00000000E+00
  0.00000000E+00  0.00000000E+00  0.00000000E+00  0.00000000E+00  0.00000000E+00
  0.00000000E+00  0.00000000E+00  0.00000000E+00  0.00000000E+00  0.00000000E+00
  0.00000000E+00  0.00000000E+00  0.00000000E+00  0.00000000E+00  0.00000000E+00
  0.00000000E+00  0.00000000E+00  0.00000000E+00  0.00000000E+00  0.00000000E+00
  0.00000000E+00  0.00000000E+00  0.00000000E+00  0.00000000E+00  0.00000000E+00
  0.00000000E+00  0.00000000E+00  0.00000000E+00  0.00000000E+00  0.00000000E+00
  0.00000000E+00  0.00000000E+00  0.00000000E+00  0.00000000E+00  0.00000000E+00
  0.00000000E+00  0.00000000E+00  0.00000000E+00  0.00000000E+00  0.00000000E+00
  0.00000000E+00  0.00000000E+00  0.00000000E+00  0.00000000E+00  0.00000000E+00
  0.00000000E+00  0.00000000E+00  0.00000000E+00  0.00000000E+00  0.00000000E+00
  0.00000000E+00  0.00000000E+00  0.00000000E+00  0.00000000E+00  0.00000000E+00
  0.00000000E+00  0.00000000E+00  0.00000000E+00  0.00000000E+00  0.00000000E+00
  0.00000000E+00  0.00000000E+00  0.00000000E+00  0.00000000E+00  0.00000000E+00
  0.00000000E+00  0.00000000E+00  0.00000000E+00  0.00000000E+00  0.00000000E+00
  0.00000000E+00  0.00000000E+00  0.00000000E+00  0.00000000E+00  0.00000000E+00
  0.00000000E+00  0.00000000E+00  0.00000000E+00  0.00000000E+00  0.00000000E+00
  0.00000000E+00  0.00000000E+00  0.00000000E+00  0.00000000E+00  0.00000000E+00
  0.00000000E+00  0.00000000E+00  0.00000000E+00  0.00000000E+00  0.00000000E+00
  0.00000000E+00  0.00000000E+00  0.00000000E+00  0.00000000E+00  0.00000000E+00
  0.00000000E+00  0.00000000E+00  0.00000000E+00  0.00000000E+00  0.00000000E+00
  0.00000000E+00  0.00000000E+00  0.00000000E+00  0.00000000E+00  0.00000000E+00
  0.00000000E+00  0.00000000E+00  0.00000000E+00  0.00000000E+00  0.00000000E+00
  0.00000000E+00  0.00000000E+00  0.00000000E+00  0.00000000E+00  0.00000000E+00
  0.00000000E+00  0.00000000E+00  0.00000000E+00  0.00000000E+00  0.00000000E+00
  0.00000000E+00  0.00000000E+00  0.00000000E+00  0.00000000E+00  0.00000000E+00
  0.00000000E+00  0.00000000E+00  0.00000000E+00  0.00000000E+00  0.00000000E+00
  0.00000000E+00  0.00000000E+00  0.00000000E+00  0.00000000E+00  0.00000000E+00
  0.00000000E+00  0.00000000E+00  0.00000000E+00  0.00000000E+00  0.00000000E+00
  0.00000000E+00  0.00000000E+00  0.00000000E+00  0.00000000E+00  0.00000000E+00
  0.00000000E+00  0.00000000E+00  0.00000000E+00  0.00000000E+00  0.00000000E+00
  0.00000000E+00  0.00000000E+00  0.00000000E+00  0.00000000E+00  0.00000000E+00
  0.00000000E+00  0.00000000E+00  0.00000000E+00  0.00000000E+00  0.00000000E+00
  0.00000000E+00  0.00000000E+00  0.00000000E+00  0.00000000E+00  0.00000000E+00
  0.00000000E+00  0.00000000E+00  0.00000000E+00  0.00000000E+00  0.00000000E+00
  0.00000000E+00  0.00000000E+00  0.00000000E+00  0.00000000E+00  0.00000000E+00
  0.00000000E+00  0.00000000E+00  0.00000000E+00  0.00000000E+00  0.00000000E+00
  0.00000000E+00  0.00000000E+00  0.00000000E+00  0.00000000E+00  0.00000000E+00
  0.00000000E+00  0.00000000E+00  0.00000000E+00  0.00000000E+00  0.00000000E+00
  0.00000000E+00  0.00000000E+00  0.00000000E+00  0.00000000E+00  0.00000000E+00
  0.00000000E+00  0.00000000E+00  0.00000000E+00  0.00000000E+00  0.00000000E+00
  0.00000000E+00  0.00000000E+00  0.00000000E+00  0.00000000E+00  0.00000000E+00
  0.00000000E+00  0.00000000E+00  0.00000000E+00  0.00000000E+00  0.00000000E+00
  0.00000000E+00  0.00000000E+00  0.00000000E+00  0.00000000E+00  0.00000000E+00
  0.00000000E+00  0.00000000E+00  0.00000000E+00  0.00000000E+00  0.00000000E+00
  0.00000000E+00  0.00000000E+00  0.00000000E+00  0.00000000E+00  0.00000000E+00
  0.00000000E+00  0.00000000E+00  0.00000000E+00  0.00000000E+00  0.00000000E+00
  0.00000000E+00  0.00000000E+00  0.00000000E+00  0.00000000E+00  0.00000000E+00
  0.00000000E+00  0.00000000E+00  0.00000000E+00  0.00000000E+00  0.00000000E+00
  0.00000000E+00  0.00000000E+00  0.00000000E+00  0.00000000E+00  0.00000000E+00
  0.00000000E+00  0.00000000E+00  0.00000000E+00  0.00000000E+00  0.00000000E+00
  0.00000000E+00  0.00000000E+00  0.00000000E+00  0.00000000E+00  0.00000000E+00
  0.00000000E+00  0.00000000E+00  0.00000000E+00  0.00000000E+00  0.00000000E+00
  0.00000000E+00  0.00000000E+00  0.00000000E+00  0.00000000E+00  0.00000000E+00
  0.00000000E+00  0.00000000E+00  0.00000000E+00  0.00000000E+00  0.00000000E+00
  0.00000000E+00  0.00000000E+00  0.00000000E+00  0.00000000E+00  0.00000000E+00
  0.00000000E+00  0.00000000E+00  0.00000000E+00  0.00000000E+00  0.00000000E+00
  0.00000000E+00  0.00000000E+00  0.00000000E+00  0.00000000E+00  0.00000000E+00
  0.00000000E+00  0.00000000E+00  0.00000000E+00  0.00000000E+00  0.00000000E+00
  0.00000000E+00  0.00000000E+00  0.00000000E+00  0.00000000E+00  0.00000000E+00
  0.00000000E+00  0.00000000E+00  0.00000000E+00  0.00000000E+00  0.00000000E+00
  0.00000000E+00  0.00000000E+00  0.00000000E+00  0.00000000E+00  0.00000000E+00
  0.00000000E+00  0.00000000E+00  0.00000000E+00  0.00000000E+00  0.00000000E+00
  0.00000000E+00  0.00000000E+00  0.00000000E+00  0.00000000E+00  0.00000000E+00
  0.00000000E+00  0.00000000E+00  0.00000000E+00  0.00000000E+00  0.00000000E+00
  0.00000000E+00  0.00000000E+00  0.00000000E+00  0.00000000E+00  0.00000000E+00
  0.00000000E+00  0.00000000E+00  0.00000000E+00  0.00000000E+00  0.00000000E+00
  0.00000000E+00  0.00000000E+00  0.00000000E+00  0.00000000E+00  0.00000000E+00
  0.00000000E+00  0.00000000E+00  0.00000000E+00  0.00000000E+00  0.00000000E+00
  0.00000000E+00  0.00000000E+00  0.00000000E+00  0.00000000E+00  0.00000000E+00
  0.00000000E+00  0.00000000E+00  0.00000000E+00  0.00000000E+00  0.00000000E+00
  0.00000000E+00  0.00000000E+00  0.00000000E+00  0.00000000E+00  0.00000000E+00
  0.00000000E+00  0.00000000E+00  0.00000000E+00  0.00000000E+00  0.00000000E+00
  0.00000000E+00  0.00000000E+00  0.00000000E+00  0.00000000E+00  0.00000000E+00
  0.00000000E+00  0.00000000E+00  0.00000000E+00  0.00000000E+00  0.00000000E+00
  0.00000000E+00  0.00000000E+00  0.00000000E+00  0.00000000E+00  0.00000000E+00
  0.00000000E+00  0.00000000E+00  0.00000000E+00  0.00000000E+00  0.00000000E+00
  0.00000000E+00  0.00000000E+00  0.00000000E+00  0.00000000E+00  0.00000000E+00
  0.00000000E+00  0.00000000E+00  0.00000000E+00  0.00000000E+00  0.00000000E+00
  0.00000000E+00  0.00000000E+00  0.00000000E+00  0.00000000E+00  0.00000000E+00
  0.00000000E+00  0.00000000E+00  0.00000000E+00  0.00000000E+00  0.00000000E+00
  0.00000000E+00  0.00000000E+00  0.00000000E+00  0.00000000E+00  0.00000000E+00
  0.00000000E+00  0.00000000E+00  0.00000000E+00  0.00000000E+00  0.00000000E+00
  0.00000000E+00  0.00000000E+00  0.00000000E+00  0.00000000E+00  0.00000000E+00
  0.00000000E+00  0.00000000E+00  0.00000000E+00  0.00000000E+00  0.00000000E+00
  0.00000000E+00  0.00000000E+00  0.00000000E+00  0.00000000E+00  0.00000000E+00
  0.00000000E+00  0.00000000E+00  0.00000000E+00  0.00000000E+00  0.00000000E+00
  0.00000000E+00  0.00000000E+00  0.00000000E+00  0.00000000E+00  0.00000000E+00
  0.00000000E+00  0.00000000E+00  0.00000000E+00  0.00000000E+00  0.00000000E+00
  0.00000000E+00  0.00000000E+00  0.00000000E+00  0.00000000E+00  0.00000000E+00
  0.00000000E+00  0.00000000E+00  0.00000000E+00  0.00000000E+00  0.00000000E+00
  0.00000000E+00  0.00000000E+00  0.00000000E+00  0.00000000E+00  0.00000000E+00
  0.00000000E+00  0.00000000E+00  0.00000000E+00  0.00000000E+00  0.00000000E+00
  0.00000000E+00  0.00000000E+00  0.00000000E+00  0.00000000E+00  0.00000000E+00
  0.00000000E+00  0.00000000E+00  0.00000000E+00  0.00000000E+00  0.00000000E+00
  0.00000000E+00  0.00000000E+00  0.00000000E+00  0.00000000E+00  0.00000000E+00
  0.00000000E+00  0.00000000E+00  0.00000000E+00  0.00000000E+00  0.00000000E+00
  0.00000000E+00  0.00000000E+00  0.00000000E+00  0.00000000E+00  0.00000000E+00
Gaussian Version                           C   N=           2
ES64L-G16RevC.01        
