Coordinates from ORCA-job no2 E -204.832780206867                       
Freq      UB3LYP                                                      6-31G(d)            
Number of atoms                            I                3
Info1-9                                    I   N=           9
          11          11        1002           0           0         100
           6          18        -502
Full Title                                 C   N=           5
Coordinates from ORCA-job no2 E -204.832780206867           
Route                                      C   N=           3
#p B3LYP/6-31G(d) Opt Freq=Raman    
Charge                                     I                0
Multiplicity                               I                2
Number of electrons                        I               23
Number of alpha electrons                  I               12
Number of beta electrons                   I               11
Number of basis functions                  I               45
Number of independent functions            I               45
Number of point charges in /Mol/           I                0
Number of translation vectors              I                0
Atomic numbers                             I   N=           3
           7           8           8
Nuclear charges                            R   N=           3
  7.00000000E+00  8.00000000E+00  8.00000000E+00
Current cartesian coordinates              R   N=           9
  1.22797038E-16  6.20595722E-01 -1.42853745E-16  2.09123546E+00 -2.71509722E-01
  1.07187584E-15 -2.09123546E+00 -2.71511535E-01 -1.14515298E-15
Number of symbols in /Mol/                 I                0
Int Atom Types                             I   N=           3
           0           0           0
Force Field                                I                0
Atom Types                                 C   N=           3
                                    
MM charges                                 R   N=           3
  0.00000000E+00  0.00000000E+00  0.00000000E+00
Integer atomic weights                     I   N=           3
          14          16          16
Real atomic weights                        R   N=           3
  1.40030740E+01  1.59949146E+01  1.59949146E+01
Atom fragment info                         I   N=           3
           0           0           0
Atom residue num                           I   N=           3
           0           0           0
Nuclear spins                              I   N=           3
           2           0           0
Nuclear ZEff                               R   N=           3
 -4.55000000E+00 -5.60000000E+00 -5.60000000E+00
Nuclear ZNuc                               R   N=           3
  7.00000000E+00  8.00000000E+00  8.00000000E+00
Nuclear QMom                               R   N=           3
  2.04400000E+00  0.00000000E+00  0.00000000E+00
Nuclear GFac                               R   N=           3
  4.03761000E-01  0.00000000E+00  0.00000000E+00
MicOpt                                     I   N=           3
          -1          -1          -1
Number of residues                         I                0
Number of secondary structures             I                0
Redundant internal dimensions              I   N=           4
           3           2           1           0
Redundant internal coordinate indices      I   N=          12
           1           2           0           0           1           3
           0           0           2           1           3           0
Redundant internal coordinates             R   N=           3
  2.27356941E+00  2.27357012E+00  2.33515438E+00
ZRed-IntVec                                I   N=           3
           0           0           0
ZRed-FPVec                                 R   N=           3
  0.00000000E+00  0.00000000E+00  0.00000000E+00
ZRed-Constraint1                           R   N=           3
  2.27356941E+00  2.27357012E+00  2.33515438E+00
ZRed-Constraint2                           R   N=           3
  2.25243411E+00  2.25243960E+00  2.34941955E+00
SymInf integers                            I   N=          26
           1           2           1           1           1           1
           1          -1           0           0           0           0
           0           0           0           0           0           0
           0           0           0           0           0           0
           0           0
RotTr to input orientation                 R   N=          12
  4.69156313E-01  6.98814049E-01  5.39954886E-01 -7.65120990E-01  1.63181178E-02
  6.43679726E-01  4.41001388E-01 -7.15117224E-01  5.42333045E-01 -3.17777057E+00
  5.26578492E+00 -5.45666900E-01
Number of contracted shells                I               12
Number of primitive shells                 I               33
Pure/Cartesian d shells                    I                1
Pure/Cartesian f shells                    I                0
Highest angular momentum                   I                2
Largest degree of contraction              I                6
Shell types                                I   N=          12
           0          -1          -1           2           0          -1
          -1           2           0          -1          -1           2
Number of primitives per shell             I   N=          12
           6           3           1           1           6           3
           1           1           6           3           1           1
Shell to atom map                          I   N=          12
           1           1           1           1           2           2
           2           2           3           3           3           3
Primitive exponents                        R   N=          33
  4.17351146E+03  6.27457911E+02  1.42902093E+02  4.02343293E+01  1.28202129E+01
  4.39043701E+00  1.16263619E+01  2.71627981E+00  7.72218397E-01  2.12031498E-01
  8.00000000E-01  5.48467166E+03  8.25234946E+02  1.88046958E+02  5.29645000E+01
  1.68975704E+01  5.79963534E+00  1.55396162E+01  3.59993359E+00  1.01376175E+00
  2.70005823E-01  8.00000000E-01  5.48467166E+03  8.25234946E+02  1.88046958E+02
  5.29645000E+01  1.68975704E+01  5.79963534E+00  1.55396162E+01  3.59993359E+00
  1.01376175E+00  2.70005823E-01  8.00000000E-01
Contraction coefficients                   R   N=          33
  1.83477216E-03  1.39946270E-02  6.85865518E-02  2.32240873E-01  4.69069948E-01
  3.60455199E-01 -1.14961182E-01 -1.69117479E-01  1.14585195E+00  1.00000000E+00
  1.00000000E+00  1.83107443E-03  1.39501722E-02  6.84450781E-02  2.32714336E-01
  4.70192898E-01  3.58520853E-01 -1.10777550E-01 -1.48026263E-01  1.13076702E+00
  1.00000000E+00  1.00000000E+00  1.83107443E-03  1.39501722E-02  6.84450781E-02
  2.32714336E-01  4.70192898E-01  3.58520853E-01 -1.10777550E-01 -1.48026263E-01
  1.13076702E+00  1.00000000E+00  1.00000000E+00
P(S=P) Contraction coefficients            R   N=          33
  0.00000000E+00  0.00000000E+00  0.00000000E+00  0.00000000E+00  0.00000000E+00
  0.00000000E+00  6.75797439E-02  3.23907296E-01  7.40895140E-01  1.00000000E+00
  0.00000000E+00  0.00000000E+00  0.00000000E+00  0.00000000E+00  0.00000000E+00
  0.00000000E+00  0.00000000E+00  7.08742682E-02  3.39752839E-01  7.27158577E-01
  1.00000000E+00  0.00000000E+00  0.00000000E+00  0.00000000E+00  0.00000000E+00
  0.00000000E+00  0.00000000E+00  0.00000000E+00  7.08742682E-02  3.39752839E-01
  7.27158577E-01  1.00000000E+00  0.00000000E+00
Coordinates of each shell                  R   N=          36
  1.52770556E-16  6.20595722E-01 -1.12748214E-16  1.52770556E-16  6.20595722E-01
 -1.12748214E-16  1.52770556E-16  6.20595722E-01 -1.12748214E-16  1.52770556E-16
  6.20595722E-01 -1.12748214E-16  2.09123546E+00 -2.71509722E-01  5.07364502E-16
  2.09123546E+00 -2.71509722E-01  5.07364502E-16  2.09123546E+00 -2.71509722E-01
  5.07364502E-16  2.09123546E+00 -2.71509722E-01  5.07364502E-16 -2.09123546E+00
 -2.71511535E-01 -5.90041468E-16 -2.09123546E+00 -2.71511535E-01 -5.90041468E-16
 -2.09123546E+00 -2.71511535E-01 -5.90041468E-16 -2.09123546E+00 -2.71511535E-01
 -5.90041468E-16
Num ILSW                                   I              100
ILSW                                       I   N=         100
           1           1           0           0           2           0
           0           0           0           0         402          -1
           5           0           0           0           2           0
           0           0           0           0           1           0
           1           0           0           0           0           0
           0           0      100000           0          -1           0
           0           0           0           0           0           0
           0           0           0           1           0           0
           0 -2000000000           1           0           0           0
           0           0           4          52           0           0
           0           0           5           0           0           0
           0           0           0           3           0           1
           0           0           0           0           0           0
           0           0           0           0           0           0
           0           0           0           0           0           0
           0           0           0           0           0           0
           0           0           0           0
Num RLSW                                   I               52
RLSW                                       R   N=          52
  8.00000000E-01  7.20000000E-01  1.00000000E+00  8.10000000E-01  2.00000000E-01
  0.00000000E+00  0.00000000E+00  1.00000000E+00  0.00000000E+00  0.00000000E+00
  0.00000000E+00  0.00000000E+00  1.00000000E+00  0.00000000E+00  0.00000000E+00
  0.00000000E+00  0.00000000E+00  1.00000000E+00  0.00000000E+00  0.00000000E+00
  0.00000000E+00  0.00000000E+00  1.00000000E+00  0.00000000E+00  0.00000000E+00
  0.00000000E+00  0.00000000E+00  1.00000000E+00  0.00000000E+00  0.00000000E+00
  0.00000000E+00  0.00000000E+00  1.00000000E+00  0.00000000E+00  0.00000000E+00
  0.00000000E+00  0.00000000E+00  0.00000000E+00  1.00000000E+00  1.00000000E+00
  0.00000000E+00  1.00000000E+00  0.00000000E+00  0.00000000E+00  0.00000000E+00
  0.00000000E+00  0.00000000E+00  0.00000000E+00  0.00000000E+00  0.00000000E+00
  0.00000000E+00  0.00000000E+00
MxBond                                     I                2
NBond                                      I   N=           3
           2           1           1
IBond                                      I   N=           6
           2           3           1           0           1           0
RBond                                      R   N=           6
  2.00000000E+00  2.00000000E+00  2.00000000E+00  0.00000000E+00  2.00000000E+00
  0.00000000E+00
Virial Ratio                               R      2.008586526757724E+00
SCF Energy                                 R     -2.050722061907302E+02
Total Energy                               R     -2.050722061907302E+02
S**2                                       R      7.532982869605149E-01
S**2 after annihilation                    R      7.500072973909522E-01
RMS Force                                  R      8.520821962396713E-05
RMS Density                                R      6.380166364115200E-10
NImag                                      I                0
Job Status                                 I                1
Nuclear derivative order                   I                2
Thermal Energy                             R     -2.050604460044730E+02
Thermal Enthalpy                           R     -2.050595018196593E+02
Thermal Free Energy                        R     -2.050874230223127E+02
External E-field                           R   N=          35
  0.00000000E+00  0.00000000E+00  0.00000000E+00  0.00000000E+00  0.00000000E+00
  0.00000000E+00  0.00000000E+00  0.00000000E+00  0.00000000E+00  0.00000000E+00
  0.00000000E+00  0.00000000E+00  0.00000000E+00  0.00000000E+00  0.00000000E+00
  0.00000000E+00  0.00000000E+00  0.00000000E+00  0.00000000E+00  0.00000000E+00
  0.00000000E+00  0.00000000E+00  0.00000000E+00  0.00000000E+00  0.00000000E+00
  0.00000000E+00  0.00000000E+00  0.00000000E+00  0.00000000E+00  0.00000000E+00
  0.00000000E+00  0.00000000E+00  0.00000000E+00  0.00000000E+00  0.00000000E+00
IOpCl                                      I                1
IROHF                                      I                0
Alpha Orbital Energies                     R   N=          45
 -1.92656298E+01 -1.92656201E+01 -1.45871603E+01 -1.28186264E+00 -1.13633430E+00
 -6.78249200E-01 -5.74950897E-01 -5.72019121E-01 -5.64990965E-01 -3.81490363E-01
 -3.77433154E-01 -2.87794351E-01 -9.02880507E-02  2.10468365E-01  3.69451100E-01
  5.83809866E-01  5.90697304E-01  5.92874985E-01  6.11793749E-01  7.79795997E-01
  8.20157149E-01  8.79432606E-01  8.89020755E-01  9.38031759E-01  9.52451491E-01
  1.27302338E+00  1.37165547E+00  1.38995440E+00  1.39937499E+00  1.46792294E+00
  1.71169920E+00  1.73082898E+00  1.81273819E+00  1.83221826E+00  1.83338555E+00
  2.19686674E+00  2.32475231E+00  2.64119101E+00  2.69436030E+00  2.70373611E+00
  2.77149382E+00  2.85842988E+00  3.40615401E+00  3.62588966E+00  3.70458633E+00
Beta Orbital Energies                      R   N=          45
 -1.92567206E+01 -1.92567033E+01 -1.45765284E+01 -1.26317306E+00 -1.11481816E+00
 -6.44872043E-01 -5.54058788E-01 -5.48233974E-01 -5.29789132E-01 -3.69832655E-01
 -3.40997559E-01 -1.43196705E-01 -7.38031438E-02  2.23724151E-01  3.95181009E-01
  5.96916894E-01  5.98847443E-01  6.19696662E-01  6.20694418E-01  7.85635849E-01
  8.38031878E-01  8.83745751E-01  9.14689553E-01  9.44634414E-01  9.69084714E-01
  1.28874188E+00  1.37682371E+00  1.40279681E+00  1.42014204E+00  1.48853517E+00
  1.72949232E+00  1.74230319E+00  1.83393597E+00  1.84275443E+00  1.85511197E+00
  2.21399839E+00  2.33492977E+00  2.66995915E+00  2.71449079E+00  2.71464888E+00
  2.78125142E+00  2.87527677E+00  3.42418146E+00  3.63838976E+00  3.72427249E+00
Alpha MO coefficients                      R   N=        2025
  6.97823642E-07  4.25201787E-06  1.49238952E-04 -1.20714950E-07  0.00000000E+00
 -2.50143324E-05 -3.29531015E-03  6.11887358E-06  0.00000000E+00 -6.16125172E-06
  9.01909334E-07  1.93707100E-06  6.40703580E-04  0.00000000E+00  0.00000000E+00
  7.05562021E-01  1.85993656E-02 -9.45927660E-04  3.43646473E-04  0.00000000E+00
  9.19222278E-03 -9.70223213E-04  6.07935678E-04  0.00000000E+00 -5.30348470E-03
 -5.61943526E-03 -5.70369428E-03 -9.36890931E-05  0.00000000E+00  0.00000000E+00
 -6.98412063E-01 -1.84092297E-02 -9.35507949E-04 -3.38721983E-04  0.00000000E+00
 -9.10584684E-03 -9.59121999E-04 -6.03879219E-04  0.00000000E+00  5.25020859E-03
  5.56504425E-03  5.64653124E-03 -8.98801287E-05  0.00000000E+00  0.00000000E+00
  1.37011777E-04  8.35000334E-04 -7.60931370E-07 -2.38158311E-05  0.00000000E+00
 -4.91133578E-03  1.67787444E-05  1.20162454E-03  0.00000000E+00 -1.20950479E-03
  1.77054633E-04  3.80344311E-04 -3.26262404E-06  0.00000000E+00  0.00000000E+00
  6.98446043E-01  1.85743113E-02 -1.01812723E-03  4.81788328E-04  0.00000000E+00
  8.43374211E-03 -1.08481136E-03  3.95188810E-04  0.00000000E+00 -5.20413740E-03
 -5.31188071E-03 -5.58361231E-03 -3.73477264E-04  0.00000000E+00  0.00000000E+00
  7.05595657E-01  1.87627740E-02  1.02770681E-03  4.85263466E-04  0.00000000E+00
  8.52691854E-03  1.09463460E-03  4.01359874E-04  0.00000000E+00 -5.25788185E-03
 -5.36883583E-03 -5.64141186E-03  3.74411883E-04  0.00000000E+00  0.00000000E+00
  9.92796305E-01  3.48064325E-02  2.65007442E-09 -1.20115878E-03  0.00000000E+00
  4.46660333E-03  1.07131398E-09 -8.00397632E-05  0.00000000E+00 -7.58849890E-03
 -7.90495951E-03 -8.26729575E-03 -6.03713070E-10  0.00000000E+00  0.00000000E+00
 -4.01342735E-06  4.56217806E-04 -1.09491388E-04  5.30386479E-05  0.00000000E+00
 -1.39805884E-03  5.87468508E-04 -2.19261035E-04  0.00000000E+00 -2.83161791E-04
  1.96125255E-04  2.80523281E-04  2.01450449E-04  0.00000000E+00  0.00000000E+00
 -4.01330361E-06  4.56217388E-04  1.09492097E-04  5.30389656E-05  0.00000000E+00
 -1.39805556E-03 -5.87466454E-04 -2.19260710E-04  0.00000000E+00 -2.83160212E-04
  1.96124642E-04  2.80522765E-04 -2.01450203E-04  0.00000000E+00  0.00000000E+00
 -1.55680440E-01  3.50838844E-01  4.75859209E-07 -1.06879157E-01  0.00000000E+00
  1.29471986E-01 -2.37538058E-08 -1.17416406E-03  0.00000000E+00  2.04086534E-02
 -6.45461953E-03 -1.61733028E-02 -3.06851909E-08  0.00000000E+00  0.00000000E+00
 -1.14356790E-01  2.60778401E-01 -1.28512600E-01  4.78903118E-02  0.00000000E+00
  1.89729918E-01 -4.68955497E-02  1.45419582E-02  0.00000000E+00  1.91525515E-02
 -2.80407248E-03 -5.06749779E-03 -9.92665624E-03  0.00000000E+00  0.00000000E+00
 -1.14356444E-01  2.60777634E-01  1.28512215E-01  4.78902363E-02  0.00000000E+00
  1.89729267E-01  4.68954237E-02  1.45419237E-02  0.00000000E+00  1.91525335E-02
 -2.80405402E-03 -5.06747809E-03  9.92665190E-03  0.00000000E+00  0.00000000E+00
  1.59766672E-07 -3.72379812E-07  3.22475988E-01  2.21943288E-07  0.00000000E+00
 -2.14523148E-07 -5.20006417E-03  7.74138913E-09  0.00000000E+00 -3.49489275E-09
 -2.17551736E-08  9.53094332E-09 -3.10818030E-02  0.00000000E+00  0.00000000E+00
 -1.44530407E-01  3.26865443E-01 -1.11667347E-01  6.48204740E-02  0.00000000E+00
  3.02968951E-01 -4.76675366E-02  3.00883546E-02  0.00000000E+00  3.20875658E-03
  1.98731428E-04 -7.73193661E-03 -1.12153970E-02  0.00000000E+00  0.00000000E+00
  1.44530694E-01 -3.26866114E-01 -1.11667572E-01 -6.48206307E-02  0.00000000E+00
 -3.02969476E-01 -4.76676357E-02 -3.00884153E-02  0.00000000E+00 -3.20879109E-03
 -1.98740003E-04  7.73194703E-03 -1.12154214E-02  0.00000000E+00  0.00000000E+00
  1.37502979E-01 -3.46314900E-01  3.02641258E-08 -1.22503648E-01  0.00000000E+00
 -3.87814506E-01  2.29524045E-08 -3.91172443E-02  0.00000000E+00  1.51905711E-02
  7.10465116E-03  1.58270624E-03 -6.04269298E-09  0.00000000E+00  0.00000000E+00
 -1.14639275E-01  2.55187184E-01  1.82067608E-01 -1.40030782E-01  0.00000000E+00
  4.00818760E-01  6.30657839E-02 -6.24398927E-02  0.00000000E+00 -2.02024984E-02
 -6.64654087E-03 -1.60455451E-03  1.52129344E-02  0.00000000E+00  0.00000000E+00
 -1.14639214E-01  2.55187050E-01 -1.82067297E-01 -1.40030754E-01  0.00000000E+00
  4.00818522E-01 -6.30656472E-02 -6.24398655E-02  0.00000000E+00 -2.02024655E-02
 -6.64655796E-03 -1.60456175E-03 -1.52129278E-02  0.00000000E+00  0.00000000E+00
 -1.61153498E-02  2.59151433E-02  3.83086644E-07  4.65773909E-01  0.00000000E+00
  9.44061290E-02  8.60479007E-08  2.03615686E-01  0.00000000E+00  1.78254783E-02
 -2.57126125E-02  3.49659563E-03  4.33683725E-08  0.00000000E+00  0.00000000E+00
 -3.46565548E-02  7.31871947E-02  2.41564606E-01  2.09899883E-01  0.00000000E+00
  1.38722217E-01  1.18655670E-01  1.11100495E-01  0.00000000E+00 -2.60715091E-02
  1.32572460E-02  9.27610143E-04 -1.16779582E-02  0.00000000E+00  0.00000000E+00
 -3.46568006E-02  7.31877222E-02 -2.41565332E-01  2.09898607E-01  0.00000000E+00
  1.38723142E-01 -1.18656003E-01  1.11099856E-01  0.00000000E+00 -2.60715589E-02
  1.32572218E-02  9.27611087E-04  1.16778584E-02  0.00000000E+00  0.00000000E+00
  8.64949098E-08 -1.87177812E-07  3.60327677E-01 -6.40988290E-07  0.00000000E+00
 -4.33883085E-07  8.58354247E-02 -2.92465141E-07  0.00000000E+00 -1.39573833E-08
  2.76545860E-08 -1.07051423E-08 -5.08934165E-03  0.00000000E+00  0.00000000E+00
  7.99435843E-02 -1.70558420E-01 -2.93586799E-01  2.27651855E-01  0.00000000E+00
 -3.07694091E-01 -1.35768605E-01  1.13070373E-01  0.00000000E+00  1.81814478E-02
  5.61926707E-03 -1.33325500E-03 -1.58012377E-02  0.00000000E+00  0.00000000E+00
 -7.99435501E-02  1.70558359E-01 -2.93585908E-01 -2.27652662E-01  0.00000000E+00
  3.07693897E-01 -1.35768157E-01 -1.13070787E-01  0.00000000E+00 -1.81813600E-02
 -5.61932973E-03  1.33324318E-03 -1.58012796E-02  0.00000000E+00  0.00000000E+00
  0.00000000E+00  0.00000000E+00  0.00000000E+00  0.00000000E+00  4.69472309E-01
  0.00000000E+00  0.00000000E+00  0.00000000E+00  2.25313348E-01  0.00000000E+00
  0.00000000E+00  0.00000000E+00  0.00000000E+00  4.92219133E-08 -1.98772388E-02
  0.00000000E+00  0.00000000E+00  0.00000000E+00  0.00000000E+00  3.13327803E-01
  0.00000000E+00  0.00000000E+00  0.00000000E+00  1.66577682E-01  0.00000000E+00
  0.00000000E+00  0.00000000E+00  0.00000000E+00 -2.79458816E-02  1.10364144E-02
  0.00000000E+00  0.00000000E+00  0.00000000E+00  0.00000000E+00  3.13327269E-01
  0.00000000E+00  0.00000000E+00  0.00000000E+00  1.66577395E-01  0.00000000E+00
  0.00000000E+00  0.00000000E+00  0.00000000E+00  2.79458386E-02  1.10364193E-02
  8.90906540E-09 -1.83547505E-08 -5.33945790E-02 -2.04379790E-07  0.00000000E+00
  3.03957112E-08  6.72335828E-02 -1.44530996E-07  0.00000000E+00 -2.30976331E-08
  3.57591424E-08 -3.05913102E-09  4.13468286E-02  0.00000000E+00  0.00000000E+00
 -2.67249416E-03  7.69307417E-03  2.91956748E-01  4.02463826E-01  0.00000000E+00
 -2.34828086E-02  2.00948773E-01  2.49548080E-01  0.00000000E+00 -1.70315885E-02
  1.32827259E-02  1.68002231E-03 -9.44922884E-03  0.00000000E+00  0.00000000E+00
  2.67252069E-03 -7.69311998E-03  2.91957327E-01 -4.02463862E-01  0.00000000E+00
  2.34826168E-02  2.00949102E-01 -2.49548093E-01  0.00000000E+00  1.70316214E-02
 -1.32827448E-02 -1.68002194E-03 -9.44921540E-03  0.00000000E+00  0.00000000E+00
  0.00000000E+00  0.00000000E+00  0.00000000E+00  0.00000000E+00 -1.83332452E-07
  0.00000000E+00  0.00000000E+00  0.00000000E+00 -1.69835313E-07  0.00000000E+00
  0.00000000E+00  0.00000000E+00  0.00000000E+00  5.07414581E-02  2.70700744E-08
  0.00000000E+00  0.00000000E+00  0.00000000E+00  0.00000000E+00  4.81898495E-01
  0.00000000E+00  0.00000000E+00  0.00000000E+00  3.25587514E-01  0.00000000E+00
  0.00000000E+00  0.00000000E+00  0.00000000E+00 -1.98725726E-02  8.75920111E-03
  0.00000000E+00  0.00000000E+00  0.00000000E+00  0.00000000E+00 -4.81898903E-01
  0.00000000E+00  0.00000000E+00  0.00000000E+00 -3.25587760E-01  0.00000000E+00
  0.00000000E+00  0.00000000E+00  0.00000000E+00 -1.98725918E-02 -8.75922388E-03
 -7.05293748E-02  1.35020305E-01 -1.83338612E-07  4.09381337E-01  0.00000000E+00
  5.40848709E-01 -3.13909506E-08  2.10995310E-01  0.00000000E+00 -5.75430240E-02
  1.74427986E-02  3.67623767E-03 -3.95196452E-08  0.00000000E+00  0.00000000E+00
  1.44038819E-02 -5.39885595E-02  4.78475251E-02 -4.22521607E-01  0.00000000E+00
 -7.43772097E-02  3.78055930E-02 -3.17594066E-01  0.00000000E+00 -6.85530531E-03
 -6.37405739E-04 -1.89037447E-03  3.72367119E-03  0.00000000E+00  0.00000000E+00
  1.44038723E-02 -5.39885557E-02 -4.78474484E-02 -4.22521690E-01  0.00000000E+00
 -7.43770870E-02 -3.78055170E-02 -3.17594086E-01  0.00000000E+00 -6.85531617E-03
 -6.37413743E-04 -1.89037864E-03 -3.72368166E-03  0.00000000E+00  0.00000000E+00
  0.00000000E+00  0.00000000E+00  0.00000000E+00  0.00000000E+00  5.72047722E-01
  0.00000000E+00  0.00000000E+00  0.00000000E+00  4.68637281E-01  0.00000000E+00
  0.00000000E+00  0.00000000E+00  0.00000000E+00 -1.06561925E-08  1.24479048E-02
  0.00000000E+00  0.00000000E+00  0.00000000E+00  0.00000000E+00 -3.90337253E-01
  0.00000000E+00  0.00000000E+00  0.00000000E+00 -3.55141644E-01  0.00000000E+00
  0.00000000E+00  0.00000000E+00  0.00000000E+00 -9.30124736E-03  6.56557087E-03
  0.00000000E+00  0.00000000E+00  0.00000000E+00  0.00000000E+00 -3.90337122E-01
  0.00000000E+00  0.00000000E+00  0.00000000E+00 -3.55141471E-01  0.00000000E+00
  0.00000000E+00  0.00000000E+00  0.00000000E+00  9.30124053E-03  6.56557825E-03
 -1.25167868E-01  2.37454983E-01 -6.54107012E-07 -4.31860858E-01  0.00000000E+00
  2.01951102E+00 -7.38793011E-07 -8.38785446E-01  0.00000000E+00 -7.31433759E-02
 -7.87687913E-03  2.26654062E-02 -6.73853742E-08  0.00000000E+00  0.00000000E+00
  7.47662690E-02 -1.98981281E-01  3.92662429E-01  3.96733602E-03  0.00000000E+00
 -8.90912967E-01  7.46422435E-01 -4.52013251E-02  0.00000000E+00  7.00576458E-03
 -1.95602885E-02  6.63388816E-03  1.13071588E-02  0.00000000E+00  0.00000000E+00
  7.47663990E-02 -1.98981585E-01 -3.92663030E-01  3.96648201E-03  0.00000000E+00
 -8.90914161E-01 -7.46423316E-01 -4.52027532E-02  0.00000000E+00  7.00578568E-03
 -1.95602688E-02  6.63386835E-03 -1.13070836E-02  0.00000000E+00  0.00000000E+00
 -1.05222862E-07 -1.41402239E-07  5.61641406E-01 -7.00547943E-08  0.00000000E+00
  4.94352595E-06  2.45368205E+00 -6.55165882E-07  0.00000000E+00 -7.08097028E-08
 -6.22909221E-08 -4.20610319E-08  1.95312454E-02  0.00000000E+00  0.00000000E+00
  8.31655525E-02 -1.98472151E-01  1.49444294E-01 -2.18287815E-01  0.00000000E+00
 -1.64370206E+00  8.36762079E-01 -6.01402910E-01  0.00000000E+00 -2.44787342E-02
  1.61447288E-02 -4.81343176E-03 -2.49746930E-03  0.00000000E+00  0.00000000E+00
 -8.31653628E-02  1.98471478E-01  1.49443639E-01  2.18288085E-01  0.00000000E+00
  1.64369799E+00  8.36759086E-01  6.01402953E-01  0.00000000E+00  2.44785485E-02
 -1.61448302E-02  4.81343160E-03 -2.49754003E-03  0.00000000E+00  0.00000000E+00
  1.49182337E-02 -1.07807779E+00 -5.61770354E-08 -3.00095657E-01  0.00000000E+00
  1.59823639E+00 -9.33402468E-07  3.49986321E-01  0.00000000E+00 -1.60545839E-01
 -1.88074133E-01 -1.90881413E-01 -1.85304970E-08  0.00000000E+00  0.00000000E+00
 -1.00794122E-02 -3.11613835E-01 -1.24485069E-01  7.76985057E-02  0.00000000E+00
  3.03064702E-01  2.82854229E-02 -1.08811317E-01  0.00000000E+00 -1.50554471E-01
 -1.11685717E-01 -7.32071385E-02  7.40820770E-02  0.00000000E+00  0.00000000E+00
 -1.00793477E-02 -3.11614222E-01  1.24484887E-01  7.76983887E-02  0.00000000E+00
  3.03064047E-01 -2.82861142E-02 -1.08811769E-01  0.00000000E+00 -1.50554496E-01
 -1.11685853E-01 -7.32072380E-02 -7.40820665E-02  0.00000000E+00  0.00000000E+00
  3.00473948E-03 -2.37418657E-01  1.12110323E-05  7.12730903E-01  0.00000000E+00
  1.61158294E+00 -3.17048350E-05 -1.53292326E+00  0.00000000E+00  1.76952672E-01
 -7.94821649E-02 -3.98726050E-02  1.98911539E-06  0.00000000E+00  0.00000000E+00
  8.28332342E-03 -1.44147635E-01 -9.66393190E-02  2.43182333E-01  0.00000000E+00
 -5.86921766E-01  5.73247397E-01 -1.12642177E-01  0.00000000E+00 -1.99000725E-01
 -1.43877743E-02  3.25630919E-03  4.16992673E-02  0.00000000E+00  0.00000000E+00
  8.28315883E-03 -1.44150344E-01  9.66476554E-02  2.43182717E-01  0.00000000E+00
 -5.86949137E-01 -5.73258830E-01 -1.12650286E-01  0.00000000E+00 -1.99005475E-01
 -1.43888362E-02  3.25652980E-03 -4.17026846E-02  0.00000000E+00  0.00000000E+00
  1.25629628E-07 -3.64877628E-06 -7.89390965E-01  1.04025314E-05  0.00000000E+00
  2.31315570E-05  2.13450028E+00 -2.15313828E-05  0.00000000E+00  2.78042899E-06
 -1.25435128E-06 -6.36744284E-07 -1.29417873E-01  0.00000000E+00  0.00000000E+00
 -8.17695930E-03 -8.40975441E-02 -2.90745860E-01  1.67959411E-02  0.00000000E+00
 -9.07660956E-01  3.65571693E-01 -2.46082627E-01  0.00000000E+00 -1.63050368E-01
 -3.29812370E-02  9.63136330E-03  1.10557178E-01  0.00000000E+00  0.00000000E+00
  8.17710956E-03  8.40935818E-02 -2.90742753E-01 -1.67889806E-02  0.00000000E+00
  9.07643921E-01  3.65555684E-01  2.46079857E-01  0.00000000E+00  1.63044318E-01
  3.29810365E-02 -9.63123086E-03  1.10556036E-01  0.00000000E+00  0.00000000E+00
  0.00000000E+00  0.00000000E+00  0.00000000E+00  0.00000000E+00 -8.51410264E-01
  0.00000000E+00  0.00000000E+00  0.00000000E+00  1.19571598E+00  0.00000000E+00
  0.00000000E+00  0.00000000E+00  0.00000000E+00 -3.74885763E-08  4.27790752E-02
  0.00000000E+00  0.00000000E+00  0.00000000E+00  0.00000000E+00 -2.26532494E-01
  0.00000000E+00  0.00000000E+00  0.00000000E+00 -5.73874424E-02  0.00000000E+00
  0.00000000E+00  0.00000000E+00  0.00000000E+00  6.09685720E-02 -2.14519678E-02
  0.00000000E+00  0.00000000E+00  0.00000000E+00  0.00000000E+00 -2.26532436E-01
  0.00000000E+00  0.00000000E+00  0.00000000E+00 -5.73875570E-02  0.00000000E+00
  0.00000000E+00  0.00000000E+00  0.00000000E+00 -6.09684665E-02 -2.14519756E-02
  4.10023331E-02  3.44867456E-01  2.82412550E-07 -2.05355342E-01  0.00000000E+00
  8.88461640E-01 -2.53060224E-07 -1.93202294E-01  0.00000000E+00  3.45300746E-01
  7.07150622E-02 -2.79447085E-02 -1.82221115E-07  0.00000000E+00  0.00000000E+00
  1.58405745E-02 -1.67252410E-01 -5.11202221E-01 -4.12523209E-02  0.00000000E+00
 -1.99659873E-01  1.08516730E+00 -2.13247119E-01  0.00000000E+00 -1.22852050E-01
 -7.61999657E-02 -6.31137582E-02  1.27825766E-02  0.00000000E+00  0.00000000E+00
  1.58405980E-02 -1.67251307E-01  5.11200992E-01 -4.12529715E-02  0.00000000E+00
 -1.99661480E-01 -1.08516483E+00 -2.13246800E-01  0.00000000E+00 -1.22851580E-01
 -7.61994456E-02 -6.31133718E-02 -1.27824852E-02  0.00000000E+00  0.00000000E+00
 -3.64522580E-08 -4.98984864E-07  1.74159496E-01  3.09098744E-07  0.00000000E+00
 -1.17957692E-06 -4.01770177E-01  4.65924795E-07  0.00000000E+00 -3.70003860E-07
 -2.52149225E-07  1.61927884E-08 -1.39601675E-01  0.00000000E+00  0.00000000E+00
 -4.57666514E-03 -3.83080084E-01 -3.55180706E-01  4.12483265E-01  0.00000000E+00
  8.09522748E-01  5.14002739E-01 -4.15579738E-01  0.00000000E+00 -1.28131629E-01
 -1.58616315E-01 -1.36567931E-01 -3.06154329E-03  0.00000000E+00  0.00000000E+00
  4.57661234E-03  3.83080669E-01 -3.55182116E-01 -4.12482983E-01  0.00000000E+00
 -8.09522238E-01  5.14005739E-01  4.15580001E-01  0.00000000E+00  1.28131895E-01
  1.58616590E-01  1.36568143E-01 -3.06156332E-03  0.00000000E+00  0.00000000E+00
  0.00000000E+00  0.00000000E+00  0.00000000E+00  0.00000000E+00  2.63678977E-07
  0.00000000E+00  0.00000000E+00  0.00000000E+00 -8.04035324E-07  0.00000000E+00
  0.00000000E+00  0.00000000E+00  0.00000000E+00 -8.71537737E-02  2.62751328E-09
  0.00000000E+00  0.00000000E+00  0.00000000E+00  0.00000000E+00 -6.53330812E-01
  0.00000000E+00  0.00000000E+00  0.00000000E+00  8.14737984E-01  0.00000000E+00
  0.00000000E+00  0.00000000E+00  0.00000000E+00  2.99055973E-02  3.88121805E-03
  0.00000000E+00  0.00000000E+00  0.00000000E+00  0.00000000E+00  6.53330242E-01
  0.00000000E+00  0.00000000E+00  0.00000000E+00 -8.14736766E-01  0.00000000E+00
  0.00000000E+00  0.00000000E+00  0.00000000E+00  2.99056040E-02 -3.88121205E-03
  2.34977033E-02  2.64076507E-01 -1.07337371E-07 -2.52307810E-01  0.00000000E+00
 -6.90494187E-01  3.92295315E-07  1.08662211E+00  0.00000000E+00  1.76723332E-01
  3.57842070E-02 -5.10795875E-02  2.19453355E-07  0.00000000E+00  0.00000000E+00
 -3.39027342E-03 -1.52795729E-02  1.49709283E-01  5.55549162E-01  0.00000000E+00
  3.98069574E-01 -3.08331874E-01 -9.23971964E-01  0.00000000E+00  2.20188035E-03
  1.22066907E-02 -7.13422840E-02 -1.24814609E-02  0.00000000E+00  0.00000000E+00
 -3.39028046E-03 -1.52799010E-02 -1.49709268E-01  5.55549080E-01  0.00000000E+00
  3.98070818E-01  3.08332074E-01 -9.23971194E-01  0.00000000E+00  2.20181766E-03
  1.22065305E-02 -7.13424090E-02  1.24814850E-02  0.00000000E+00  0.00000000E+00
  0.00000000E+00  0.00000000E+00  0.00000000E+00  0.00000000E+00  2.79885577E-01
  0.00000000E+00  0.00000000E+00  0.00000000E+00 -1.01463488E+00  0.00000000E+00
  0.00000000E+00  0.00000000E+00  0.00000000E+00 -4.26285962E-08 -4.04288857E-02
  0.00000000E+00  0.00000000E+00  0.00000000E+00  0.00000000E+00 -6.12012101E-01
  0.00000000E+00  0.00000000E+00  0.00000000E+00  1.01993474E+00  0.00000000E+00
  0.00000000E+00  0.00000000E+00  0.00000000E+00  1.60343556E-02 -4.89364743E-02
  0.00000000E+00  0.00000000E+00  0.00000000E+00  0.00000000E+00 -6.12012819E-01
  0.00000000E+00  0.00000000E+00  0.00000000E+00  1.01993540E+00  0.00000000E+00
  0.00000000E+00  0.00000000E+00  0.00000000E+00 -1.60343686E-02 -4.89364611E-02
  1.99653384E-09  3.87586674E-08 -1.58163234E-01 -1.45042291E-07  0.00000000E+00
  4.08595768E-07  9.77294078E-01  2.44302902E-07  0.00000000E+00 -2.08472312E-08
  7.46931575E-08  2.22363234E-08  1.58496480E-01  0.00000000E+00  0.00000000E+00
  4.74464706E-03  1.70065150E-02  3.39087019E-01  4.70354646E-01  0.00000000E+00
 -5.21877526E-01 -4.34316690E-01 -8.05521973E-01  0.00000000E+00 -7.11654607E-02
  7.97630288E-02  4.44824057E-02 -4.75670398E-02  0.00000000E+00  0.00000000E+00
 -4.74463315E-03 -1.70065378E-02  3.39087740E-01 -4.70354859E-01  0.00000000E+00
  5.21877069E-01 -4.34317799E-01  8.05522040E-01  0.00000000E+00  7.11655483E-02
 -7.97631534E-02 -4.44823863E-02 -4.75669088E-02  0.00000000E+00  0.00000000E+00
 -1.05988080E-02 -6.03296098E-01  1.94246833E-07 -8.00027597E-02  0.00000000E+00
  4.65499802E+00 -1.44933151E-06 -1.22906299E+00  0.00000000E+00  1.36016257E-01
 -4.55049831E-01  2.28978434E-01  2.11178755E-07  0.00000000E+00  0.00000000E+00
  6.33759155E-02  9.52670959E-01 -1.22483122E-01  4.08055207E-02  0.00000000E+00
 -3.40671174E+00  1.35917429E+00 -4.01406443E-01  0.00000000E+00  1.77022284E-01
  1.16665997E-01  4.68278609E-01 -1.26238908E-01  0.00000000E+00  0.00000000E+00
  6.33760092E-02  9.52672541E-01  1.22483605E-01  4.08059559E-02  0.00000000E+00
 -3.40671598E+00 -1.35917561E+00 -4.01408805E-01  0.00000000E+00  1.77022681E-01
  1.16666938E-01  4.68278616E-01  1.26239128E-01  0.00000000E+00  0.00000000E+00
  0.00000000E+00  0.00000000E+00  0.00000000E+00  0.00000000E+00  3.01662016E-07
  0.00000000E+00  0.00000000E+00  0.00000000E+00 -3.62721555E-07  0.00000000E+00
  0.00000000E+00  0.00000000E+00  0.00000000E+00  5.80638933E-01  2.17306576E-06
  0.00000000E+00  0.00000000E+00  0.00000000E+00  0.00000000E+00 -1.39569037E-01
  0.00000000E+00  0.00000000E+00  0.00000000E+00 -5.81658551E-02  0.00000000E+00
  0.00000000E+00  0.00000000E+00  0.00000000E+00 -3.16361413E-01  2.63694049E-01
  0.00000000E+00  0.00000000E+00  0.00000000E+00  0.00000000E+00  1.39568876E-01
  0.00000000E+00  0.00000000E+00  0.00000000E+00  5.81666927E-02  0.00000000E+00
  0.00000000E+00  0.00000000E+00  0.00000000E+00 -3.16362971E-01 -2.63693002E-01
 -1.76943317E-08  1.67883516E-07  1.82465969E-01  1.87814042E-07  0.00000000E+00
 -4.50210330E-06 -3.52590599E+00 -4.05350612E-07  0.00000000E+00 -2.69411170E-07
  6.81077819E-07 -3.28505605E-07  9.21028798E-02  0.00000000E+00  0.00000000E+00
 -6.48602189E-02 -1.19322530E+00  2.52133260E-01 -1.58962004E-01  0.00000000E+00
  4.27862442E+00 -1.40479385E+00  9.95519970E-01  0.00000000E+00 -3.52099084E-01
 -4.16935868E-01 -1.06764187E-01  8.93929112E-02  0.00000000E+00  0.00000000E+00
  6.48601368E-02  1.19322400E+00  2.52133129E-01  1.58962301E-01  0.00000000E+00
 -4.27861831E+00 -1.40479128E+00 -9.95520274E-01  0.00000000E+00  3.52099034E-01
  4.16935890E-01  1.06763369E-01  8.93924207E-02  0.00000000E+00  0.00000000E+00
  0.00000000E+00  0.00000000E+00  0.00000000E+00  0.00000000E+00  1.63684306E-01
  0.00000000E+00  0.00000000E+00  0.00000000E+00 -1.73998386E-01  0.00000000E+00
  0.00000000E+00  0.00000000E+00  0.00000000E+00 -1.85277132E-06  7.04781242E-01
  0.00000000E+00  0.00000000E+00  0.00000000E+00  0.00000000E+00  1.68945495E-02
  0.00000000E+00  0.00000000E+00  0.00000000E+00  1.34328391E-01  0.00000000E+00
  0.00000000E+00  0.00000000E+00  0.00000000E+00  3.08221511E-01  2.46812349E-01
  0.00000000E+00  0.00000000E+00  0.00000000E+00  0.00000000E+00  1.68936189E-02
  0.00000000E+00  0.00000000E+00  0.00000000E+00  1.34328191E-01  0.00000000E+00
  0.00000000E+00  0.00000000E+00  0.00000000E+00 -3.08219724E-01  2.46813311E-01
  2.79170174E-03 -4.50678831E-01 -1.16353178E-07  1.88274216E-01  0.00000000E+00
  3.33454047E+00  1.80174077E-06 -1.06955534E+00  0.00000000E+00 -4.83183918E-02
  4.88271359E-01 -4.15537513E-01 -2.28565646E-07  0.00000000E+00  0.00000000E+00
  3.55836669E-02  7.00241539E-01 -1.20937790E-01  9.00211083E-02  0.00000000E+00
 -2.41706783E+00  1.07372873E+00 -1.74295975E-01  0.00000000E+00  3.72010391E-01
  8.81122225E-02  1.37691428E-04  2.74368954E-01  0.00000000E+00  0.00000000E+00
  3.55836225E-02  7.00240488E-01  1.20937493E-01  9.00209568E-02  0.00000000E+00
 -2.41706364E+00 -1.07372728E+00 -1.74295975E-01  0.00000000E+00  3.72010512E-01
  8.81112239E-02  1.37894226E-04 -2.74368697E-01  0.00000000E+00  0.00000000E+00
  2.63088930E-08  3.81897202E-07 -1.64770825E-02  9.11941037E-08  0.00000000E+00
 -3.72576736E-07  1.81841490E+00  1.00158304E-06  0.00000000E+00  7.29314588E-08
  9.40400571E-08 -4.78336731E-09 -3.55233396E-01  0.00000000E+00  0.00000000E+00
  2.04081270E-02  2.92957352E-01  1.29750230E-01  4.57721222E-02  0.00000000E+00
 -1.66786236E+00  4.40327164E-01 -4.34006681E-01  0.00000000E+00  1.21243664E-01
 -5.23714745E-01  5.32282840E-01 -1.43922449E-01  0.00000000E+00  0.00000000E+00
 -2.04081642E-02 -2.92957472E-01  1.29750279E-01 -4.57717880E-02  0.00000000E+00
  1.66786266E+00  4.40327245E-01  4.34006797E-01  0.00000000E+00 -1.21243335E-01
  5.23714081E-01 -5.32282658E-01 -1.43923334E-01  0.00000000E+00  0.00000000E+00
  0.00000000E+00  0.00000000E+00  0.00000000E+00  0.00000000E+00 -3.06418206E-08
  0.00000000E+00  0.00000000E+00  0.00000000E+00 -7.55187018E-08  0.00000000E+00
  0.00000000E+00  0.00000000E+00  0.00000000E+00 -8.80201507E-03 -2.46444320E-07
  0.00000000E+00  0.00000000E+00  0.00000000E+00  0.00000000E+00  3.95355541E-02
  0.00000000E+00  0.00000000E+00  0.00000000E+00 -4.64701135E-02  0.00000000E+00
  0.00000000E+00  0.00000000E+00  0.00000000E+00  4.15941369E-01  5.73211213E-01
  0.00000000E+00  0.00000000E+00  0.00000000E+00  0.00000000E+00 -3.95356186E-02
  0.00000000E+00  0.00000000E+00  0.00000000E+00  4.64701807E-02  0.00000000E+00
  0.00000000E+00  0.00000000E+00  0.00000000E+00  4.15942148E-01 -5.73210787E-01
 -4.33737587E-02 -4.06861452E-01  2.29455553E-07 -8.25896210E-02  0.00000000E+00
  2.40358910E+00  2.18222069E-06 -9.25813207E-01  0.00000000E+00  2.68602919E-01
 -3.43816918E-01 -1.02035495E-01 -6.65640144E-08  0.00000000E+00  0.00000000E+00
  2.03948127E-02  2.58390241E-01  6.00497433E-02 -1.37984750E-01  0.00000000E+00
 -1.42131319E+00  6.22843233E-01  3.69636015E-02  0.00000000E+00 -7.25733718E-03
  6.11556922E-01 -4.98228892E-01 -3.23022564E-02  0.00000000E+00  0.00000000E+00
  2.03947861E-02  2.58389826E-01 -6.00492841E-02 -1.37984825E-01  0.00000000E+00
 -1.42130953E+00 -6.22842381E-01  3.69639702E-02  0.00000000E+00 -7.25775325E-03
  6.11557500E-01 -4.98229187E-01  3.23021084E-02  0.00000000E+00  0.00000000E+00
  0.00000000E+00  0.00000000E+00  0.00000000E+00  0.00000000E+00 -1.53522832E-01
  0.00000000E+00  0.00000000E+00  0.00000000E+00 -2.13268170E-01  0.00000000E+00
  0.00000000E+00  0.00000000E+00  0.00000000E+00  1.35235918E-07 -3.19329271E-01
  0.00000000E+00  0.00000000E+00  0.00000000E+00  0.00000000E+00 -8.88261034E-02
  0.00000000E+00  0.00000000E+00  0.00000000E+00  1.58336185E-01  0.00000000E+00
  0.00000000E+00  0.00000000E+00  0.00000000E+00 -1.30558145E-01  6.74537381E-01
  0.00000000E+00  0.00000000E+00  0.00000000E+00  0.00000000E+00 -8.88260416E-02
  0.00000000E+00  0.00000000E+00  0.00000000E+00  1.58336095E-01  0.00000000E+00
  0.00000000E+00  0.00000000E+00  0.00000000E+00  1.30557528E-01  6.74537687E-01
  1.16803416E-08  4.59597431E-07  1.07792523E-01  9.18636656E-08  0.00000000E+00
 -3.81727079E-07  1.76597618E+00  9.01321727E-07  0.00000000E+00  2.33821726E-07
 -1.47249550E-07  8.69128151E-08 -4.16642869E-01  0.00000000E+00  0.00000000E+00
  2.64526818E-02  5.92335470E-02  2.91765780E-01  8.99041094E-02  0.00000000E+00
 -1.34490170E+00  2.04278985E-01 -4.99040719E-01  0.00000000E+00  3.93712058E-01
 -7.10710405E-02 -2.57121665E-01  4.80383182E-01  0.00000000E+00  0.00000000E+00
 -2.64527138E-02 -5.92338124E-02  2.91765735E-01 -8.99037630E-02  0.00000000E+00
  1.34490204E+00  2.04279032E-01  4.99040686E-01  0.00000000E+00 -3.93712897E-01
  7.10712666E-02  2.57122066E-01  4.80382729E-01  0.00000000E+00  0.00000000E+00
 -9.41641684E-02 -4.43508130E-01  4.69515347E-07  1.40555697E-03  0.00000000E+00
  2.02461602E+00  1.11707025E-06 -9.41106168E-01  0.00000000E+00  3.72578370E-01
  1.84142587E-01 -1.08549760E+00  7.46878699E-08  0.00000000E+00  0.00000000E+00
  3.78230478E-03 -2.93730736E-02  2.24672025E-01 -1.70983040E-01  0.00000000E+00
 -8.33365266E-01  3.38368978E-01  2.05047887E-01  0.00000000E+00 -1.09341666E-01
 -1.37405989E-01  1.17116340E-01 -4.37358509E-01  0.00000000E+00  0.00000000E+00
  3.78233187E-03 -2.93733689E-02 -2.24671829E-01 -1.70983199E-01  0.00000000E+00
 -8.33363392E-01 -3.38368477E-01  2.05048022E-01  0.00000000E+00 -1.09342014E-01
 -1.37405034E-01  1.17115869E-01  4.37358968E-01  0.00000000E+00  0.00000000E+00
  0.00000000E+00  0.00000000E+00  0.00000000E+00  0.00000000E+00 -1.86651460E-01
  0.00000000E+00  0.00000000E+00  0.00000000E+00 -6.24016256E-01  0.00000000E+00
  0.00000000E+00  0.00000000E+00  0.00000000E+00 -1.12332714E-07  7.56893586E-01
  0.00000000E+00  0.00000000E+00  0.00000000E+00  0.00000000E+00 -6.52640561E-02
  0.00000000E+00  0.00000000E+00  0.00000000E+00  4.25465683E-01  0.00000000E+00
  0.00000000E+00  0.00000000E+00  0.00000000E+00 -7.37628242E-01  3.33759017E-02
  0.00000000E+00  0.00000000E+00  0.00000000E+00  0.00000000E+00 -6.52641164E-02
  0.00000000E+00  0.00000000E+00  0.00000000E+00  4.25465625E-01  0.00000000E+00
  0.00000000E+00  0.00000000E+00  0.00000000E+00  7.37628325E-01  3.33767951E-02
  9.06746868E-08 -6.40211179E-07 -6.85586061E-02  6.48561772E-07  0.00000000E+00
 -2.61586236E-06 -2.47202216E-02  1.13633945E-06  0.00000000E+00 -1.13857959E-06
  6.07176619E-07  7.38900894E-07  1.22263143E+00  0.00000000E+00  0.00000000E+00
  1.52496579E-02  3.55067989E-01 -3.55425653E-01  1.05007524E-01  0.00000000E+00
 -3.63072536E-01  6.55624650E-02 -2.78621174E-01  0.00000000E+00  5.08514826E-01
 -3.57870212E-01  2.02616877E-01  3.48845873E-01  0.00000000E+00  0.00000000E+00
 -1.52496141E-02 -3.55068352E-01 -3.55425021E-01 -1.05007666E-01  0.00000000E+00
  3.63075499E-01  6.55641718E-02  2.78621208E-01  0.00000000E+00 -5.08513686E-01
  3.57870135E-01 -2.02617223E-01  3.48845264E-01  0.00000000E+00  0.00000000E+00
  1.00341456E-01  1.37862469E-01 -1.83414400E-06 -4.98593885E-01  0.00000000E+00
  2.79431841E+00 -3.00928044E-06 -1.34500851E+00  0.00000000E+00  1.90996460E-01
  9.77256692E-01  8.06963297E-02  1.26919341E-06  0.00000000E+00  0.00000000E+00
  5.11513959E-02  6.07324704E-01 -2.44694402E-02  1.41542564E-02  0.00000000E+00
 -2.40191350E+00  1.41983359E+00 -1.16879871E-01  0.00000000E+00 -8.31983831E-01
  6.09402539E-01  4.56757801E-01  4.99059392E-02  0.00000000E+00  0.00000000E+00
  5.11514009E-02  6.07326647E-01  2.44689513E-02  1.41541855E-02  0.00000000E+00
 -2.40192043E+00 -1.41983730E+00 -1.16883138E-01  0.00000000E+00 -8.31987089E-01
  6.09403410E-01  4.56759026E-01 -4.99090952E-02  0.00000000E+00  0.00000000E+00
  0.00000000E+00  0.00000000E+00  0.00000000E+00  0.00000000E+00  3.26653427E-07
  0.00000000E+00  0.00000000E+00  0.00000000E+00  3.82019109E-07  0.00000000E+00
  0.00000000E+00  0.00000000E+00  0.00000000E+00  1.16184256E+00  1.12305246E-07
  0.00000000E+00  0.00000000E+00  0.00000000E+00  0.00000000E+00 -6.76798895E-02
  0.00000000E+00  0.00000000E+00  0.00000000E+00 -2.85613772E-01  0.00000000E+00
  0.00000000E+00  0.00000000E+00  0.00000000E+00  6.45881048E-01 -4.03552233E-01
  0.00000000E+00  0.00000000E+00  0.00000000E+00  0.00000000E+00  6.76796936E-02
  0.00000000E+00  0.00000000E+00  0.00000000E+00  2.85613256E-01  0.00000000E+00
  0.00000000E+00  0.00000000E+00  0.00000000E+00  6.45880066E-01  4.03552435E-01
 -5.07727382E-07 -5.78977411E-07 -1.18100695E+00  5.47599878E-07  0.00000000E+00
 -3.06710475E-06 -1.92198556E+00  1.08916142E-06  0.00000000E+00 -3.73721344E-07
 -2.27166151E-06 -1.32634940E-06  5.09624934E-01  0.00000000E+00  0.00000000E+00
 -4.83141165E-03 -6.61583011E-01 -7.59264737E-02 -5.26858692E-03  0.00000000E+00
  2.30524032E+00 -1.22551654E+00  6.66308572E-01  0.00000000E+00  8.40980096E-01
 -1.59980694E-01 -4.03521008E-01 -5.73688871E-01  0.00000000E+00  0.00000000E+00
  4.83117973E-03  6.61581471E-01 -7.59264074E-02  5.26834934E-03  0.00000000E+00
 -2.30523272E+00 -1.22551175E+00 -6.66309078E-01  0.00000000E+00 -8.40976608E-01
  1.59977448E-01  4.03519388E-01 -5.73689762E-01  0.00000000E+00  0.00000000E+00
 -1.57611825E-01  1.08564482E+00  1.28359062E-06 -3.46385144E-01  0.00000000E+00
  3.12118213E+00  9.43323107E-07 -5.37741046E-01  0.00000000E+00  8.54454449E-01
 -9.50345418E-01 -9.14872927E-01  1.20253445E-06  0.00000000E+00  0.00000000E+00
 -1.36440157E-02  3.45649612E-01  2.32487453E-01 -1.66016079E-01  0.00000000E+00
 -1.56864259E+00  9.53851967E-01 -4.56632246E-01  0.00000000E+00 -5.42580736E-01
 -1.81742297E-01  2.00332462E-01  7.24806885E-01  0.00000000E+00  0.00000000E+00
 -1.36439810E-02  3.45649083E-01 -2.32487183E-01 -1.66015984E-01  0.00000000E+00
 -1.56863997E+00 -9.53850309E-01 -4.56632063E-01  0.00000000E+00 -5.42579141E-01
 -1.81742825E-01  2.00331949E-01 -7.24806074E-01  0.00000000E+00  0.00000000E+00
 -2.13667134E-01  7.55658650E-01 -1.48919111E-07  1.60204188E-01  0.00000000E+00
 -2.05809132E+00  4.17706725E-07  6.26553047E-01  0.00000000E+00 -1.61041276E+00
 -4.40269116E-01 -4.02844814E-01 -4.69565720E-07  0.00000000E+00  0.00000000E+00
 -2.49005687E-01  1.61224189E-01 -2.23045606E-01  1.34538149E-01  0.00000000E+00
  2.84317718E+00 -9.50552225E-01  4.09581223E-01  0.00000000E+00 -4.82578540E-01
 -7.02791570E-01 -9.24978545E-01 -4.46134025E-01  0.00000000E+00  0.00000000E+00
 -2.49006008E-01  1.61223573E-01  2.23045094E-01  1.34538044E-01  0.00000000E+00
  2.84317989E+00  9.50552712E-01  4.09582398E-01  0.00000000E+00 -4.82579482E-01
 -7.02792066E-01 -9.24979814E-01  4.46134582E-01  0.00000000E+00  0.00000000E+00
 -3.73685278E-07  6.41954500E-07 -2.03189373E-02  2.50747824E-07  0.00000000E+00
 -2.33896328E-07 -2.56494719E+00 -9.71466353E-07  0.00000000E+00 -2.25061054E-06
 -8.14939724E-07 -9.64803066E-07  8.69437104E-02  0.00000000E+00  0.00000000E+00
 -3.74659516E-01 -2.08773871E-01  1.39151494E-01 -8.28635500E-02  0.00000000E+00
  4.74066822E+00 -1.14698157E+00  7.19432174E-01  0.00000000E+00 -9.98827978E-01
 -1.22057066E+00 -1.38130957E+00 -1.83324470E-01  0.00000000E+00  0.00000000E+00
  3.74659646E-01  2.08773900E-01  1.39152226E-01  8.28640597E-02  0.00000000E+00
 -4.74066735E+00 -1.14698021E+00 -7.19432213E-01  0.00000000E+00  9.98829243E-01
  1.22057127E+00  1.38130981E+00 -1.83323767E-01  0.00000000E+00  0.00000000E+00
 -3.29537945E-01  6.03457493E-01 -2.39545516E-07  2.05693685E-01  0.00000000E+00
  3.72157385E+00  2.97389318E-06 -9.05604318E-01  0.00000000E+00 -1.78187780E+00
 -8.25291206E-01 -1.00966838E+00 -5.00393121E-07  0.00000000E+00  0.00000000E+00
  2.54573331E-01  2.37744366E-01 -3.70290836E-01  1.76450292E-01  0.00000000E+00
 -3.00923769E+00  6.35543026E-01  2.99630154E-02  0.00000000E+00  9.08453717E-01
  1.04576489E+00  7.90005403E-01 -2.68382682E-01  0.00000000E+00  0.00000000E+00
  2.54572651E-01  2.37743169E-01  3.70290158E-01  1.76450207E-01  0.00000000E+00
 -3.00922794E+00 -6.35540492E-01  2.99639230E-02  0.00000000E+00  9.08451950E-01
  1.04576303E+00  7.90002905E-01  2.68382990E-01  0.00000000E+00  0.00000000E+00
Beta MO coefficients                       R   N=        2025
  3.94084869E-07  2.43347065E-06  1.41263690E-04  5.33551976E-08  0.00000000E+00
 -1.38629521E-05 -2.92072806E-03  3.50885978E-06  0.00000000E+00 -3.43215830E-06
  4.39200867E-07  1.06578150E-06  6.77104320E-04  0.00000000E+00  0.00000000E+00
  7.04225648E-01  1.82992028E-02 -9.53567906E-04  2.99770605E-04  0.00000000E+00
  8.51534041E-03 -8.45298908E-04  5.19073685E-04  0.00000000E+00 -5.03417238E-03
 -5.51841846E-03 -5.42891325E-03 -5.14881730E-05  0.00000000E+00  0.00000000E+00
 -7.00003152E-01 -1.81888077E-02 -9.47489905E-04 -2.97216302E-04  0.00000000E+00
 -8.46680174E-03 -8.39160785E-04 -5.16862295E-04  0.00000000E+00  5.00405792E-03
  5.48666574E-03  5.39654987E-03 -4.95453448E-05  0.00000000E+00  0.00000000E+00
  1.31027084E-04  8.09354894E-04 -4.25728670E-07  1.75540315E-05  0.00000000E+00
 -4.60919190E-03  8.77984778E-06  1.16700439E-03  0.00000000E+00 -1.14077456E-03
  1.45958302E-04  3.54381710E-04 -2.03583976E-06  0.00000000E+00  0.00000000E+00
  7.00027732E-01  1.83021594E-02 -1.00757803E-03  4.23864888E-04  0.00000000E+00
  8.04486008E-03 -1.01773099E-03  3.66132241E-04  0.00000000E+00 -4.99260300E-03
 -5.26339471E-03 -5.36515479E-03 -3.22845139E-04  0.00000000E+00  0.00000000E+00
  7.04250081E-01  1.84118740E-02  1.01329286E-03  4.25660184E-04  0.00000000E+00
  8.09591809E-03  1.02279410E-03  3.69247062E-04  0.00000000E+00 -5.02278729E-03
 -5.29648480E-03 -5.39770503E-03  3.23148744E-04  0.00000000E+00  0.00000000E+00
  9.92981884E-01  3.40767429E-02  2.80464430E-09 -1.58512273E-03  0.00000000E+00
  4.27125482E-03  1.04273928E-09  4.36648776E-05  0.00000000E+00 -6.94914264E-03
 -7.89202885E-03 -7.90097509E-03 -2.92060720E-10  0.00000000E+00  0.00000000E+00
 -1.23898228E-05  3.91107941E-04 -2.73721855E-05 -3.06217161E-06  0.00000000E+00
 -1.34086691E-03  6.22342699E-04 -3.10378975E-04  0.00000000E+00 -3.47095737E-04
  1.61674198E-04  2.64849570E-04  2.91198034E-04  0.00000000E+00  0.00000000E+00
 -1.23896816E-05  3.91107657E-04  2.73729609E-05 -3.06185524E-06  0.00000000E+00
 -1.34086363E-03 -6.22340640E-04 -3.10378648E-04  0.00000000E+00 -3.47094175E-04
  1.61673475E-04  2.64849089E-04 -2.91197845E-04  0.00000000E+00  0.00000000E+00
 -1.55015576E-01  3.45576405E-01  4.93555268E-07 -1.19547334E-01  0.00000000E+00
  1.31470166E-01 -1.99452792E-08 -5.02228072E-03  0.00000000E+00  2.52532389E-02
 -9.76699921E-03 -1.52961196E-02 -2.97883087E-08  0.00000000E+00  0.00000000E+00
 -1.13491141E-01  2.54736197E-01 -1.29832547E-01  3.89481527E-02  0.00000000E+00
  1.91005108E-01 -4.83182307E-02  1.39333135E-02  0.00000000E+00  2.06680122E-02
 -6.21023704E-03 -3.71634645E-03 -8.60950682E-03  0.00000000E+00  0.00000000E+00
 -1.13490788E-01  2.54735422E-01  1.29832153E-01  3.89480921E-02  0.00000000E+00
  1.91004437E-01  4.83180960E-02  1.39332784E-02  0.00000000E+00  2.06679891E-02
 -6.21021386E-03 -3.71633009E-03  8.60950309E-03  0.00000000E+00  0.00000000E+00
  1.65145498E-07 -3.80600070E-07  3.27735372E-01  2.46265935E-07  0.00000000E+00
 -2.29581703E-07  1.03364562E-03  1.72099261E-08  0.00000000E+00 -9.56405344E-09
 -1.72004174E-08  8.95484081E-09 -3.22727643E-02  0.00000000E+00  0.00000000E+00
 -1.43479136E-01  3.20695646E-01 -1.13673944E-01  5.39274080E-02  0.00000000E+00
  3.02229139E-01 -4.88336099E-02  2.83350651E-02  0.00000000E+00  5.63339541E-03
 -3.48540665E-03 -5.47332360E-03 -1.06861450E-02  0.00000000E+00  0.00000000E+00
  1.43479425E-01 -3.20696309E-01 -1.13674184E-01 -5.39275346E-02  0.00000000E+00
 -3.02229674E-01 -4.88337149E-02 -2.83351220E-02  0.00000000E+00 -5.63343645E-03
  3.48541173E-03  5.47332952E-03 -1.06861656E-02  0.00000000E+00  0.00000000E+00
  1.28837898E-01 -3.24098242E-01 -5.84076068E-08 -6.41183640E-03  0.00000000E+00
 -3.48086427E-01  1.04705396E-08  1.57530868E-03  0.00000000E+00  1.20106999E-02
  9.05785936E-03 -1.24248391E-04 -1.73158434E-09  0.00000000E+00  0.00000000E+00
 -1.18483539E-01  2.62040396E-01  2.26601324E-01 -1.03515821E-01  0.00000000E+00
  4.18999613E-01  8.98995114E-02 -4.89347173E-02  0.00000000E+00 -2.24146322E-02
 -8.89972166E-03  1.31962244E-03  1.36767591E-02  0.00000000E+00  0.00000000E+00
 -1.18483460E-01  2.62040220E-01 -2.26600912E-01 -1.03515819E-01  0.00000000E+00
  4.18999310E-01 -8.98993216E-02 -4.89347021E-02  0.00000000E+00 -2.24145939E-02
 -8.89973731E-03  1.31961303E-03 -1.36767564E-02  0.00000000E+00  0.00000000E+00
  0.00000000E+00  0.00000000E+00  0.00000000E+00  0.00000000E+00  4.58567226E-01
  0.00000000E+00  0.00000000E+00  0.00000000E+00  2.22796765E-01  0.00000000E+00
  0.00000000E+00  0.00000000E+00  0.00000000E+00  5.25163186E-08 -2.64667554E-02
  0.00000000E+00  0.00000000E+00  0.00000000E+00  0.00000000E+00  3.15742819E-01
  0.00000000E+00  0.00000000E+00  0.00000000E+00  1.72288455E-01  0.00000000E+00
  0.00000000E+00  0.00000000E+00  0.00000000E+00 -2.83492235E-02  1.08978092E-02
  0.00000000E+00  0.00000000E+00  0.00000000E+00  0.00000000E+00  3.15742262E-01
  0.00000000E+00  0.00000000E+00  0.00000000E+00  1.72288151E-01  0.00000000E+00
  0.00000000E+00  0.00000000E+00  0.00000000E+00  2.83491792E-02  1.08978137E-02
  5.63243432E-08 -1.41892760E-07  3.70006603E-01  3.49442619E-07  0.00000000E+00
 -2.59109652E-07  9.14981738E-02  1.53564573E-07  0.00000000E+00  3.10174171E-08
 -3.22919352E-08 -3.44072046E-09 -1.08139701E-02  0.00000000E+00  0.00000000E+00
  8.06375778E-02 -1.70883771E-01 -3.14618894E-01  1.81401643E-01  0.00000000E+00
 -3.17254248E-01 -1.51416501E-01  9.23198144E-02  0.00000000E+00  1.79408064E-02
  9.46424135E-03 -2.60109431E-03 -1.59067480E-02  0.00000000E+00  0.00000000E+00
 -8.06377006E-02  1.70884036E-01 -3.14619071E-01 -1.81401548E-01  0.00000000E+00
  3.17254692E-01 -1.51416581E-01 -9.23197463E-02  0.00000000E+00 -1.79408298E-02
 -9.46425376E-03  2.60108849E-03 -1.59067399E-02  0.00000000E+00  0.00000000E+00
 -4.35565945E-02  8.78087773E-02 -3.56452576E-07  4.31850229E-01  0.00000000E+00
  1.65147199E-01 -9.80417762E-08  2.08079444E-01  0.00000000E+00  2.82735643E-02
 -4.05281428E-02  5.91030769E-03  7.16057124E-08  0.00000000E+00  0.00000000E+00
 -1.32375110E-02  2.03808052E-02  2.00334285E-01  2.46396795E-01  0.00000000E+00
  6.48469198E-02  1.05609519E-01  1.42728595E-01  0.00000000E+00 -2.29064520E-02
  1.34413443E-02  5.13511578E-04 -1.59905973E-02  0.00000000E+00  0.00000000E+00
 -1.32374341E-02  2.03806539E-02 -2.00333828E-01  2.46396433E-01  0.00000000E+00
  6.48465996E-02 -1.05609299E-01  1.42728394E-01  0.00000000E+00 -2.29064336E-02
  1.34413509E-02  5.13507558E-04  1.59905599E-02  0.00000000E+00  0.00000000E+00
  0.00000000E+00  0.00000000E+00  0.00000000E+00  0.00000000E+00 -1.94674684E-07
  0.00000000E+00  0.00000000E+00  0.00000000E+00 -1.79761821E-07  0.00000000E+00
  0.00000000E+00  0.00000000E+00  0.00000000E+00  5.09339018E-02  3.08788262E-08
  0.00000000E+00  0.00000000E+00  0.00000000E+00  0.00000000E+00  4.79188342E-01
  0.00000000E+00  0.00000000E+00  0.00000000E+00  3.28767952E-01  0.00000000E+00
  0.00000000E+00  0.00000000E+00  0.00000000E+00 -2.01519227E-02  8.20196905E-03
  0.00000000E+00  0.00000000E+00  0.00000000E+00  0.00000000E+00 -4.79188754E-01
  0.00000000E+00  0.00000000E+00  0.00000000E+00 -3.28768208E-01  0.00000000E+00
  0.00000000E+00  0.00000000E+00  0.00000000E+00 -2.01519439E-02 -8.20199161E-03
  2.92085090E-08 -6.30433130E-08  6.93942813E-03 -1.64408569E-07  0.00000000E+00
 -5.70409549E-08  1.23380957E-01 -1.24386534E-07  0.00000000E+00 -2.36023532E-08
  4.11749358E-08 -6.29722532E-09  4.21868332E-02  0.00000000E+00  0.00000000E+00
  5.32828470E-03 -1.06210877E-02  2.69574376E-01  4.02963955E-01  0.00000000E+00
 -8.28107090E-02  2.04227111E-01  2.60614536E-01  0.00000000E+00 -1.48586219E-02
  1.52904275E-02  2.22594584E-03 -1.32741710E-02  0.00000000E+00  0.00000000E+00
 -5.32827767E-03  1.06210943E-02  2.69574984E-01 -4.02963975E-01  0.00000000E+00
  8.28105822E-02  2.04227477E-01 -2.60614544E-01  0.00000000E+00  1.48586552E-02
 -1.52904483E-02 -2.22594544E-03 -1.32741588E-02  0.00000000E+00  0.00000000E+00
 -7.56120761E-02  1.19822786E-01 -1.73966189E-07  4.15015222E-01  0.00000000E+00
  6.29496596E-01 -1.30163070E-08  2.48203003E-01  0.00000000E+00 -5.09682936E-02
 -9.43369053E-04  4.67077219E-03 -2.50243557E-08  0.00000000E+00  0.00000000E+00
  1.74323885E-02 -6.57763924E-02  5.23936452E-02 -3.92625583E-01  0.00000000E+00
 -8.93380881E-02  4.74046558E-02 -3.37485134E-01  0.00000000E+00 -1.23216275E-02
 -1.04985350E-03 -4.76888449E-03  2.64065055E-03  0.00000000E+00  0.00000000E+00
  1.74323771E-02 -6.57763846E-02 -5.23935533E-02 -3.92625700E-01  0.00000000E+00
 -8.93379090E-02 -4.74045475E-02 -3.37485183E-01  0.00000000E+00 -1.23216418E-02
 -1.04986478E-03 -4.76889106E-03 -2.64066693E-03  0.00000000E+00  0.00000000E+00
  0.00000000E+00  0.00000000E+00  0.00000000E+00  0.00000000E+00  5.74300133E-01
  0.00000000E+00  0.00000000E+00  0.00000000E+00  4.78107365E-01  0.00000000E+00
  0.00000000E+00  0.00000000E+00  0.00000000E+00 -6.98982957E-09  2.58060491E-03
  0.00000000E+00  0.00000000E+00  0.00000000E+00  0.00000000E+00 -3.85938524E-01
  0.00000000E+00  0.00000000E+00  0.00000000E+00 -3.56661601E-01  0.00000000E+00
  0.00000000E+00  0.00000000E+00  0.00000000E+00 -1.04676926E-02  7.67153049E-03
  0.00000000E+00  0.00000000E+00  0.00000000E+00  0.00000000E+00 -3.85938404E-01
  0.00000000E+00  0.00000000E+00  0.00000000E+00 -3.56661435E-01  0.00000000E+00
  0.00000000E+00  0.00000000E+00  0.00000000E+00  1.04676842E-02  7.67153776E-03
 -1.24139553E-01  2.35461422E-01 -5.50372749E-07 -4.22491496E-01  0.00000000E+00
  2.05175627E+00 -3.93548803E-07 -8.76484675E-01  0.00000000E+00 -7.24207166E-02
 -5.99100031E-03  2.11434060E-02 -5.27838573E-08  0.00000000E+00  0.00000000E+00
  7.58588469E-02 -1.98169788E-01  3.88090221E-01  9.50372579E-03  0.00000000E+00
 -9.15437788E-01  7.59896831E-01 -5.01033764E-02  0.00000000E+00  4.97975213E-03
 -1.72610271E-02  5.26359260E-03  1.10931142E-02  0.00000000E+00  0.00000000E+00
  7.58589507E-02 -1.98170036E-01 -3.88090741E-01  9.50291764E-03  0.00000000E+00
 -9.15438505E-01 -7.59897480E-01 -5.01047471E-02  0.00000000E+00  4.97976844E-03
 -1.72610136E-02  5.26356478E-03 -1.10930443E-02  0.00000000E+00  0.00000000E+00
 -8.17322383E-08 -2.18702714E-07  5.29559459E-01  5.58954601E-09  0.00000000E+00
  4.72955593E-06  2.55602521E+00 -5.42723567E-07  0.00000000E+00 -4.38595682E-08
 -7.80287364E-08 -5.66229497E-08  4.01458200E-03  0.00000000E+00  0.00000000E+00
  8.30337949E-02 -2.03810809E-01  1.28418041E-01 -2.16452603E-01  0.00000000E+00
 -1.68925049E+00  8.63875242E-01 -6.46961173E-01  0.00000000E+00 -3.47896677E-02
  1.52474051E-02 -9.28849922E-03  6.40712871E-04  0.00000000E+00  0.00000000E+00
 -8.30336304E-02  2.03810187E-01  1.28417543E-01  2.16452895E-01  0.00000000E+00
  1.68924663E+00  8.63872425E-01  6.46961284E-01  0.00000000E+00  3.47894504E-02
 -1.52474922E-02  9.28849239E-03  6.40648531E-04  0.00000000E+00  0.00000000E+00
  1.49880245E-02 -1.03538526E+00  8.96831958E-06  1.56804515E-01  0.00000000E+00
  2.19662152E+00 -2.42823433E-05 -6.03316495E-01  0.00000000E+00 -4.20373472E-02
 -1.97301512E-01 -1.84758266E-01  1.45786246E-06  0.00000000E+00  0.00000000E+00
 -4.93053019E-03 -3.39161077E-01 -1.60948672E-01  1.93463399E-01  0.00000000E+00
 -6.62706087E-02  3.36390181E-01 -1.11836131E-01  0.00000000E+00 -2.38068095E-01
 -1.01402573E-01 -5.87785570E-02  8.35751356E-02  0.00000000E+00  0.00000000E+00
 -4.93068821E-03 -3.39163200E-01  1.60955012E-01  1.93463608E-01  0.00000000E+00
 -6.62910046E-02 -3.36398587E-01 -1.11841785E-01  0.00000000E+00 -2.38071759E-01
 -1.01403498E-01 -5.87784080E-02 -8.35777394E-02  0.00000000E+00  0.00000000E+00
  2.59950014E-07 -1.25180549E-05 -8.10765470E-01  6.56534661E-07  0.00000000E+00
  2.36523117E-05  2.03454298E+00 -3.87435820E-06  0.00000000E+00 -6.63836634E-07
 -2.38028746E-06 -2.26540057E-06 -1.24887247E-01  0.00000000E+00  0.00000000E+00
 -1.14404562E-02 -7.24562456E-02 -2.89149406E-01  1.60417792E-02  0.00000000E+00
 -8.45809774E-01  3.21435452E-01 -2.06118447E-01  0.00000000E+00 -1.60366844E-01
 -3.34999873E-02  1.20831084E-02  1.10426830E-01  0.00000000E+00  0.00000000E+00
  1.14402086E-02  7.24486153E-02 -2.89145522E-01 -1.60379990E-02  0.00000000E+00
  8.45810546E-01  3.21430063E-01  2.06116566E-01  0.00000000E+00  1.60361453E-01
  3.34977422E-02 -1.20845431E-02  1.10424986E-01  0.00000000E+00  0.00000000E+00
  0.00000000E+00  0.00000000E+00  0.00000000E+00  0.00000000E+00 -8.52383460E-01
  0.00000000E+00  0.00000000E+00  0.00000000E+00  1.18736891E+00  0.00000000E+00
  0.00000000E+00  0.00000000E+00  0.00000000E+00 -3.97646767E-08  4.54917362E-02
  0.00000000E+00  0.00000000E+00  0.00000000E+00  0.00000000E+00 -2.30248868E-01
  0.00000000E+00  0.00000000E+00  0.00000000E+00 -5.10352792E-02  0.00000000E+00
  0.00000000E+00  0.00000000E+00  0.00000000E+00  6.15255875E-02 -2.07011822E-02
  0.00000000E+00  0.00000000E+00  0.00000000E+00  0.00000000E+00 -2.30248804E-01
  0.00000000E+00  0.00000000E+00  0.00000000E+00 -5.10354070E-02  0.00000000E+00
  0.00000000E+00  0.00000000E+00  0.00000000E+00 -6.15254807E-02 -2.07011910E-02
  4.16880090E-03 -4.09766687E-01  1.40360250E-06 -7.69435892E-01  0.00000000E+00
 -4.85570623E-01 -3.03481299E-06  1.45052904E+00  0.00000000E+00 -2.66040648E-01
 -3.67016819E-02 -8.05946750E-02  7.35618315E-08  0.00000000E+00  0.00000000E+00
 -1.30864282E-02 -6.56176750E-02  2.02257661E-02 -1.59221377E-01  0.00000000E+00
  6.92521233E-01 -4.84900938E-01  5.49716755E-02  0.00000000E+00  8.51262949E-02
 -5.52049438E-02 -4.87586075E-02  8.06594695E-03  0.00000000E+00  0.00000000E+00
 -1.30864874E-02 -6.56179025E-02 -2.02249007E-02 -1.59221301E-01  0.00000000E+00
  6.92519112E-01  4.84900207E-01  5.49715600E-02  0.00000000E+00  8.51258000E-02
 -5.52050408E-02 -4.87585781E-02 -8.06609749E-03  0.00000000E+00  0.00000000E+00
  4.10676286E-02  3.29607996E-01  2.18254692E-07 -2.19176882E-01  0.00000000E+00
  9.04970194E-01 -2.61516266E-07 -1.84786420E-01  0.00000000E+00  3.37427504E-01
  6.93741896E-02 -3.13269295E-02 -1.55177904E-07  0.00000000E+00  0.00000000E+00
  1.57838367E-02 -1.69265128E-01 -5.15509112E-01 -4.89938006E-02  0.00000000E+00
 -1.96029928E-01  1.08360625E+00 -2.03416165E-01  0.00000000E+00 -1.23170178E-01
 -7.70961497E-02 -6.51082354E-02  1.64771957E-02  0.00000000E+00  0.00000000E+00
  1.57838641E-02 -1.69264218E-01  5.15508004E-01 -4.89942308E-02  0.00000000E+00
 -1.96031290E-01 -1.08360406E+00 -2.03416184E-01  0.00000000E+00 -1.23169766E-01
 -7.70957017E-02 -6.51079107E-02 -1.64770884E-02  0.00000000E+00  0.00000000E+00
 -2.47144171E-08 -4.20698131E-07  1.62271478E-01  2.59640777E-07  0.00000000E+00
 -1.06854601E-06 -5.32004488E-01  4.17793197E-07  0.00000000E+00 -2.77027238E-07
 -2.42940068E-07  4.94411532E-09 -1.50382884E-01  0.00000000E+00  0.00000000E+00
 -7.53748064E-03 -3.88794300E-01 -3.89998726E-01  3.84820812E-01  0.00000000E+00
  9.07917580E-01  5.23343348E-01 -3.24884193E-01  0.00000000E+00 -1.29005004E-01
 -1.67478140E-01 -1.41401587E-01  4.10382153E-03  0.00000000E+00  0.00000000E+00
  7.53743102E-03  3.88794797E-01 -3.89999942E-01 -3.84820503E-01  0.00000000E+00
 -9.07917028E-01  5.23345960E-01  3.24884288E-01  0.00000000E+00  1.29005195E-01
  1.67478384E-01  1.41401768E-01  4.10379333E-03  0.00000000E+00  0.00000000E+00
  0.00000000E+00  0.00000000E+00  0.00000000E+00  0.00000000E+00  2.78685295E-07
  0.00000000E+00  0.00000000E+00  0.00000000E+00 -8.35243235E-07  0.00000000E+00
  0.00000000E+00  0.00000000E+00  0.00000000E+00 -8.77440620E-02 -4.68429090E-10
  0.00000000E+00  0.00000000E+00  0.00000000E+00  0.00000000E+00 -6.55244924E-01
  0.00000000E+00  0.00000000E+00  0.00000000E+00  8.13518837E-01  0.00000000E+00
  0.00000000E+00  0.00000000E+00  0.00000000E+00  3.00119613E-02  5.96904733E-03
  0.00000000E+00  0.00000000E+00  0.00000000E+00  0.00000000E+00  6.55244332E-01
  0.00000000E+00  0.00000000E+00  0.00000000E+00 -8.13517576E-01  0.00000000E+00
  0.00000000E+00  0.00000000E+00  0.00000000E+00  3.00119701E-02 -5.96904093E-03
  2.51959791E-02  2.37370203E-01 -1.18474563E-07 -2.65560234E-01  0.00000000E+00
 -6.81315890E-01  5.45483879E-07  1.09675853E+00  0.00000000E+00  1.84185406E-01
  2.48430191E-02 -6.16022830E-02  2.52586277E-07  0.00000000E+00  0.00000000E+00
 -5.21671000E-03 -3.70276693E-02  1.40851000E-01  5.68100578E-01  0.00000000E+00
  4.43128277E-01 -3.09419280E-01 -9.18695272E-01  0.00000000E+00 -8.48493684E-03
  4.65913225E-03 -7.73907938E-02 -8.44160461E-03  0.00000000E+00  0.00000000E+00
 -5.21671927E-03 -3.70280342E-02 -1.40850889E-01  5.68100370E-01  0.00000000E+00
  4.43129750E-01  3.09419368E-01 -9.18694252E-01  0.00000000E+00 -8.48498885E-03
  4.65893350E-03 -7.73909402E-02  8.44160965E-03  0.00000000E+00  0.00000000E+00
  0.00000000E+00  0.00000000E+00  0.00000000E+00  0.00000000E+00 -2.84976699E-01
  0.00000000E+00  0.00000000E+00  0.00000000E+00  1.02266298E+00  0.00000000E+00
  0.00000000E+00  0.00000000E+00  0.00000000E+00  4.23609009E-08  3.62456286E-02
  0.00000000E+00  0.00000000E+00  0.00000000E+00  0.00000000E+00  6.12414829E-01
  0.00000000E+00  0.00000000E+00  0.00000000E+00 -1.02060777E+00  0.00000000E+00
  0.00000000E+00  0.00000000E+00  0.00000000E+00 -1.69522025E-02  4.57520849E-02
  0.00000000E+00  0.00000000E+00  0.00000000E+00  0.00000000E+00  6.12415579E-01
  0.00000000E+00  0.00000000E+00  0.00000000E+00 -1.02060846E+00  0.00000000E+00
  0.00000000E+00  0.00000000E+00  0.00000000E+00  1.69522185E-02  4.57520682E-02
 -3.02443115E-09 -2.16461143E-08 -1.50935986E-01 -1.11812056E-07  0.00000000E+00
  4.63428396E-07  8.66967877E-01  9.24961808E-08  0.00000000E+00 -6.47979716E-08
  5.60206442E-08  3.08965547E-08  1.45117399E-01  0.00000000E+00  0.00000000E+00
  1.83389512E-03 -3.09216366E-02  3.12320804E-01  5.08339043E-01  0.00000000E+00
 -3.69407182E-01 -4.21919760E-01 -8.09418844E-01  0.00000000E+00 -8.79252855E-02
  5.77649050E-02  3.33675961E-02 -4.76217574E-02  0.00000000E+00  0.00000000E+00
 -1.83388017E-03  3.09216673E-02  3.12321520E-01 -5.08339409E-01  0.00000000E+00
  3.69406603E-01 -4.21920843E-01  8.09419144E-01  0.00000000E+00  8.79253919E-02
 -5.77650130E-02 -3.33675400E-02 -4.76216365E-02  0.00000000E+00  0.00000000E+00
 -9.20580702E-03 -6.25591852E-01  2.04076361E-07 -9.21464489E-02  0.00000000E+00
  4.77914936E+00 -1.48013034E-06 -1.24888921E+00  0.00000000E+00  1.27181722E-01
 -4.34183223E-01  2.06716511E-01  2.00484121E-07  0.00000000E+00  0.00000000E+00
  6.49127559E-02  9.77133358E-01 -1.30109426E-01  5.18236172E-02  0.00000000E+00
 -3.49027300E+00  1.39669469E+00 -4.13326729E-01  0.00000000E+00  1.89278847E-01
  1.17979390E-01  4.74947040E-01 -1.14798582E-01  0.00000000E+00  0.00000000E+00
  6.49128494E-02  9.77134952E-01  1.30109899E-01  5.18240906E-02  0.00000000E+00
 -3.49027728E+00 -1.39669600E+00 -4.13329168E-01  0.00000000E+00  1.89279268E-01
  1.17980320E-01  4.74947055E-01  1.14798809E-01  0.00000000E+00  0.00000000E+00
  0.00000000E+00  0.00000000E+00  0.00000000E+00  0.00000000E+00  1.51425033E-07
  0.00000000E+00  0.00000000E+00  0.00000000E+00 -1.72677402E-07  0.00000000E+00
  0.00000000E+00  0.00000000E+00  0.00000000E+00  5.81844004E-01  1.44973055E-06
  0.00000000E+00  0.00000000E+00  0.00000000E+00  0.00000000E+00 -1.39579271E-01
  0.00000000E+00  0.00000000E+00  0.00000000E+00 -5.89042996E-02  0.00000000E+00
  0.00000000E+00  0.00000000E+00  0.00000000E+00 -3.21512326E-01  2.55382128E-01
  0.00000000E+00  0.00000000E+00  0.00000000E+00  0.00000000E+00  1.39579080E-01
  0.00000000E+00  0.00000000E+00  0.00000000E+00  5.89048402E-02  0.00000000E+00
  0.00000000E+00  0.00000000E+00  0.00000000E+00 -3.21513294E-01 -2.55381526E-01
 -1.89667047E-08  2.34768954E-07  1.87540099E-01  1.89959745E-07  0.00000000E+00
 -4.93765733E-06 -3.55861585E+00 -2.88909654E-07  0.00000000E+00 -2.51290545E-07
  6.37556909E-07 -2.86902411E-07  9.31483525E-02  0.00000000E+00  0.00000000E+00
 -6.45876986E-02 -1.19801006E+00  2.49059743E-01 -1.75456010E-01  0.00000000E+00
  4.30215847E+00 -1.40436426E+00  1.01658005E+00  0.00000000E+00 -3.57032051E-01
 -4.12895409E-01 -1.11141088E-01  8.43353764E-02  0.00000000E+00  0.00000000E+00
  6.45876062E-02  1.19800859E+00  2.49059565E-01  1.75456297E-01  0.00000000E+00
 -4.30215174E+00 -1.40436142E+00 -1.01658032E+00  0.00000000E+00  3.57031936E-01
  4.12895407E-01  1.11140233E-01  8.43349365E-02  0.00000000E+00  0.00000000E+00
  0.00000000E+00  0.00000000E+00  0.00000000E+00  0.00000000E+00  1.72189434E-01
  0.00000000E+00  0.00000000E+00  0.00000000E+00 -1.61471627E-01  0.00000000E+00
  0.00000000E+00  0.00000000E+00  0.00000000E+00 -1.26927161E-06  6.90533805E-01
  0.00000000E+00  0.00000000E+00  0.00000000E+00  0.00000000E+00  1.97579715E-02
  0.00000000E+00  0.00000000E+00  0.00000000E+00  1.23063342E-01  0.00000000E+00
  0.00000000E+00  0.00000000E+00  0.00000000E+00  3.14795617E-01  2.56913681E-01
  0.00000000E+00  0.00000000E+00  0.00000000E+00  0.00000000E+00  1.97573247E-02
  0.00000000E+00  0.00000000E+00  0.00000000E+00  1.23063255E-01  0.00000000E+00
  0.00000000E+00  0.00000000E+00  0.00000000E+00 -3.14794440E-01  2.56914071E-01
 -5.03231882E-04 -4.32969599E-01 -1.15473245E-07  2.04743502E-01  0.00000000E+00
  3.21741668E+00  1.51467968E-06 -1.03727587E+00  0.00000000E+00 -3.90467837E-02
  4.84058949E-01 -4.25300561E-01 -2.03051574E-07  0.00000000E+00  0.00000000E+00
  3.40891175E-02  6.68821902E-01 -1.11045036E-01  8.83182690E-02  0.00000000E+00
 -2.32306146E+00  1.03013823E+00 -1.64279617E-01  0.00000000E+00  3.71107371E-01
  1.02686836E-01 -3.64158320E-02  2.80194456E-01  0.00000000E+00  0.00000000E+00
  3.40890856E-02  6.68821016E-01  1.11044764E-01  8.83181272E-02  0.00000000E+00
 -2.32305795E+00 -1.03013701E+00 -1.64279728E-01  0.00000000E+00  3.71107543E-01
  1.02685877E-01 -3.64156013E-02 -2.80194196E-01  0.00000000E+00  0.00000000E+00
  2.48357539E-08  3.80914321E-07 -8.36954193E-03  1.09524952E-07  0.00000000E+00
 -3.57405849E-07  1.77188203E+00  9.75795441E-07  0.00000000E+00  7.80267720E-08
  9.82432725E-08 -1.37605248E-08 -3.53116135E-01  0.00000000E+00  0.00000000E+00
  2.09334462E-02  2.83800103E-01  1.24230383E-01  4.27410955E-02  0.00000000E+00
 -1.63189311E+00  4.38757824E-01 -4.20111034E-01  0.00000000E+00  1.07990399E-01
 -5.22555022E-01  5.39459180E-01 -1.48744081E-01  0.00000000E+00  0.00000000E+00
 -2.09334824E-02 -2.83800220E-01  1.24230423E-01 -4.27407607E-02  0.00000000E+00
  1.63189339E+00  4.38757902E-01  4.20111146E-01  0.00000000E+00 -1.07990039E-01
  5.22554371E-01 -5.39459041E-01 -1.48744980E-01  0.00000000E+00  0.00000000E+00
  0.00000000E+00  0.00000000E+00  0.00000000E+00  0.00000000E+00 -3.60731242E-08
  0.00000000E+00  0.00000000E+00  0.00000000E+00 -8.16096673E-08  0.00000000E+00
  0.00000000E+00  0.00000000E+00  0.00000000E+00  7.23864537E-03 -2.33784812E-07
  0.00000000E+00  0.00000000E+00  0.00000000E+00  0.00000000E+00  3.92639461E-02
  0.00000000E+00  0.00000000E+00  0.00000000E+00 -5.08606516E-02  0.00000000E+00
  0.00000000E+00  0.00000000E+00  0.00000000E+00  4.15749143E-01  5.74081503E-01
  0.00000000E+00  0.00000000E+00  0.00000000E+00  0.00000000E+00 -3.92640178E-02
  0.00000000E+00  0.00000000E+00  0.00000000E+00  5.08607299E-02  0.00000000E+00
  0.00000000E+00  0.00000000E+00  0.00000000E+00  4.15749948E-01 -5.74081099E-01
 -4.28010400E-02 -4.10919139E-01  2.45329330E-07 -9.70165918E-02  0.00000000E+00
  2.32607154E+00  2.20460179E-06 -8.99091311E-01  0.00000000E+00  2.71232411E-01
 -3.64802208E-01 -9.61336772E-02 -8.86907229E-08  0.00000000E+00  0.00000000E+00
  1.79126014E-02  2.44214250E-01  6.47846040E-02 -1.43586828E-01  0.00000000E+00
 -1.35703498E+00  5.91339129E-01  4.41702205E-02  0.00000000E+00 -1.73290606E-02
  6.04600370E-01 -4.95107972E-01 -4.88595450E-02  0.00000000E+00  0.00000000E+00
  1.79125734E-02  2.44213884E-01 -6.47841016E-02 -1.43586910E-01  0.00000000E+00
 -1.35703135E+00 -5.91338310E-01  4.41706256E-02  0.00000000E+00 -1.73295187E-02
  6.04600986E-01 -4.95108230E-01  4.88594518E-02  0.00000000E+00  0.00000000E+00
  1.41247414E-08  4.86334641E-07  1.02249839E-01  1.06540750E-07  0.00000000E+00
 -5.04723538E-07  1.75141071E+00  9.42133866E-07  0.00000000E+00  2.29563455E-07
 -1.12523163E-07  8.56424896E-08 -4.21139396E-01  0.00000000E+00  0.00000000E+00
  2.58837521E-02  4.87357615E-02  2.95865590E-01  9.19307990E-02  0.00000000E+00
 -1.31638294E+00  1.92495794E-01 -4.92786817E-01  0.00000000E+00  3.93889781E-01
 -8.60509996E-02 -2.52147529E-01  4.75863708E-01  0.00000000E+00  0.00000000E+00
 -2.58837866E-02 -4.87360403E-02  2.95865554E-01 -9.19304202E-02  0.00000000E+00
  1.31638340E+00  1.92495892E-01  4.92786756E-01  0.00000000E+00 -3.93890603E-01
  8.60511459E-02  2.52147985E-01  4.75863208E-01  0.00000000E+00  0.00000000E+00
  0.00000000E+00  0.00000000E+00  0.00000000E+00  0.00000000E+00 -1.62603689E-01
  0.00000000E+00  0.00000000E+00  0.00000000E+00 -2.19888551E-01  0.00000000E+00
  0.00000000E+00  0.00000000E+00  0.00000000E+00  1.18979778E-07 -3.19590028E-01
  0.00000000E+00  0.00000000E+00  0.00000000E+00  0.00000000E+00 -8.75779880E-02
  0.00000000E+00  0.00000000E+00  0.00000000E+00  1.61025984E-01  0.00000000E+00
  0.00000000E+00  0.00000000E+00  0.00000000E+00 -1.44738770E-01  6.71247951E-01
  0.00000000E+00  0.00000000E+00  0.00000000E+00  0.00000000E+00 -8.75779300E-02
  0.00000000E+00  0.00000000E+00  0.00000000E+00  1.61025886E-01  0.00000000E+00
  0.00000000E+00  0.00000000E+00  0.00000000E+00  1.44738157E-01  6.71248264E-01
 -9.43008236E-02 -4.32588579E-01  4.73036016E-07 -1.04678035E-03  0.00000000E+00
  2.01978991E+00  1.10069256E-06 -9.35132354E-01  0.00000000E+00  3.73606296E-01
  1.85754014E-01 -1.08973690E+00  5.93076596E-08  0.00000000E+00  0.00000000E+00
  4.15035009E-03 -2.89886046E-02  2.23845543E-01 -1.73606072E-01  0.00000000E+00
 -8.34674542E-01  3.40411529E-01  2.03031931E-01  0.00000000E+00 -1.09407307E-01
 -1.43164578E-01  1.24160208E-01 -4.32683826E-01  0.00000000E+00  0.00000000E+00
  4.15037655E-03 -2.89888711E-02 -2.23845332E-01 -1.73606231E-01  0.00000000E+00
 -8.34672716E-01 -3.40411042E-01  2.03032051E-01  0.00000000E+00 -1.09407634E-01
 -1.43163636E-01  1.24159745E-01  4.32684278E-01  0.00000000E+00  0.00000000E+00
  0.00000000E+00  0.00000000E+00  0.00000000E+00  0.00000000E+00 -1.79208850E-01
  0.00000000E+00  0.00000000E+00  0.00000000E+00 -6.21634206E-01  0.00000000E+00
  0.00000000E+00  0.00000000E+00  0.00000000E+00 -1.30904910E-07  7.69756564E-01
  0.00000000E+00  0.00000000E+00  0.00000000E+00  0.00000000E+00 -6.38696281E-02
  0.00000000E+00  0.00000000E+00  0.00000000E+00  4.23508896E-01  0.00000000E+00
  0.00000000E+00  0.00000000E+00  0.00000000E+00 -7.32086966E-01  2.78050438E-02
  0.00000000E+00  0.00000000E+00  0.00000000E+00  0.00000000E+00 -6.38696900E-02
  0.00000000E+00  0.00000000E+00  0.00000000E+00  4.23508830E-01  0.00000000E+00
  0.00000000E+00  0.00000000E+00  0.00000000E+00  7.32087035E-01  2.78059429E-02
  8.47690904E-08 -7.22765894E-07 -8.49094531E-02  6.97541734E-07  0.00000000E+00
 -2.91402502E-06 -4.97281158E-02  1.22318755E-06  0.00000000E+00 -1.18612874E-06
  5.78514493E-07  7.47233737E-07  1.23166748E+00  0.00000000E+00  0.00000000E+00
  1.69535137E-02  3.38048607E-01 -3.54332133E-01  1.04867067E-01  0.00000000E+00
 -3.32755726E-01  4.38799286E-02 -2.68377698E-01  0.00000000E+00  5.26414648E-01
 -3.59000238E-01  2.00088478E-01  3.38973949E-01  0.00000000E+00  0.00000000E+00
 -1.69534763E-02 -3.38049089E-01 -3.54331487E-01 -1.04867206E-01  0.00000000E+00
  3.32759154E-01  4.38819230E-02  2.68377790E-01  0.00000000E+00 -5.26413330E-01
  3.59000077E-01 -2.00088911E-01  3.38973421E-01  0.00000000E+00  0.00000000E+00
  9.36618792E-02  1.80584174E-01 -2.17996791E-06 -5.10534245E-01  0.00000000E+00
  2.92638844E+00 -3.59246049E-06 -1.36348163E+00  0.00000000E+00  2.26585910E-01
  9.43233777E-01  4.01766722E-02  1.52638111E-06  0.00000000E+00  0.00000000E+00
  5.05531713E-02  6.24162498E-01 -1.40905450E-02  8.53631548E-03  0.00000000E+00
 -2.47119701E+00  1.45898221E+00 -1.37488572E-01  0.00000000E+00 -8.49455788E-01
  6.05198287E-01  4.62472481E-01  8.18789265E-02  0.00000000E+00  0.00000000E+00
  5.05531761E-02  6.24164841E-01  1.40899882E-02  8.53624706E-03  0.00000000E+00
 -2.47120529E+00 -1.45898665E+00 -1.37492247E-01  0.00000000E+00 -8.49459582E-01
  6.05199283E-01  4.62473916E-01 -8.18824251E-02  0.00000000E+00  0.00000000E+00
  0.00000000E+00  0.00000000E+00  0.00000000E+00  0.00000000E+00  3.23522654E-07
  0.00000000E+00  0.00000000E+00  0.00000000E+00  3.75317839E-07  0.00000000E+00
  0.00000000E+00  0.00000000E+00  0.00000000E+00  1.16119745E+00  1.15458746E-07
  0.00000000E+00  0.00000000E+00  0.00000000E+00  0.00000000E+00 -6.85497161E-02
  0.00000000E+00  0.00000000E+00  0.00000000E+00 -2.84544254E-01  0.00000000E+00
  0.00000000E+00  0.00000000E+00  0.00000000E+00  6.43443218E-01 -4.07626291E-01
  0.00000000E+00  0.00000000E+00  0.00000000E+00  0.00000000E+00  6.85495184E-02
  0.00000000E+00  0.00000000E+00  0.00000000E+00  2.84543747E-01  0.00000000E+00
  0.00000000E+00  0.00000000E+00  0.00000000E+00  6.43442249E-01  4.07626503E-01
 -5.06579055E-07 -8.50158800E-07 -1.17946306E+00  7.74252716E-07  0.00000000E+00
 -4.66586183E-06 -1.91739582E+00  1.63082053E-06  0.00000000E+00 -6.16222901E-07
 -2.40560973E-06 -1.15209498E-06  4.86505431E-01  0.00000000E+00  0.00000000E+00
 -5.09800395E-03 -6.66973127E-01 -7.08747802E-02 -7.74670892E-03  0.00000000E+00
  2.30781443E+00 -1.22328963E+00  6.70158876E-01  0.00000000E+00  8.29935192E-01
 -1.56756049E-01 -4.04378879E-01 -5.82967625E-01  0.00000000E+00  0.00000000E+00
  5.09774406E-03  6.66971023E-01 -7.08746305E-02  7.74653381E-03  0.00000000E+00
 -2.30780456E+00 -1.22328349E+00 -6.70159085E-01  0.00000000E+00 -8.29930944E-01
  1.56752467E-01  4.04376882E-01 -5.82968140E-01  0.00000000E+00  0.00000000E+00
 -1.62200314E-01  1.08350972E+00  1.10509161E-06 -3.27106189E-01  0.00000000E+00
  2.98827383E+00  6.48934176E-07 -4.79717686E-01  0.00000000E+00  8.34226741E-01
 -9.93832649E-01 -9.14643147E-01  1.31670022E-06  0.00000000E+00  0.00000000E+00
 -1.62179171E-02  3.19866769E-01  2.31706286E-01 -1.67866261E-01  0.00000000E+00
 -1.45593795E+00  8.88948445E-01 -4.46735085E-01  0.00000000E+00 -5.09380507E-01
 -2.05957899E-01  1.78414576E-01  7.21702935E-01  0.00000000E+00  0.00000000E+00
 -1.62178829E-02  3.19866404E-01 -2.31706065E-01 -1.67866170E-01  0.00000000E+00
 -1.45593600E+00 -8.88947156E-01 -4.46735023E-01  0.00000000E+00 -5.09379187E-01
 -2.05958369E-01  1.78414165E-01 -7.21702209E-01  0.00000000E+00  0.00000000E+00
 -2.06671466E-01  7.43987758E-01 -1.48312858E-07  1.62615140E-01  0.00000000E+00
 -2.13760405E+00  4.05100887E-07  6.40010647E-01  0.00000000E+00 -1.57587454E+00
 -4.16475145E-01 -3.80310878E-01 -4.66284503E-07  0.00000000E+00  0.00000000E+00
 -2.54009443E-01  1.59064402E-01 -2.16421660E-01  1.34008623E-01  0.00000000E+00
  2.89959579E+00 -9.62737733E-01  4.09307337E-01  0.00000000E+00 -4.99215446E-01
 -7.21947257E-01 -9.39671590E-01 -4.43198531E-01  0.00000000E+00  0.00000000E+00
 -2.54009765E-01  1.59063810E-01  2.16421158E-01  1.34008518E-01  0.00000000E+00
  2.89959847E+00  9.62738205E-01  4.09308516E-01  0.00000000E+00 -4.99216393E-01
 -7.21947755E-01 -9.39672855E-01  4.43199090E-01  0.00000000E+00  0.00000000E+00
 -3.33663290E-07  5.78069648E-07 -1.97231866E-02  2.33749309E-07  0.00000000E+00
 -7.60508725E-07 -2.56036698E+00 -8.43806489E-07  0.00000000E+00 -2.04839981E-06
 -7.06354663E-07 -8.36324330E-07  9.03745305E-02  0.00000000E+00  0.00000000E+00
 -3.74561519E-01 -2.04042975E-01  1.37828158E-01 -8.22191287E-02  0.00000000E+00
  4.73154590E+00 -1.14448934E+00  7.17298462E-01  0.00000000E+00 -9.97202754E-01
 -1.22156453E+00 -1.37900720E+00 -1.82752341E-01  0.00000000E+00  0.00000000E+00
  3.74561576E-01  2.04042946E-01  1.37828804E-01  8.22196007E-02  0.00000000E+00
 -4.73154415E+00 -1.14448779E+00 -7.17298493E-01  0.00000000E+00  9.97203768E-01
  1.22156485E+00  1.37900720E+00 -1.82751694E-01  0.00000000E+00  0.00000000E+00
 -3.33686182E-01  6.21245801E-01 -2.47432939E-07  2.14273541E-01  0.00000000E+00
  3.66117346E+00  2.64941938E-06 -8.91186294E-01  0.00000000E+00 -1.81461260E+00
 -8.31262765E-01 -1.01583179E+00 -5.04129555E-07  0.00000000E+00  0.00000000E+00
  2.49284769E-01  2.38235413E-01 -3.74706076E-01  1.80257795E-01  0.00000000E+00
 -2.94096003E+00  6.11627170E-01  3.94011835E-02  0.00000000E+00  8.99189510E-01
  1.03206590E+00  7.69375613E-01 -2.77994533E-01  0.00000000E+00  0.00000000E+00
  2.49284180E-01  2.38234263E-01  3.74705427E-01  1.80257732E-01  0.00000000E+00
 -2.94095146E+00 -6.11624928E-01  3.94019304E-02  0.00000000E+00  8.99187982E-01
  1.03206435E+00  7.69373449E-01  2.77994808E-01  0.00000000E+00  0.00000000E+00
Orthonormal basis                          R   N=        2025
  2.70513933E-02  1.37488556E-01  3.50147138E-08 -2.69132684E-02  0.00000000E+00
  1.62589626E-01  4.32368636E-08 -4.18424719E-02  0.00000000E+00  1.35995913E-01
  1.10188414E-01  1.03839856E-01  1.03198219E-08  0.00000000E+00  0.00000000E+00
  1.33814035E-02  7.31892672E-02 -3.62808401E-02  1.18793420E-02  0.00000000E+00
  1.06827001E-01 -8.76082955E-02  2.46190297E-02  0.00000000E+00  8.91096879E-02
  6.49856374E-02  6.14916295E-02 -1.67080791E-02  0.00000000E+00  0.00000000E+00
  1.33813906E-02  7.31892079E-02  3.62808129E-02  1.18793605E-02  0.00000000E+00
  1.06826936E-01  8.76082697E-02  2.46190891E-02  0.00000000E+00  8.91096239E-02
  6.49856009E-02  6.14915809E-02  1.67081099E-02  0.00000000E+00  0.00000000E+00
 -1.44036193E-09 -1.58382212E-08  1.24467151E-01  5.29832688E-08  0.00000000E+00
 -2.93016246E-08  2.15070087E-01  9.93565233E-08  0.00000000E+00 -1.14411090E-09
 -3.58279108E-08 -1.25213592E-08 -5.14823103E-02  0.00000000E+00  0.00000000E+00
  2.96303941E-02  1.39308471E-01 -1.43284899E-02  1.43248228E-02  0.00000000E+00
  1.54002540E-01  1.20180361E-02  2.11696628E-02  0.00000000E+00  1.19017435E-01
  1.19620005E-01  1.17142770E-01 -9.63319635E-03  0.00000000E+00  0.00000000E+00
 -2.96304010E-02 -1.39308516E-01 -1.43285085E-02 -1.43248378E-02  0.00000000E+00
 -1.54002616E-01  1.20179659E-02 -2.11696645E-02  0.00000000E+00 -1.19017493E-01
 -1.19620055E-01 -1.17142810E-01 -9.63320767E-03  0.00000000E+00  0.00000000E+00
  4.55968017E-02  1.51457943E-01 -8.48243017E-08  1.37884054E-01  0.00000000E+00
  7.89540548E-02 -1.34495139E-07  2.42586603E-01  0.00000000E+00  8.19544872E-02
  8.80339107E-02  1.26292355E-01  4.38530915E-08  0.00000000E+00  0.00000000E+00
 -3.50846157E-02 -1.33118175E-01 -5.10893508E-02  8.74194454E-02  0.00000000E+00
 -1.21144483E-01 -9.15614403E-02  1.67472436E-01  0.00000000E+00 -8.74768997E-02
 -9.06940414E-02 -1.11785171E-01 -7.08294988E-02  0.00000000E+00  0.00000000E+00
 -3.50846137E-02 -1.33118172E-01  5.10892745E-02  8.74194431E-02  0.00000000E+00
 -1.21144488E-01  9.15612840E-02  1.67472448E-01  0.00000000E+00 -8.74769462E-02
 -9.06940015E-02 -1.11785170E-01  7.08294790E-02  0.00000000E+00  0.00000000E+00
 -2.39895620E-02 -5.34164270E-02  6.86010331E-08  2.06715871E-01  0.00000000E+00
  1.35335734E-02  2.11065234E-08  2.40690076E-01  0.00000000E+00  8.32074654E-02
 -1.08171245E-01 -4.99961356E-02  3.07056897E-07  0.00000000E+00  0.00000000E+00
  3.29562926E-02  1.11122088E-01  1.52618379E-01  1.12804525E-01  0.00000000E+00
  9.19355507E-02  2.30292897E-01  1.72858296E-01  0.00000000E+00  1.75093804E-02
  1.14872484E-01  8.72824616E-02 -5.62892331E-02  0.00000000E+00  0.00000000E+00
  3.29563214E-02  1.11122189E-01 -1.52618423E-01  1.12804198E-01  0.00000000E+00
  9.19356157E-02 -2.30293053E-01  1.72857851E-01  0.00000000E+00  1.75094573E-02
  1.14872516E-01  8.72825344E-02  5.62889416E-02  0.00000000E+00  0.00000000E+00
  3.46210300E-08  3.65355146E-08  2.97611558E-01 -1.52934244E-09  0.00000000E+00
 -4.98686225E-08  1.43780259E-01 -1.05152419E-07  0.00000000E+00 -1.31468012E-07
  1.01544447E-07  2.38818894E-08  2.44837807E-01  0.00000000E+00  0.00000000E+00
 -3.33970385E-02 -8.44049786E-02 -7.82830539E-02  2.61211059E-01  0.00000000E+00
 -6.28869465E-02 -9.23400097E-02  2.85589737E-01  0.00000000E+00 -6.16530992E-02
 -8.38971036E-03 -6.70131919E-02 -1.18764560E-01  0.00000000E+00  0.00000000E+00
  3.33969929E-02  8.44048746E-02 -7.82825573E-02 -2.61211305E-01  0.00000000E+00
  6.28868382E-02 -9.23394974E-02 -2.85590152E-01  0.00000000E+00  6.16531508E-02
  8.38955526E-03  6.70130994E-02 -1.18764449E-01  0.00000000E+00  0.00000000E+00
 -2.40669647E-08 -4.12664451E-08 -2.12183631E-01 -1.42077789E-07  0.00000000E+00
 -2.30296131E-08  2.97582535E-02 -1.11278392E-07  0.00000000E+00 -5.20082897E-08
  3.62992099E-08 -3.59422896E-08  3.75296911E-01  0.00000000E+00  0.00000000E+00
 -4.45728982E-04  8.57862272E-03  3.64350171E-01  6.11285079E-02  0.00000000E+00
  6.14458273E-02  2.39664556E-01  8.73856745E-02  0.00000000E+00 -4.24302511E-02
  7.90361465E-02  3.72699102E-02  1.39898404E-02  0.00000000E+00  0.00000000E+00
  4.45681992E-04 -8.57867911E-03  3.64350347E-01 -6.11282523E-02  0.00000000E+00
 -6.14458612E-02  2.39664785E-01 -8.73856352E-02  0.00000000E+00  4.24302421E-02
 -7.90361264E-02 -3.72699524E-02  1.39902128E-02  0.00000000E+00  0.00000000E+00
 -1.34471810E-01 -1.34581126E-01  3.91077617E-07 -3.43929547E-01  0.00000000E+00
 -9.99079387E-02  4.71214838E-08 -1.33308213E-01  0.00000000E+00  1.79720081E-01
 -1.63053766E-01 -1.75629957E-01  3.33243563E-07  0.00000000E+00  0.00000000E+00
  5.84206588E-02  4.89647487E-02 -2.10190904E-01  3.79064347E-01  0.00000000E+00
 -3.55450768E-02 -4.68546660E-02  1.97806630E-01  0.00000000E+00  3.62565164E-03
 -2.65704050E-02  1.84223044E-04  1.56976304E-01  0.00000000E+00  0.00000000E+00
  5.84206237E-02  4.89647396E-02  2.10190571E-01  3.79064739E-01  0.00000000E+00
 -3.55450563E-02  4.68545086E-02  1.97806904E-01  0.00000000E+00  3.62577334E-03
 -2.65705271E-02  1.84272219E-04 -1.56976509E-01  0.00000000E+00  0.00000000E+00
 -1.55207529E-07 -1.99951253E-08 -2.60128116E-01 -3.31839377E-07  0.00000000E+00
  1.58281063E-07  7.61926951E-03  1.37740123E-07  0.00000000E+00 -3.49244546E-07
  4.50439960E-07  1.05231637E-07 -2.97528047E-01  0.00000000E+00  0.00000000E+00
  6.12695877E-02  3.77735752E-02 -3.10493498E-02  2.81284350E-01  0.00000000E+00
 -6.22384738E-03  1.84843830E-02  2.10754482E-01  0.00000000E+00  2.62963619E-02
 -8.45997012E-02  3.10630572E-02  4.37568821E-01  0.00000000E+00  0.00000000E+00
 -6.12697151E-02 -3.77736824E-02 -3.10499480E-02 -2.81283845E-01  0.00000000E+00
  6.22397320E-03  1.84842954E-02 -2.10753724E-01  0.00000000E+00 -2.62961298E-02
  8.45995546E-02 -3.10630375E-02  4.37566811E-01  0.00000000E+00  0.00000000E+00
  2.39094430E-02  1.83047023E-03 -6.32100074E-07 -1.42154797E-02  0.00000000E+00
 -1.11565121E-01  5.49127860E-08 -4.60565763E-02  0.00000000E+00  3.29126716E-01
 -3.05647637E-01 -1.09582248E-01 -2.31239620E-07  0.00000000E+00  0.00000000E+00
  9.76689594E-02  5.38272262E-02 -1.99150046E-01 -5.91009089E-02  0.00000000E+00
 -3.95921126E-02 -6.57444078E-03 -1.28537526E-01  0.00000000E+00 -8.87036293E-02
  5.25472567E-02 -1.49590383E-02 -4.83131678E-01  0.00000000E+00  0.00000000E+00
  9.76682492E-02  5.38268829E-02  1.99149340E-01 -5.91015921E-02  0.00000000E+00
 -3.95921083E-02  6.57417074E-03 -1.28538038E-01  0.00000000E+00 -8.87035977E-02
  5.25476630E-02 -1.49592714E-02  4.83133755E-01  0.00000000E+00  0.00000000E+00
  5.20136170E-01  1.35974911E-01  4.91598574E-08 -3.82018680E-01  0.00000000E+00
 -5.16764352E-02  2.19262181E-07 -1.14503967E-01  0.00000000E+00 -3.52868800E-02
 -1.30179352E-01  5.18940645E-02  6.01181996E-07  0.00000000E+00  0.00000000E+00
 -2.39050775E-01 -7.20225341E-02  2.15251743E-01  1.26351014E-01  0.00000000E+00
 -1.29085298E-02  1.14450782E-01  4.00259061E-02  0.00000000E+00  2.24122228E-01
 -1.24332537E-01 -3.90621709E-02 -1.71698874E-01  0.00000000E+00  0.00000000E+00
 -2.39050413E-01 -7.20224391E-02 -2.15252361E-01  1.26351320E-01  0.00000000E+00
 -1.29085809E-02 -1.14451316E-01  4.00259924E-02  0.00000000E+00  2.24122547E-01
 -1.24332955E-01 -3.90622900E-02  1.71699739E-01  0.00000000E+00  0.00000000E+00
  5.15957891E-07  5.42867099E-08  7.80092065E-03 -2.90753106E-09  0.00000000E+00
 -1.81222687E-08  1.75455076E-02  4.27013427E-08  0.00000000E+00 -5.36902771E-08
 -1.95889840E-08 -6.52009141E-08 -4.25344892E-02  0.00000000E+00  0.00000000E+00
 -6.74540047E-01 -9.13152224E-02 -7.43558681E-03 -5.24705379E-03  0.00000000E+00
  8.42986002E-03  2.64672174E-02 -2.42283314E-03  0.00000000E+00  9.54467231E-02
  6.52233183E-02  8.01614003E-02  9.42372625E-02  0.00000000E+00  0.00000000E+00
  6.74542484E-01  9.13155452E-02 -7.43559170E-03  5.24698403E-03  0.00000000E+00
 -8.42990965E-03  2.64672693E-02  2.42289322E-03  0.00000000E+00 -9.54469247E-02
 -6.52236486E-02 -8.01617456E-02  9.42373857E-02  0.00000000E+00  0.00000000E+00
  4.57025620E-01  4.50632388E-02  1.71895261E-07 -1.78879288E-02  0.00000000E+00
  7.88247182E-03 -1.75211090E-07  5.73036204E-03  0.00000000E+00 -9.33019844E-02
  3.71784202E-02 -4.54904934E-02 -2.19763039E-07  0.00000000E+00  0.00000000E+00
  5.91970089E-01  6.10397115E-02  6.93440305E-02 -5.06632461E-03  0.00000000E+00
 -6.41795767E-03 -1.30313914E-02  2.76301278E-02  0.00000000E+00  3.09317907E-03
 -1.09427331E-01 -1.07025165E-01  5.47956042E-02  0.00000000E+00  0.00000000E+00
  5.91967687E-01  6.10394260E-02 -6.93435120E-02 -5.06660532E-03  0.00000000E+00
 -6.41788454E-03  1.30316699E-02  2.76300905E-02  0.00000000E+00  3.09296065E-03
 -1.09426747E-01 -1.07024641E-01 -5.47964587E-02  0.00000000E+00  0.00000000E+00
 -6.55917556E-06  8.30065538E-07 -1.86679735E-01 -2.17427574E-06  0.00000000E+00
  3.77752137E-09  1.93637221E-01 -1.00644937E-07  0.00000000E+00 -7.33864811E-07
  1.45048696E-06  2.56818747E-06  3.98778417E-01  0.00000000E+00  0.00000000E+00
  1.15377912E-02 -1.11992300E-02 -2.13727847E-01 -1.82477825E-01  0.00000000E+00
  3.01241154E-02 -2.21886950E-01 -1.57810417E-02  0.00000000E+00 -3.53274405E-01
  2.77439558E-01  9.90563161E-02  2.65130437E-01  0.00000000E+00  0.00000000E+00
 -1.15325584E-02  1.11986794E-02 -2.13732210E-01  1.82477831E-01  0.00000000E+00
 -3.01244441E-02 -2.21888255E-01  1.57811047E-02  0.00000000E+00  3.53276876E-01
 -2.77443473E-01 -9.90576896E-02  2.65133109E-01  0.00000000E+00  0.00000000E+00
  6.80064676E-01 -1.08686858E-01 -2.03881955E-06  2.73770603E-01  0.00000000E+00
  1.59646491E-02  1.84475844E-06  3.01273918E-02  0.00000000E+00  2.94454993E-02
 -6.75256863E-02 -2.97541785E-01  3.60417783E-06  0.00000000E+00  0.00000000E+00
 -2.04230131E-01  3.53028887E-02 -2.23126681E-01 -1.90087864E-02  0.00000000E+00
  2.15770235E-02 -8.36609362E-02 -4.56687688E-03  0.00000000E+00 -1.57572507E-01
  2.23738001E-01  6.14516922E-02  1.83341779E-01  0.00000000E+00  0.00000000E+00
 -2.04230057E-01  3.53030939E-02  2.23122657E-01 -1.90053253E-02  0.00000000E+00
  2.15764352E-02  8.36568070E-02 -4.56666718E-03  0.00000000E+00 -1.57565647E-01
  2.23732582E-01  6.14496845E-02 -1.83336802E-01  0.00000000E+00  0.00000000E+00
  9.20043133E-02 -9.67321146E-02 -3.03374145E-07  3.46905134E-02  0.00000000E+00
  8.28718202E-02  1.42431225E-07 -1.59342710E-01  0.00000000E+00 -1.92050598E-01
 -4.38970855E-01  5.58088201E-01  8.27492530E-08  0.00000000E+00  0.00000000E+00
  3.71706785E-02 -3.28725271E-02  7.06064393E-02  8.24615776E-02  0.00000000E+00
  3.03542882E-02 -1.38576151E-01  2.94132813E-02  0.00000000E+00 -3.01579327E-01
 -1.22006017E-01  4.25587302E-01 -5.08752744E-03  0.00000000E+00  0.00000000E+00
  3.71706320E-02 -3.28725308E-02 -7.06066876E-02  8.24613763E-02  0.00000000E+00
  3.03542396E-02  1.38575908E-01  2.94133283E-02  0.00000000E+00 -3.01578901E-01
 -1.22005819E-01  4.25586597E-01  5.08735955E-03  0.00000000E+00  0.00000000E+00
  5.22137374E-08 -1.28570621E-07  3.12735860E-01  2.87727816E-07  0.00000000E+00
  5.08913272E-08 -1.43481526E-02  9.21403132E-08  0.00000000E+00 -2.97531037E-07
  1.22309732E-07  4.53697785E-08  1.07731073E-01  0.00000000E+00  0.00000000E+00
  4.62335463E-02 -4.63880551E-02  5.45894163E-02 -1.63081973E-01  0.00000000E+00
 -1.91715547E-02  4.49806521E-02  1.75168779E-02  0.00000000E+00  2.83969995E-01
  2.85180264E-01 -5.96368193E-01  3.05746976E-01  0.00000000E+00  0.00000000E+00
 -4.62335824E-02  4.63881462E-02  5.45896746E-02  1.63081857E-01  0.00000000E+00
  1.91716156E-02  4.49807318E-02 -1.75167075E-02  0.00000000E+00 -2.83970596E-01
 -2.85180747E-01  5.96369418E-01  3.05747175E-01  0.00000000E+00  0.00000000E+00
 -5.60609495E-02  6.16874293E-02 -5.73173397E-08  9.41267277E-02  0.00000000E+00
  1.33676274E-02 -1.23287537E-08 -2.71792083E-01  0.00000000E+00  2.65206802E-02
 -2.21967106E-01  2.51121357E-01  1.11624772E-07  0.00000000E+00  0.00000000E+00
  3.24359855E-02 -8.56193990E-02  3.11884629E-01  2.75453872E-01  0.00000000E+00
 -6.28511028E-03 -1.60308340E-01 -1.80413729E-01  0.00000000E+00 -1.36905905E-01
  4.96284349E-01 -4.24229146E-01  3.72293206E-02  0.00000000E+00  0.00000000E+00
  3.24360061E-02 -8.56194920E-02 -3.11885083E-01  2.75453446E-01  0.00000000E+00
 -6.28511628E-03  1.60308576E-01 -1.80413515E-01  0.00000000E+00 -1.36906449E-01
  4.96283736E-01 -4.24228091E-01 -3.72293343E-02  0.00000000E+00  0.00000000E+00
 -6.68562032E-08  2.43554096E-07 -3.30345226E-01  1.59931069E-06  0.00000000E+00
 -1.97786035E-07 -1.92913067E-01 -1.09899126E-06  0.00000000E+00  3.42690810E-07
  1.33322115E-06 -1.54641382E-06 -2.42087528E-01  0.00000000E+00  0.00000000E+00
 -6.04805247E-02  1.52930605E-01 -9.33997348E-02  4.97327046E-01  0.00000000E+00
  1.84506381E-02  2.59606890E-02 -2.91658519E-01  0.00000000E+00 -1.80830901E-01
  4.91407703E-01 -2.51971557E-01 -2.46471577E-01  0.00000000E+00  0.00000000E+00
  6.04804102E-02 -1.52930652E-01 -9.34006054E-02 -4.97324058E-01  0.00000000E+00
 -1.84507024E-02  2.59611208E-02  2.91656641E-01  0.00000000E+00  1.80831195E-01
 -4.91410200E-01  2.51973373E-01 -2.46470274E-01  0.00000000E+00  0.00000000E+00
 -1.66380338E-02  7.21144944E-02  9.69435011E-07  5.44933866E-01  0.00000000E+00
 -5.89576463E-02  7.35592462E-07 -3.00096705E-01  0.00000000E+00  2.82664458E-02
  4.25354753E-01 -4.05901112E-01  4.71022658E-07  0.00000000E+00  0.00000000E+00
 -1.05957853E-02 -1.35774218E-02  1.65164264E-01  4.78540464E-01  0.00000000E+00
 -7.89238197E-03 -1.01707234E-01 -3.23943829E-01  0.00000000E+00 -3.31846144E-03
 -2.66775430E-01  2.18271910E-01 -1.43290652E-01  0.00000000E+00  0.00000000E+00
 -1.05961610E-02 -1.35763943E-02 -1.65163877E-01  4.78543642E-01  0.00000000E+00
 -7.89223241E-03  1.01707335E-01 -3.23945801E-01  0.00000000E+00 -3.31968664E-03
 -2.66771728E-01  2.18269876E-01  1.43292320E-01  0.00000000E+00  0.00000000E+00
  2.48451394E-02  1.93613112E-01  1.39341633E-07  7.05409911E-01  0.00000000E+00
 -1.56768920E-01  7.16469751E-08 -3.31970606E-01  0.00000000E+00  1.37494380E-01
 -4.66770207E-01  5.05198943E-01  1.32560387E-07  0.00000000E+00  0.00000000E+00
 -3.21151838E-03 -2.31066422E-02 -3.63671262E-01  4.96839061E-02  0.00000000E+00
  3.79118952E-02  3.14232736E-01 -1.07764792E-01  0.00000000E+00  4.14954806E-01
 -2.22812394E-01 -2.08079383E-01  2.29631873E-01  0.00000000E+00  0.00000000E+00
 -3.21154376E-03 -2.31066416E-02  3.63672065E-01  4.96840373E-02  0.00000000E+00
  3.79120386E-02 -3.14233401E-01 -1.07764569E-01  0.00000000E+00  4.14955323E-01
 -2.22812873E-01 -2.08079451E-01 -2.29630923E-01  0.00000000E+00  0.00000000E+00
  4.39754440E-08 -3.15839102E-07  5.74169763E-01 -9.76521407E-08  0.00000000E+00
  1.36169370E-07 -1.82283920E-01  1.23386564E-07  0.00000000E+00 -3.76271415E-07
  4.72121554E-07 -1.85774997E-07  1.14547163E-01  0.00000000E+00  0.00000000E+00
 -2.82851943E-03  1.20383924E-01  5.43515701E-01  2.83557852E-01  0.00000000E+00
 -9.66884356E-02 -5.70968788E-01 -4.41777839E-01  0.00000000E+00 -4.07454834E-02
 -5.79792242E-02  1.65367032E-01  2.72514608E-01  0.00000000E+00  0.00000000E+00
  2.82850296E-03 -1.20383795E-01  5.43515473E-01 -2.83557531E-01  0.00000000E+00
  9.66883834E-02 -5.70968647E-01  4.41777617E-01  0.00000000E+00  4.07447001E-02
  5.79799505E-02 -1.65366960E-01  2.72514981E-01  0.00000000E+00  0.00000000E+00
 -2.25009498E-08  4.59474649E-08 -2.49599065E-01 -3.47161572E-07  0.00000000E+00
 -8.42398589E-08  6.02653852E-04  1.02188132E-07  0.00000000E+00  3.25179839E-07
 -3.22804568E-07  1.97135966E-08 -3.84999001E-01  0.00000000E+00  0.00000000E+00
 -1.74946361E-01  6.38762790E-01  3.31151385E-01 -3.26412973E-01  0.00000000E+00
 -2.04549304E-01 -3.83727723E-01  5.06866955E-01  0.00000000E+00 -1.92759601E-01
  3.57838356E-02 -2.27852171E-01 -1.98559527E-01  0.00000000E+00  0.00000000E+00
  1.74946190E-01 -6.38762216E-01  3.31150864E-01  3.26413320E-01  0.00000000E+00
  2.04549135E-01 -3.83727103E-01 -5.06867316E-01  0.00000000E+00  1.92759690E-01
 -3.57841371E-02  2.27852013E-01 -1.98559349E-01  0.00000000E+00  0.00000000E+00
 -5.50154917E-02  3.61674842E-03  2.69031977E-07  2.65407313E-01  0.00000000E+00
 -1.99658501E-01 -4.31722611E-08 -1.65453298E-01  0.00000000E+00  2.98374094E-01
 -3.31799147E-01 -1.35090960E-01  4.85237584E-07  0.00000000E+00  0.00000000E+00
 -1.84182190E-01  7.15178367E-01  3.70540768E-01 -2.42281876E-01  0.00000000E+00
 -2.64334778E-01 -4.54353535E-01  2.36110033E-01  0.00000000E+00  3.39399861E-02
 -2.98390109E-01 -1.80132792E-01  9.88508066E-02  0.00000000E+00  0.00000000E+00
 -1.84182234E-01  7.15178550E-01 -3.70540893E-01 -2.42282098E-01  0.00000000E+00
 -2.64334871E-01  4.54353731E-01  2.36110545E-01  0.00000000E+00  3.39399876E-02
 -2.98390040E-01 -1.80132988E-01 -9.88502372E-02  0.00000000E+00  0.00000000E+00
 -1.51186781E-06  4.39454852E-06 -1.33639481E-02  2.96323971E-06  0.00000000E+00
 -1.15217020E-06 -3.72749008E-01 -7.15106950E-06  0.00000000E+00  6.38499196E-06
 -3.47307723E-06 -6.78158401E-06  8.96554990E-01  0.00000000E+00  0.00000000E+00
 -1.60771423E-01  8.58664439E-01 -4.41769066E-01  1.44677119E-01  0.00000000E+00
 -5.16327794E-03  1.89524260E-01 -2.04169339E-01  0.00000000E+00  1.49907519E-01
 -4.62084804E-01 -1.51373884E-01  1.30774840E-01  0.00000000E+00  0.00000000E+00
  1.60775154E-01 -8.58682158E-01 -4.41775711E-01 -1.44686217E-01  0.00000000E+00
  5.16308748E-03  1.89526398E-01  2.04178869E-01  0.00000000E+00 -1.49904647E-01
  4.62087090E-01  1.51381024E-01  1.30770473E-01  0.00000000E+00  0.00000000E+00
  1.36797302E-01 -3.95312530E-01 -7.47184193E-08 -2.24689837E-01  0.00000000E+00
  1.07823119E-01 -4.74419084E-06  6.13481223E-01  0.00000000E+00 -5.70012997E-01
  3.39310866E-01  5.95848443E-01  1.01999414E-05  0.00000000E+00  0.00000000E+00
 -1.54599142E-01  7.51723572E-01 -3.00374181E-01  3.69378593E-01  0.00000000E+00
  1.78753410E-02  1.14229910E-01 -4.20825404E-01  0.00000000E+00 -1.25571147E-01
 -1.10392035E-01 -2.98034456E-01 -1.44464568E-01  0.00000000E+00  0.00000000E+00
 -1.54595413E-01  7.51703189E-01  3.00363132E-01  3.69375180E-01  0.00000000E+00
  1.78752448E-02 -1.14224426E-01 -4.20820457E-01  0.00000000E+00 -1.25574247E-01
 -1.10381185E-01 -2.98030885E-01  1.44467659E-01  0.00000000E+00  0.00000000E+00
 -4.44937461E-02  1.33659473E+00 -9.57071380E-06 -7.36501786E-02  0.00000000E+00
 -7.47235211E-01  7.52607148E-06 -7.51319527E-01  0.00000000E+00 -5.25483286E-01
  4.98412131E-01  6.88582007E-02  3.18676366E-06  0.00000000E+00  0.00000000E+00
 -4.53640045E-02  3.84680077E-01 -1.88811698E-01 -3.10524634E-02  0.00000000E+00
 -1.46271257E-01  4.56644225E-01  3.64228725E-01  0.00000000E+00 -5.53103510E-01
  2.22005934E-01  6.09482914E-02 -7.18595254E-02  0.00000000E+00  0.00000000E+00
 -4.53639029E-02  3.84683311E-01  1.88812496E-01 -3.10548419E-02  0.00000000E+00
 -1.46273040E-01 -4.56655370E-01  3.64231832E-01  0.00000000E+00 -5.53114139E-01
  2.22010884E-01  6.09531090E-02  7.18553694E-02  0.00000000E+00  0.00000000E+00
 -1.38748315E-07  9.50815942E-06  1.23436475E+00  1.17993252E-07  0.00000000E+00
 -5.91521249E-06 -9.81397698E-01 -7.36296259E-06  0.00000000E+00 -4.54191596E-06
  4.40073823E-06  8.88125897E-07 -4.40572368E-01  0.00000000E+00  0.00000000E+00
  8.93504690E-03  2.35105311E-01 -5.46405962E-02 -1.53834535E-01  0.00000000E+00
 -1.26756959E-01  7.22339280E-01  2.29393296E-01  0.00000000E+00 -6.92460822E-01
  3.20528808E-01  3.25389295E-01  2.36813582E-01  0.00000000E+00  0.00000000E+00
 -8.93563550E-03 -2.35100183E-01 -5.46378882E-02  1.53833682E-01  0.00000000E+00
  1.26754930E-01  7.22332284E-01 -2.29385336E-01  0.00000000E+00  6.92452148E-01
 -3.20524399E-01 -3.25388583E-01  2.36816573E-01  0.00000000E+00  0.00000000E+00
 -1.55913057E-01  1.48515291E+00  1.51041677E-06 -4.20779138E-01  0.00000000E+00
 -2.64060212E-02 -2.16820334E-06  1.19493791E+00  0.00000000E+00  2.70939580E-01
 -8.43625959E-01 -3.97030948E-01  5.42963408E-07  0.00000000E+00  0.00000000E+00
  3.36378353E-02  6.69582891E-02  1.04427536E-01  1.23506809E-01  0.00000000E+00
 -1.62195983E-01 -2.93109785E-02 -7.77143813E-01  0.00000000E+00 -4.88629244E-02
 -5.45751928E-02  2.88156988E-01  5.26076101E-01  0.00000000E+00  0.00000000E+00
  3.36375638E-02  6.69582260E-02 -1.04427636E-01  1.23507151E-01  0.00000000E+00
 -1.62195408E-01  2.93124993E-02 -7.77144107E-01  0.00000000E+00 -4.88617218E-02
 -5.45770510E-02  2.88155550E-01 -5.26075288E-01  0.00000000E+00  0.00000000E+00
 -7.90084851E-08  1.24868526E-06  4.59530374E-01 -4.13860458E-08  0.00000000E+00
 -2.04184345E-07  1.60153567E+00  1.16472882E-06  0.00000000E+00 -1.16333459E-07
 -7.68096130E-07 -2.08298877E-07 -5.57074763E-01  0.00000000E+00  0.00000000E+00
 -2.45721818E-01  9.78614090E-02  2.00900383E-01  3.82729714E-02  0.00000000E+00
  6.29164070E-01  4.17351501E-01 -4.83908894E-01  0.00000000E+00 -1.05753496E+00
 -7.77422249E-01 -7.73607707E-01  1.41424475E-01  0.00000000E+00  0.00000000E+00
  2.45721963E-01 -9.78617092E-02  2.00900200E-01 -3.82726914E-02  0.00000000E+00
 -6.29164840E-01  4.17351827E-01  4.83908856E-01  0.00000000E+00  1.05753525E+00
  7.77422970E-01  7.73608212E-01  1.41424589E-01  0.00000000E+00  0.00000000E+00
 -3.13219833E-01  5.00156121E-01  1.77357553E-07  3.99707658E-02  0.00000000E+00
  1.66666823E+00  3.07828329E-07 -4.52159448E-01  0.00000000E+00 -7.43743476E-01
 -8.41774493E-01 -1.02295684E+00 -4.20144154E-08  0.00000000E+00  0.00000000E+00
 -2.00688645E-01  3.72327204E-02 -8.07017276E-02 -2.95459166E-02  0.00000000E+00
  1.11083396E+00  1.43803325E-01  1.85158774E-01  0.00000000E+00 -6.00757842E-01
 -6.57102950E-01 -7.10387117E-01 -1.30290273E-01  0.00000000E+00  0.00000000E+00
 -2.00688590E-01  3.72325744E-02  8.07017552E-02 -2.95458494E-02  0.00000000E+00
  1.11083387E+00 -1.43803407E-01  1.85158628E-01  0.00000000E+00 -6.00757603E-01
 -6.57102585E-01 -7.10386992E-01  1.30290428E-01  0.00000000E+00  0.00000000E+00
  3.35587784E-01 -3.92367215E-01  1.12231983E-06 -4.84082934E-01  0.00000000E+00
  3.03440564E-02  4.60789435E-07 -3.05661596E-01  0.00000000E+00  2.31043207E+00
  7.83449130E-01  6.01210698E-01  3.72355116E-07  0.00000000E+00  0.00000000E+00
 -1.40716738E-01 -1.73618587E-02  3.69883172E-01 -2.08235997E-01  0.00000000E+00
  3.35806098E-01  8.27999775E-01 -3.94751993E-01  0.00000000E+00 -1.08591925E+00
 -5.74777609E-01 -2.54989202E-01  5.50337891E-01  0.00000000E+00  0.00000000E+00
 -1.40716563E-01 -1.73610423E-02 -3.69882263E-01 -2.08235881E-01  0.00000000E+00
  3.35805836E-01 -8.27998980E-01 -3.94752306E-01  0.00000000E+00 -1.08591773E+00
 -5.74777786E-01 -2.54988779E-01 -5.50338080E-01  0.00000000E+00  0.00000000E+00
  4.55298502E-07  1.29343550E-06  3.00183940E-01  5.60446201E-07  0.00000000E+00
 -2.14207548E-05  6.08216111E+00  9.86498285E-06  0.00000000E+00 -4.63416736E-07
  5.08885968E-07  2.22473148E-06 -3.77102985E-01  0.00000000E+00  0.00000000E+00
  2.99094844E-01  1.07869560E+00 -8.84495817E-02  1.38269815E-01  0.00000000E+00
 -7.41355693E+00  2.24817602E+00 -1.66948225E+00  0.00000000E+00  6.16134102E-01
  8.78985601E-01  1.10954669E+00  3.35738811E-01  0.00000000E+00  0.00000000E+00
 -2.99096215E-01 -1.07870079E+00 -8.84500818E-02 -1.38269709E-01  0.00000000E+00
  7.41358841E+00  2.24818932E+00  1.66948584E+00  0.00000000E+00 -6.16135784E-01
 -8.78990326E-01 -1.10955169E+00  3.35740171E-01  0.00000000E+00  0.00000000E+00
 -1.30315278E-01 -2.92206050E-01  1.15154321E-06 -2.01111711E-01  0.00000000E+00
  9.26188273E+00  1.83872889E-05 -3.00728795E+00  0.00000000E+00  2.97528393E-01
 -2.38552070E-01 -7.60186971E-01 -7.09958915E-07  0.00000000E+00  0.00000000E+00
  2.71011886E-01  1.03590694E+00 -8.43243775E-02 -3.56509811E-02  0.00000000E+00
 -6.75844569E+00  2.92166479E+00 -4.92681101E-01  0.00000000E+00  2.43591524E-01
  1.01056344E+00  9.76548127E-01  2.25593838E-01  0.00000000E+00  0.00000000E+00
  2.71010232E-01  1.03590094E+00  8.43240352E-02 -3.56515787E-02  0.00000000E+00
 -6.75840190E+00 -2.92165118E+00 -4.92674047E-01  0.00000000E+00  2.43588350E-01
  1.01055838E+00  9.76542020E-01 -2.25592682E-01  0.00000000E+00  0.00000000E+00
  0.00000000E+00  0.00000000E+00  0.00000000E+00  0.00000000E+00  2.63036029E-01
  0.00000000E+00  0.00000000E+00  0.00000000E+00  3.64152266E-01  0.00000000E+00
  0.00000000E+00  0.00000000E+00  0.00000000E+00  1.51314599E-07 -7.92079316E-02
  0.00000000E+00  0.00000000E+00  0.00000000E+00  0.00000000E+00  1.53339377E-01
  0.00000000E+00  0.00000000E+00  0.00000000E+00  2.59678487E-01  0.00000000E+00
  0.00000000E+00  0.00000000E+00  0.00000000E+00 -1.08155864E-01  3.55169942E-02
  0.00000000E+00  0.00000000E+00  0.00000000E+00  0.00000000E+00  1.53339247E-01
  0.00000000E+00  0.00000000E+00  0.00000000E+00  2.59678333E-01  0.00000000E+00
  0.00000000E+00  0.00000000E+00  0.00000000E+00  1.08155729E-01  3.55170259E-02
  0.00000000E+00  0.00000000E+00  0.00000000E+00  0.00000000E+00 -4.00090534E-08
  0.00000000E+00  0.00000000E+00  0.00000000E+00 -1.34241919E-07  0.00000000E+00
  0.00000000E+00  0.00000000E+00  0.00000000E+00  4.56799305E-01  1.72149595E-07
  0.00000000E+00  0.00000000E+00  0.00000000E+00  0.00000000E+00  2.60606576E-01
  0.00000000E+00  0.00000000E+00  0.00000000E+00  2.60294720E-01  0.00000000E+00
  0.00000000E+00  0.00000000E+00  0.00000000E+00 -1.68748841E-01  1.10170624E-01
  0.00000000E+00  0.00000000E+00  0.00000000E+00  0.00000000E+00 -2.60606704E-01
  0.00000000E+00  0.00000000E+00  0.00000000E+00 -2.60294999E-01  0.00000000E+00
  0.00000000E+00  0.00000000E+00  0.00000000E+00 -1.68748788E-01 -1.10170709E-01
  0.00000000E+00  0.00000000E+00  0.00000000E+00  0.00000000E+00 -3.85312223E-08
  0.00000000E+00  0.00000000E+00  0.00000000E+00  8.42162563E-08  0.00000000E+00
  0.00000000E+00  0.00000000E+00  0.00000000E+00 -2.94540811E-01 -1.02075277E-07
  0.00000000E+00  0.00000000E+00  0.00000000E+00  0.00000000E+00  3.12892190E-01
  0.00000000E+00  0.00000000E+00  0.00000000E+00  2.71670242E-01  0.00000000E+00
  0.00000000E+00  0.00000000E+00  0.00000000E+00  3.69452187E-01 -2.05485999E-01
  0.00000000E+00  0.00000000E+00  0.00000000E+00  0.00000000E+00 -3.12892269E-01
  0.00000000E+00  0.00000000E+00  0.00000000E+00 -2.71670209E-01  0.00000000E+00
  0.00000000E+00  0.00000000E+00  0.00000000E+00  3.69451950E-01  2.05486164E-01
  0.00000000E+00  0.00000000E+00  0.00000000E+00  0.00000000E+00 -2.44989170E-01
  0.00000000E+00  0.00000000E+00  0.00000000E+00  3.23043512E-03  0.00000000E+00
  0.00000000E+00  0.00000000E+00  0.00000000E+00 -1.29666056E-08  3.46120318E-01
  0.00000000E+00  0.00000000E+00  0.00000000E+00  0.00000000E+00  2.62782513E-01
  0.00000000E+00  0.00000000E+00  0.00000000E+00  2.07224735E-01  0.00000000E+00
  0.00000000E+00  0.00000000E+00  0.00000000E+00  4.44138851E-01 -2.05658943E-02
  0.00000000E+00  0.00000000E+00  0.00000000E+00  0.00000000E+00  2.62782514E-01
  0.00000000E+00  0.00000000E+00  0.00000000E+00  2.07224705E-01  0.00000000E+00
  0.00000000E+00  0.00000000E+00  0.00000000E+00 -4.44138741E-01 -2.05664515E-02
  0.00000000E+00  0.00000000E+00  0.00000000E+00  0.00000000E+00  3.23565168E-01
  0.00000000E+00  0.00000000E+00  0.00000000E+00  1.73087740E-01  0.00000000E+00
  0.00000000E+00  0.00000000E+00  0.00000000E+00 -2.81103201E-07  5.64335768E-01
  0.00000000E+00  0.00000000E+00  0.00000000E+00  0.00000000E+00 -2.17086374E-01
  0.00000000E+00  0.00000000E+00  0.00000000E+00 -9.64721996E-02  0.00000000E+00
  0.00000000E+00  0.00000000E+00  0.00000000E+00  5.91397353E-02  3.66474465E-01
  0.00000000E+00  0.00000000E+00  0.00000000E+00  0.00000000E+00 -2.17086315E-01
  0.00000000E+00  0.00000000E+00  0.00000000E+00 -9.64722287E-02  0.00000000E+00
  0.00000000E+00  0.00000000E+00  0.00000000E+00 -5.91397980E-02  3.66474064E-01
  0.00000000E+00  0.00000000E+00  0.00000000E+00  0.00000000E+00 -1.65853956E-09
  0.00000000E+00  0.00000000E+00  0.00000000E+00  1.85466960E-08  0.00000000E+00
  0.00000000E+00  0.00000000E+00  0.00000000E+00 -9.00516974E-03  2.56805585E-08
  0.00000000E+00  0.00000000E+00  0.00000000E+00  0.00000000E+00 -2.34202958E-02
  0.00000000E+00  0.00000000E+00  0.00000000E+00  2.36677737E-03  0.00000000E+00
  0.00000000E+00  0.00000000E+00  0.00000000E+00  3.55155763E-01  6.12471132E-01
  0.00000000E+00  0.00000000E+00  0.00000000E+00  0.00000000E+00  2.34202454E-02
  0.00000000E+00  0.00000000E+00  0.00000000E+00 -2.36677765E-03  0.00000000E+00
  0.00000000E+00  0.00000000E+00  0.00000000E+00  3.55156637E-01 -6.12471687E-01
  0.00000000E+00  0.00000000E+00  0.00000000E+00  0.00000000E+00 -2.37042439E-01
  0.00000000E+00  0.00000000E+00  0.00000000E+00 -1.72872483E-01  0.00000000E+00
  0.00000000E+00  0.00000000E+00  0.00000000E+00  2.43549836E-07 -4.55136801E-01
  0.00000000E+00  0.00000000E+00  0.00000000E+00  0.00000000E+00  1.96358852E-01
  0.00000000E+00  0.00000000E+00  0.00000000E+00 -1.38200371E-02  0.00000000E+00
  0.00000000E+00  0.00000000E+00  0.00000000E+00  3.08168527E-02  6.03607354E-01
  0.00000000E+00  0.00000000E+00  0.00000000E+00  0.00000000E+00  1.96358873E-01
  0.00000000E+00  0.00000000E+00  0.00000000E+00 -1.38199871E-02  0.00000000E+00
  0.00000000E+00  0.00000000E+00  0.00000000E+00 -3.08166690E-02  6.03606827E-01
  0.00000000E+00  0.00000000E+00  0.00000000E+00  0.00000000E+00  3.47154984E-02
  0.00000000E+00  0.00000000E+00  0.00000000E+00 -2.92905836E-01  0.00000000E+00
  0.00000000E+00  0.00000000E+00  0.00000000E+00  2.16185706E-07  5.37534714E-01
  0.00000000E+00  0.00000000E+00  0.00000000E+00  0.00000000E+00  5.90475251E-01
  0.00000000E+00  0.00000000E+00  0.00000000E+00 -2.56391307E-01  0.00000000E+00
  0.00000000E+00  0.00000000E+00  0.00000000E+00 -4.28945895E-01 -8.52739731E-03
  0.00000000E+00  0.00000000E+00  0.00000000E+00  0.00000000E+00  5.90475606E-01
  0.00000000E+00  0.00000000E+00  0.00000000E+00 -2.56391432E-01  0.00000000E+00
  0.00000000E+00  0.00000000E+00  0.00000000E+00  4.28946421E-01 -8.52649597E-03
  0.00000000E+00  0.00000000E+00  0.00000000E+00  0.00000000E+00  1.01273469E+00
  0.00000000E+00  0.00000000E+00  0.00000000E+00 -4.11902521E-01  0.00000000E+00
  0.00000000E+00  0.00000000E+00  0.00000000E+00 -1.13186926E-06 -3.43889349E-01
  0.00000000E+00  0.00000000E+00  0.00000000E+00  0.00000000E+00  2.10099331E-01
  0.00000000E+00  0.00000000E+00  0.00000000E+00 -2.25928575E-01  0.00000000E+00
  0.00000000E+00  0.00000000E+00  0.00000000E+00  3.92056134E-01 -8.33152014E-02
  0.00000000E+00  0.00000000E+00  0.00000000E+00  0.00000000E+00  2.10097332E-01
  0.00000000E+00  0.00000000E+00  0.00000000E+00 -2.25927410E-01  0.00000000E+00
  0.00000000E+00  0.00000000E+00  0.00000000E+00 -3.92057233E-01 -8.33164336E-02
  0.00000000E+00  0.00000000E+00  0.00000000E+00  0.00000000E+00 -1.75501721E-06
  0.00000000E+00  0.00000000E+00  0.00000000E+00  5.50809097E-07  0.00000000E+00
  0.00000000E+00  0.00000000E+00  0.00000000E+00 -5.13709998E-01  6.53670125E-07
  0.00000000E+00  0.00000000E+00  0.00000000E+00  0.00000000E+00  6.82384236E-01
  0.00000000E+00  0.00000000E+00  0.00000000E+00 -5.09389207E-01  0.00000000E+00
  0.00000000E+00  0.00000000E+00  0.00000000E+00 -2.98380578E-01  1.97308236E-01
  0.00000000E+00  0.00000000E+00  0.00000000E+00  0.00000000E+00 -6.82384283E-01
  0.00000000E+00  0.00000000E+00  0.00000000E+00  5.09389769E-01  0.00000000E+00
  0.00000000E+00  0.00000000E+00  0.00000000E+00 -2.98378720E-01 -1.97308045E-01
  0.00000000E+00  0.00000000E+00  0.00000000E+00  0.00000000E+00  7.93831576E-07
  0.00000000E+00  0.00000000E+00  0.00000000E+00 -4.57947876E-07  0.00000000E+00
  0.00000000E+00  0.00000000E+00  0.00000000E+00  1.06670929E+00  1.93365753E-07
  0.00000000E+00  0.00000000E+00  0.00000000E+00  0.00000000E+00  2.29512364E-01
  0.00000000E+00  0.00000000E+00  0.00000000E+00 -6.75189177E-01  0.00000000E+00
  0.00000000E+00  0.00000000E+00  0.00000000E+00  5.58038212E-01 -3.04364123E-01
  0.00000000E+00  0.00000000E+00  0.00000000E+00  0.00000000E+00 -2.29513077E-01
  0.00000000E+00  0.00000000E+00  0.00000000E+00  6.75189719E-01  0.00000000E+00
  0.00000000E+00  0.00000000E+00  0.00000000E+00  5.58037425E-01  3.04364271E-01
  0.00000000E+00  0.00000000E+00  0.00000000E+00  0.00000000E+00 -3.45182408E-01
  0.00000000E+00  0.00000000E+00  0.00000000E+00  1.65736043E+00  0.00000000E+00
  0.00000000E+00  0.00000000E+00  0.00000000E+00  6.96326649E-07 -3.41598141E-01
  0.00000000E+00  0.00000000E+00  0.00000000E+00  0.00000000E+00  3.43212719E-01
  0.00000000E+00  0.00000000E+00  0.00000000E+00 -1.08853940E+00  0.00000000E+00
  0.00000000E+00  0.00000000E+00  0.00000000E+00  3.31474512E-01 -1.12728633E-01
  0.00000000E+00  0.00000000E+00  0.00000000E+00  0.00000000E+00  3.43212621E-01
  0.00000000E+00  0.00000000E+00  0.00000000E+00 -1.08853853E+00  0.00000000E+00
  0.00000000E+00  0.00000000E+00  0.00000000E+00 -3.31473893E-01 -1.12728653E-01
Total SCF Density                          R   N=        1035
  2.06256134E+00 -1.42935612E-01  4.96471150E-01  3.11231504E-08 -6.42040204E-08
  4.81041337E-01 -4.04559606E-02  7.08626074E-02 -1.03377275E-07  6.11799965E-01
  1.44382886E-20 -2.52917918E-20  1.84301965E-16  1.65226679E-18  4.30688150E-01
 -1.76894482E-01  4.28243595E-01 -3.85387557E-07  3.56877836E-01 -1.27385284E-19
  6.34398653E-01  3.46108263E-08 -7.36349732E-08  6.07110541E-02 -7.10453035E-08
  5.88061373E-17 -1.08300662E-07  3.55303502E-02 -3.14761765E-02  6.29260381E-02
 -7.27400472E-08  2.76583389E-01  8.04456061E-19  1.81500985E-01 -4.64003023E-08
  1.30837480E-01  1.12353310E-20 -2.24620505E-20  5.88061373E-17  8.04456359E-19
  2.07945672E-01 -6.47701992E-20  2.94876046E-17  3.89387750E-19  1.00404503E-01
 -1.53505035E-02  1.40597837E-03  3.24515979E-08 -1.01624412E-02  3.64241033E-21
 -2.89318028E-02 -2.76013145E-09 -3.35717908E-03  1.19921162E-21  5.96623151E-03
 -1.00724057E-02 -1.34496114E-02 -2.31109536E-08 -2.13865325E-02 -1.53873410E-19
 -7.78514798E-03  8.79897381E-09 -1.01945588E-02 -7.44105481E-20 -2.65514062E-03
  3.00232246E-03 -1.15356091E-02 -1.09184787E-02 -1.56789810E-08  9.07253401E-03
  1.00348862E-20 -1.45523634E-03 -1.94641933E-09  2.75233617E-03  5.43034825E-21
 -5.59132817E-04  1.26418757E-04  6.89783876E-04 -3.32321002E-09  6.56453931E-09
 -2.83498853E-02  1.17891400E-08 -9.95595212E-18  7.53022435E-09  6.68282268E-03
  3.61939104E-09 -1.22553904E-18  1.78652166E-09  3.86724951E-10  4.94103204E-10
  5.64061126E-03 -6.20101228E-18 -2.63221224E-18  1.01228022E-20  3.60136573E-19
  2.79724907E-08 -6.26604451E-18 -2.38404137E-21  5.35547027E-20  5.01715760E-09
  3.13455225E-18 -5.05576488E-19  1.64577300E-18  2.04379231E-20  5.16895792E-03
 -5.37029473E-20 -4.92150510E-20 -9.95595231E-18 -3.89302217E-20 -2.14685998E-02
 -4.08971196E-21 -1.22553908E-18 -2.70583185E-20 -1.03753147E-02 -1.70976318E-21
  7.63895831E-21  2.73050009E-21  1.24586948E-18  5.78021861E-10  1.09559376E-03
  4.65865014E-03 -2.00744821E-04 -3.46049483E-02  2.46268266E-02 -6.09658382E-18
  5.16226376E-02  1.09571378E-02 -1.06959679E-04  1.92764811E-18 -1.18352696E-02
  1.86468295E-03  3.78828807E-03  8.88333690E-03 -1.39499321E-18  1.58101147E-18
  2.08074347E+00 -8.64948115E-03  2.67624108E-03  8.53456600E-02 -7.04791864E-02
  1.50393880E-17 -1.42021398E-01 -3.25512120E-02 -3.35955509E-03 -5.72530062E-18
  2.37165687E-02 -3.63495453E-03 -7.55815432E-03 -1.78991276E-02  2.80430703E-18
 -3.18527109E-18 -1.91569927E-01  5.44879356E-01  7.82329838E-02 -1.96142669E-01
 -3.09182139E-01  2.24116461E-01  1.30806181E-17 -1.01415767E-01 -6.28492284E-04
  9.50028855E-02  3.24745886E-17  6.80616142E-03 -8.05143390E-03  6.52937579E-03
  3.54785955E-02  1.44224986E-17  2.90214824E-18 -4.71146074E-02  8.86252960E-02
  5.87127997E-01 -3.03493938E-02  8.23341201E-02  1.69033195E-01  3.92430587E-02
  3.09905018E-17 -6.63575866E-02  1.12632352E-01  9.92257554E-03  2.04231935E-17
  3.36102834E-02 -2.53752785E-02 -9.42225578E-04  2.67654448E-02  6.77838657E-18
  4.65103499E-18  1.96784786E-02 -2.97538470E-02  1.08539174E-01  7.33627920E-01
  1.37737899E-17 -3.45353333E-17  1.31002693E-17  4.06809021E-17  2.91887854E-01
 -1.78176687E-17  3.24682992E-17  1.73217690E-17  1.40943247E-01  2.07708358E-17
 -1.51709260E-18  1.60457612E-17  3.06874093E-18  4.88591962E-02 -1.45847517E-02
 -8.29555228E-18  1.56018217E-17  2.55930990E-16  2.16980357E-17  6.59715466E-01
  4.74193353E-02 -1.42869222E-01 -3.08234963E-02 -3.27279464E-02 -5.41087882E-18
 -2.68127264E-01 -6.85533322E-02  9.86488562E-03 -1.20636109E-17  2.84033634E-02
 -3.91534773E-03 -4.78473716E-03 -1.86267036E-02  4.49779251E-18 -3.29924395E-18
 -2.59412287E-01  6.29677330E-01  2.54432148E-01 -1.40920848E-01  4.48106805E-17
  8.23841906E-01  2.70673223E-02 -6.66343850E-02 -1.45635096E-01  1.18835630E-01
  1.07206458E-17 -1.90691954E-02  1.34031928E-02  5.20819599E-02  1.99092007E-17
  2.77978551E-03 -4.64457373E-03  2.75368934E-03  2.23090896E-02  8.99154427E-18
  2.11878312E-18 -2.33670653E-02  4.10030734E-02  3.07881551E-01  1.11759843E-01
  1.51565087E-16  1.04261907E-01  1.71365570E-01 -5.44732556E-03  1.99131346E-02
  8.23747300E-02 -1.18884097E-02  1.51786163E-17 -9.27533963E-02  6.69547406E-02
 -1.24110054E-02  1.21130118E-17  2.34065024E-02 -1.52934195E-02 -4.72025530E-04
  1.78898411E-02  4.76670828E-18  3.11697807E-18  9.51546775E-03 -1.01815605E-02
  8.83885786E-02  4.59145388E-01  1.72143792E-17 -6.56461262E-02  7.77778471E-02
  2.93491012E-01  4.76370148E-18 -1.17296092E-17  1.07336533E-17  2.15929186E-17
  1.57209324E-01 -3.32161543E-18  1.99038947E-17  9.49655113E-18  7.59173712E-02
  1.38156245E-17 -8.70840429E-19  1.06259294E-17  2.24115820E-18  3.32662370E-02
 -7.87100179E-03 -4.11419336E-18  7.21700627E-18  1.51573425E-16  2.13259166E-17
  4.21034164E-01  1.83654623E-17  9.29599207E-17  1.47574747E-17  2.71527031E-01
 -1.05770715E-02  2.44800528E-02  1.68753127E-02 -2.67403053E-02 -7.49198281E-18
  1.09280794E-02  2.44982395E-04 -1.09048205E-02 -5.00887466E-18 -3.64598451E-04
  8.10418767E-04 -9.05518417E-04 -1.90590552E-03 -1.13102504E-18  1.83268723E-19
 -1.12784593E-02 -6.43797127E-03 -4.60558793E-02 -6.29326195E-03 -2.29077933E-17
 -2.16557877E-02 -2.30081242E-02 -5.22785527E-03 -1.31191362E-17  4.26697010E-03
 -1.06163691E-03  3.49766076E-03  3.84367000E-03  1.36315245E-02  7.47895687E-19
  7.67474059E-03  4.15774973E-03  5.62962589E-03  7.66405199E-19  2.40987579E-04
 -9.50369985E-04  2.47582921E-04  1.16230868E-03  1.21188453E-19  2.02289713E-19
 -1.13205918E-02 -9.15184839E-03  7.57237481E-03  2.21596640E-02  1.43746416E-18
 -1.28423033E-02  5.95888872E-03  1.30225120E-02  1.11335058E-18 -5.86519645E-04
  1.18822057E-03  1.95041644E-03 -3.11051932E-03 -5.80586913E-03  1.05320304E-03
 -8.98695059E-18 -1.77703206E-03  1.04217737E-04 -2.67098812E-05 -3.82786955E-18
 -5.70050299E-05 -1.41633808E-05  1.26975680E-04  6.07943807E-04 -5.98409695E-19
  5.05793490E-19 -1.29465638E-02 -6.17994842E-03  5.18466806E-03  8.13489071E-04
 -1.03534979E-17 -4.63366494E-03  2.55235668E-03  8.97010582E-04 -6.45406511E-18
 -2.69000996E-04  2.18402887E-04  2.76680798E-04  7.84501847E-03 -1.73465823E-02
 -1.82857562E-02 -1.06822634E-02 -9.70823902E-19 -1.48014531E-02 -5.03710331E-03
 -5.43892575E-03  1.98435888E-19 -9.01925793E-04  1.38941352E-03  1.88741045E-04
 -4.88605520E-06  5.79329962E-20 -1.12336841E-19 -6.08539911E-04 -3.24134183E-04
  8.19056998E-03 -2.92596152E-02  4.77404736E-18  9.96072183E-03  1.13854277E-03
 -1.63592008E-02  2.25192508E-18 -6.43269386E-04 -1.04187568E-03  2.16844311E-04
  2.00564349E-03 -1.63018187E-18  4.14777465E-18 -4.16201525E-18 -5.26015202E-18
 -2.61198348E-02  1.75030138E-18 -2.83959076E-18 -2.27516104E-18 -1.26126884E-02
 -9.04629157E-19  1.70169237E-19 -7.70899645E-19  6.86732031E-20 -2.03478223E-03
  1.30579777E-03 -5.75066692E-18 -2.95919172E-18 -1.65223566E-17 -1.21100666E-18
 -3.69404147E-02 -5.64095537E-18 -9.23064939E-18 -9.14733403E-19 -2.26349720E-02
  1.75143516E-18 -6.76044905E-20  7.46739477E-19 -2.84495381E-19  2.38566990E-03
  1.39033609E-18 -3.06869893E-18 -8.91892343E-19 -1.83537930E-18  1.01786659E-02
 -2.61598599E-18  2.50084334E-19 -9.37938803E-19  4.91464516E-03  1.86568631E-19
  2.40929953E-19  2.96775218E-19 -1.12067520E-19  8.62214038E-04 -5.07802606E-04
 -1.67320207E-19 -8.42452691E-20  4.94692892E-18 -5.08711556E-18  1.50502543E-02
  1.73436996E-18  2.35474160E-18 -2.83858496E-18  9.26441813E-03 -4.97779475E-19
 -1.79790943E-19 -2.52311636E-19  4.39200199E-19 -9.56720067E-04  3.84560590E-04
  4.65863166E-03 -2.00711792E-04  3.46048619E-02  2.46268344E-02  6.07899720E-18
  5.16226569E-02 -1.09571534E-02 -1.06969762E-04 -1.92757453E-18 -1.18352542E-02
  1.86466993E-03  3.78828380E-03 -8.88334272E-03 -1.38865292E-18 -1.54455191E-18
  3.99481542E-04 -1.67477070E-03 -1.29887803E-02 -1.48049489E-02 -2.27974040E-18
 -8.75865609E-03 -3.59694727E-03 -9.64505207E-03 -6.29343994E-19 -1.06494426E-05
  7.98398079E-04 -5.65563808E-04 -1.53442313E-03 -1.52755396E-19 -2.73105180E-19
  2.08074347E+00 -8.64944655E-03  2.67618224E-03 -8.53454691E-02 -7.04792149E-02
 -1.49890670E-17 -1.42021410E-01  3.25512380E-02 -3.35953239E-03  5.72770226E-18
  2.37165485E-02 -3.63492796E-03 -7.55814618E-03  1.78991441E-02  2.79153394E-18
  3.11245980E-18 -1.67476835E-03  7.22762921E-03  2.81653015E-02  3.52794373E-02
  4.94233159E-18  2.23361684E-02  6.73701889E-03  2.37521243E-02  1.17672132E-18
  5.09556067E-04 -1.36666355E-03  1.47041929E-03  2.90391216E-03  4.95424518E-19
  5.18801461E-19 -1.91569943E-01  5.44879406E-01 -7.82329177E-02  1.96142513E-01
 -3.09181820E-01 -2.24116680E-01  1.32405499E-17  1.01415955E-01 -6.28340812E-04
 -9.50030130E-02  3.25424217E-17 -6.80620852E-03  8.05150354E-03 -6.52936357E-03
  3.54785987E-02 -1.44478140E-17  2.83001809E-18  1.29887979E-02 -2.81653314E-02
  1.49833342E-01  6.91687483E-02 -3.47596267E-17 -6.89015005E-02  1.16312342E-01
  6.01893302E-02 -2.76630452E-17  4.15726976E-03 -5.83264933E-05  2.40812797E-03
  3.35686938E-03  1.83998585E-18  3.12795348E-19  4.71145812E-02 -8.86252419E-02
  5.87128014E-01 -3.03494547E-02  8.23342778E-02 -1.69033313E-01  3.92426923E-02
 -2.84830929E-17 -6.63574756E-02 -1.12632415E-01  9.92251315E-03 -1.92060062E-17
  3.36102868E-02 -2.53752893E-02 -9.42218842E-04 -2.67653514E-02  6.37308000E-18
 -4.76625067E-18 -1.48049232E-02  3.52793619E-02 -6.91684579E-02 -9.87707539E-02
 -1.32795786E-17  1.28030284E-01 -8.63836776E-02 -4.36923376E-02 -1.60839937E-17
  3.58689619E-03 -6.48985277E-03  8.17768153E-04  4.61639463E-03  9.52153377E-19
  8.13463986E-19  1.96785071E-02 -2.97538977E-02 -1.08539403E-01  7.33627668E-01
 -1.37521238E-17  3.44765597E-17  1.32208987E-17 -3.81735109E-17  2.91887711E-01
  1.78650483E-17  3.25487111E-17 -1.61045932E-17  1.40943338E-01 -2.07948163E-17
  1.31578042E-18 -1.60270557E-17  2.66342543E-18 -4.88591739E-02 -1.45847820E-02
  2.29030692E-18 -4.96750897E-18 -3.47102744E-17  1.10570849E-17 -2.63980524E-01
 -1.21670176E-17 -2.76107548E-17  9.70153477E-18 -2.07850095E-01  1.34174024E-18
 -1.73671893E-20  8.89076607E-19  3.05674715E-19  1.52589102E-03 -1.25243222E-03
  8.28150692E-18 -1.55805826E-17  2.56008461E-16 -1.64910268E-17  6.59715569E-01
  4.74193633E-02 -1.42869250E-01  3.08236872E-02 -3.27279155E-02  5.43426401E-18
 -2.68127309E-01  6.85533561E-02  9.86492122E-03  1.20565765E-17  2.84033403E-02
 -3.91532155E-03 -4.78473613E-03  1.86267180E-02  4.48449780E-18  3.25448091E-18
 -8.75865830E-03  2.23361820E-02  6.89013206E-02  1.28030274E-01  1.20756354E-17
  5.17943218E-02  2.63319720E-02  8.20182937E-02  4.60313295E-18 -7.51204293E-03
  1.95928071E-03  1.53226474E-03  7.59294928E-04 -1.11677545E-18  1.40454529E-19
 -2.59412327E-01  6.29677400E-01 -2.54431930E-01 -1.40920966E-01 -4.47100941E-17
  8.23841929E-01 -2.70673005E-02  6.66343397E-02 -1.45634948E-01 -1.18835774E-01
  1.08054558E-17  1.90693164E-02  1.34032852E-02 -5.20820485E-02  1.99464002E-17
 -2.77981450E-03  4.64461670E-03 -2.75368631E-03  2.23090966E-02 -9.00746498E-18
  2.08733237E-18  3.59695844E-03 -6.73703484E-03  1.16312294E-01  8.63838476E-02
 -2.76723924E-17 -2.63320899E-02  8.48500535E-02  6.46659609E-02 -2.13534749E-17
 -1.11338783E-03  1.57445277E-03  1.47352204E-03  8.62821573E-04  9.90323178E-19
 -2.65561027E-19  2.33670374E-02 -4.10030214E-02  3.07881704E-01 -1.11760014E-01
  1.51644888E-16 -1.04261803E-01  1.71365724E-01 -5.44735652E-03  1.99132137E-02
 -8.23747623E-02 -1.18885574E-02 -1.38045696E-17 -9.27533392E-02 -6.69547655E-02
 -1.24110093E-02 -1.14447181E-17  2.34065074E-02 -1.52934317E-02 -4.72021117E-04
 -1.78897825E-02  4.49051396E-18 -3.17747225E-18 -9.64504193E-03  2.37520886E-02
 -6.01891172E-02 -4.36923427E-02 -1.14757742E-17  8.20183323E-02 -6.46658415E-02
 -1.29308506E-02 -1.20519988E-17  3.09241008E-03 -4.39685633E-03  4.68000445E-04
  3.06674992E-03  7.67604333E-19  5.35710779E-19  9.51547694E-03 -1.01815764E-02
 -8.83887566E-02  4.59145235E-01 -1.38847773E-17 -6.56461717E-02 -7.77779738E-02
  2.93490916E-01 -4.75981092E-18  1.17153930E-17  1.07924482E-17 -2.02188915E-17
  1.57209298E-01  3.38781692E-18  1.99517061E-17 -8.82826861E-18  7.59174678E-02
 -1.38323268E-17  7.63339439E-19 -1.06158621E-17  1.96495730E-18 -3.32662281E-02
 -7.87102599E-03  6.36227771E-19 -1.19367143E-18 -2.76201019E-17  1.43097468E-17
 -2.07850068E-01 -4.66167435E-18 -2.13073353E-17  1.07004092E-17 -1.56664424E-01
  1.22854430E-18  2.64765904E-19  1.34378812E-18 -2.57951200E-19  3.55619048E-03
 -1.83245477E-03  4.10739910E-18 -7.20973250E-18  1.51636550E-16 -1.79963135E-17
  4.21034304E-01 -1.83186050E-17  9.30154728E-17 -1.26083345E-17  2.71527160E-01
 -1.05770587E-02  2.44800297E-02 -1.68752769E-02 -2.67403298E-02  7.51105836E-18
  1.09280688E-02 -2.44973192E-04 -1.09048339E-02  5.01665473E-18 -3.64600207E-04
  8.10422939E-04 -9.05517794E-04  1.90590340E-03 -1.13238363E-18 -1.93019341E-19
 -1.06515693E-05  5.09561653E-04 -4.15728104E-03  3.58689696E-03 -1.34430136E-18
 -7.51204498E-03  1.11338527E-03  3.09241596E-03 -1.23075173E-18  1.75024835E-03
 -2.99865533E-04 -6.75502110E-06 -2.33749591E-05  3.96237039E-20  1.07420109E-19
 -1.12784643E-02 -6.43796346E-03  4.60558617E-02 -6.29325943E-03  2.29122716E-17
 -2.16557623E-02  2.30081260E-02 -5.22785603E-03  1.31228633E-17  4.26696777E-03
 -1.06165048E-03  3.49768975E-03 -3.84370473E-03  1.36315229E-02 -6.04488434E-19
  7.67476166E-03 -4.15776041E-03  5.62962926E-03 -6.96482262E-19  2.40989111E-04
 -9.50372377E-04  2.47582701E-04 -1.16230601E-03  1.09045887E-19 -2.06662937E-19
  7.98400811E-04 -1.36666899E-03  5.83364583E-05 -6.48985451E-03  3.15648066E-21
  1.95927867E-03 -1.57444809E-03 -4.39685866E-03 -2.89197453E-19 -2.99864785E-04
 -2.20121898E-05  1.17961983E-05  2.21412228E-05 -5.98608564E-20  4.68981482E-21
 -1.13205898E-02 -9.15184846E-03 -7.57237311E-03  2.21596852E-02 -1.22684159E-18
 -1.28423176E-02 -5.95889419E-03  1.30225243E-02 -9.83258612E-19 -5.86518972E-04
  1.18822232E-03  1.95041274E-03 -3.11051294E-03  5.80586031E-03  1.05320459E-03
  8.97361073E-18 -1.77703239E-03 -1.04218681E-04 -2.67098812E-05  3.82181307E-18
 -5.70041837E-05 -1.41646464E-05  1.26975315E-04 -6.07943320E-04 -5.96909176E-19
 -5.03880689E-19 -5.65563251E-04  1.47041751E-03 -2.40812565E-03  8.17768269E-04
 -8.88111778E-19  1.53226361E-03 -1.47352053E-03  4.68000790E-04 -1.34185757E-18
 -6.75483841E-06  1.17961126E-05 -5.84521578E-05 -1.09194813E-04 -2.55559171E-19
  6.51447710E-20 -1.29465603E-02 -6.17995246E-03 -5.18465724E-03  8.13492778E-04
  1.03343129E-17 -4.63367424E-03 -2.55235277E-03  8.97012571E-04  6.44197402E-18
 -2.68999965E-04  2.18402671E-04  2.76680622E-04 -7.84502415E-03  1.73465980E-02
 -1.82857660E-02  1.06822038E-02 -7.51559952E-19  1.48014600E-02 -5.03710634E-03
  5.43890508E-03  3.04114286E-19  9.01924308E-04 -1.38941025E-03 -1.88741252E-04
 -4.88072527E-06 -7.56046330E-20 -1.24427127E-19  1.53442280E-03 -2.90391040E-03
  3.35686287E-03 -4.61638527E-03  2.95713046E-19 -7.59302502E-04  8.62822042E-04
 -3.06674358E-03 -2.86653758E-19  2.33776145E-05 -2.21418263E-05  1.09194687E-04
  1.07293596E-05 -3.38191119E-20  2.60009546E-20  6.08536549E-04  3.24141388E-04
  8.19058252E-03  2.92595812E-02  5.07405323E-18 -9.96071861E-03  1.13855048E-03
  1.63591809E-02  2.43687182E-18  6.43271199E-04  1.04187595E-03 -2.16844125E-04
  2.00564110E-03 -1.62458277E-18  4.13539476E-18  4.17506132E-18 -5.04089338E-18
  2.61198094E-02  1.73973819E-18  2.84318511E-18 -2.16948668E-18  1.26126829E-02
 -9.05271342E-19  1.51515186E-19 -7.69150080E-19 -8.63448342E-20 -2.03477855E-03
 -1.30579806E-03 -1.53850501E-19  4.97497136E-19 -1.84238258E-18  9.42193022E-19
 -1.52589066E-03 -1.11623440E-18 -9.90939227E-19  7.38903562E-19 -3.55619178E-03
  3.96070736E-20 -5.56624958E-20 -2.55980696E-19  2.70049666E-20 -7.83628373E-04
  2.78012155E-04 -5.75110120E-18 -2.95942249E-18  1.65165067E-17 -9.11006048E-19
  3.69403923E-02 -5.63384567E-18  9.22983654E-18 -7.29790924E-19  2.26349638E-02
  1.75097466E-18 -5.39538039E-20  7.45711009E-19  3.03787557E-19  2.38566660E-03
 -1.36989957E-18  3.03462123E-18 -8.30491453E-19  1.92311686E-18  1.01786766E-02
  2.59184027E-18  2.52465857E-19  9.75719285E-19  4.91465317E-03 -1.87339231E-19
 -2.47928417E-19 -2.95078122E-19 -1.24696444E-19 -8.62214111E-04 -5.07803801E-04
  2.66774675E-19 -5.02926738E-19  2.88592423E-19 -8.10792162E-19 -1.25243214E-03
 -1.26701332E-19 -2.79043917E-19 -5.43310353E-19 -1.83245729E-03 -1.07240601E-19
 -3.10058195E-21 -6.58603339E-20  2.24725742E-20 -2.78012808E-04  9.65685064E-05
  4.67912629E-20  2.98011402E-20  4.90117181E-18  5.20774326E-18  1.50502740E-02
 -1.77026492E-18  2.33405534E-18  2.91732321E-18  9.26443232E-03  4.95565141E-19
  1.86788407E-19  2.54431779E-19  4.44477023E-19  9.56720619E-04  3.84561563E-04
Spin SCF Density                           R   N=        1035
  5.48283898E-03 -1.23099745E-02  2.98011840E-02  1.22352862E-08 -2.54262477E-08
 -7.68573476E-03 -3.50993409E-02  7.35994754E-02 -9.59732914E-08  2.10140345E-01
  1.25239720E-20 -2.62613577E-20  9.90096260E-19 -3.10309500E-20  1.01203487E-02
 -4.05360384E-02  8.24628357E-02 -9.51021536E-08  2.41223897E-01 -8.60742466E-20
  3.02875351E-01 -2.73727714E-09  6.39636324E-09 -9.38788868E-03 -1.48804346E-08
 -8.15816222E-19 -1.47074866E-09 -1.16784006E-02 -1.53997176E-02  3.08710429E-02
 -4.24495851E-08  9.56845758E-02 -1.84597877E-20  1.15201143E-01 -3.27163336E-09
  4.41852322E-02  5.49342459E-21 -1.10122333E-20 -8.15816212E-19 -1.84549377E-20
  3.61108306E-03 -4.10986918E-20 -1.79350709E-18 -1.08660146E-20  1.12770598E-03
  5.64796539E-03 -1.27524546E-02  1.27638320E-08 -2.84123861E-02  1.01383244E-20
 -3.65001275E-02  3.70490190E-09 -1.49043881E-02  5.31781849E-21  2.70429273E-03
 -3.29176148E-03  6.82723649E-03 -6.66064424E-09  1.13735358E-02  1.70418891E-20
  1.45438076E-02 -3.92371439E-09  6.54529352E-03  8.33201222E-21 -1.97028897E-04
 -7.62227292E-04 -4.00437681E-05 -9.27108451E-04  4.27842575E-10  2.83924126E-04
 -1.83456229E-21  5.98851559E-04  7.89326570E-10  1.39320591E-04 -9.25852333E-22
 -2.26807458E-04  1.84129920E-04  2.68449866E-05  4.11847885E-09 -8.84058809E-09
  2.20751924E-04 -1.98780403E-08  6.88001264E-19 -2.50947293E-08 -1.67769144E-03
 -1.15466954E-08  3.30523864E-20  1.32739576E-09  3.52519683E-10 -2.34119412E-10
 -2.36710012E-04  1.13661584E-18 -2.83826707E-18 -7.61304446E-23 -5.69576338E-18
 -3.60951908E-10 -7.25453166E-18  5.99469538E-22 -2.99041762E-18 -7.18323185E-11
  4.80890146E-19  9.18222669E-21 -4.48614087E-20 -2.78268969E-25 -1.95667882E-05
  1.15592348E-21 -7.46348502E-21  6.88001264E-19  8.91758359E-21  2.80497339E-03
 -2.99237542E-21  3.30523882E-20  4.15940991E-21  1.41810027E-03 -1.05596671E-21
 -1.05979974E-21  2.47503071E-22 -1.12319014E-19  2.12336780E-10 -3.05384518E-04
 -1.30931732E-03  2.62729214E-03 -5.03673851E-04  7.38087515E-03 -9.12408499E-20
  9.82402007E-03 -7.16042674E-04  2.99644540E-03 -1.27037199E-19 -9.06746040E-04
  5.16014130E-04 -5.44750764E-05 -3.39653990E-05 -1.98740307E-19 -6.46105069E-21
  3.76505103E-04  3.79902218E-03 -7.16713771E-03  1.73734128E-03 -2.38151572E-02
  3.14134023E-19 -3.31421332E-02  7.84383788E-04 -1.01509251E-02  1.41612343E-19
  3.45102232E-03 -1.75318044E-03  5.21612046E-05 -2.40747603E-05  7.14982133E-19
 -3.25149584E-21 -2.81359995E-03  1.12777017E-02 -2.90238599E-03  5.29478362E-03
 -5.59087573E-03  2.29515516E-02 -4.57271477E-19  2.42975783E-02 -9.34559867E-03
  9.61647520E-03 -1.58956895E-18 -3.41071929E-03  1.54554107E-03  2.46029524E-04
 -1.40683487E-03 -6.16113259E-19  2.45731890E-19  4.18126010E-04 -9.70854698E-04
  1.29287769E-03  2.98695872E-02 -5.49555342E-02 -6.14689246E-03 -1.65585169E-01
 -1.01227499E-18 -2.30042905E-01 -2.01093306E-02 -9.19012336E-02 -3.50381511E-18
  2.01976484E-02 -2.76738477E-03 -2.68934356E-03  1.69577871E-04  3.38435661E-18
  2.67302527E-20 -8.57798418E-03  3.05522380E-02 -2.40081952E-02  1.91350311E-01
 -5.21251848E-19  9.51078553E-19 -4.46890500E-19  4.10680369E-18  2.30942332E-03
  4.35656577E-18 -1.57896416E-18  1.72563079E-18  2.50461595E-04 -5.89070349E-19
  2.88895634E-19  5.67293060E-20  2.45270960E-19  4.52991346E-05  2.12859466E-03
  7.66181105E-20 -1.81695065E-19  4.87227589E-19 -4.28713857E-18  1.08547601E-03
  6.98057118E-03 -1.45986704E-02  6.99330467E-03 -3.76993326E-02  1.24373086E-18
 -4.79868125E-02  9.36238206E-03 -1.65419344E-02  1.65295752E-18  5.02430275E-03
 -2.54200644E-03  3.69209350E-04  9.94827850E-04  1.11893880E-18  1.77911630E-19
  4.66557520E-04  5.49408905E-03  1.91811427E-03  4.82221343E-02  3.20236538E-19
 -6.63429913E-03 -3.11344202E-03  6.44573999E-03 -4.40995007E-03  1.72230568E-02
 -9.67617212E-19  2.13241839E-02 -9.18756293E-03  7.36547142E-03 -1.81637270E-18
 -2.90491821E-03  1.35339175E-03  6.00564690E-05 -1.34799584E-03 -6.25561081E-19
  5.16176614E-20  6.10399967E-04 -1.82140490E-03 -4.21374120E-03 -2.22976074E-02
 -1.39224467E-18  9.86986927E-04 -5.81937545E-03  2.45315411E-02 -4.64812339E-02
 -8.13305379E-03 -1.32460294E-01 -1.38701779E-18 -1.77620372E-01 -1.43047114E-02
 -7.15154461E-02 -2.49471624E-18  1.58039002E-02 -2.57072974E-03 -1.75023601E-03
 -2.74294852E-04  2.74176898E-18 -5.05494462E-20 -5.91796237E-03  2.14296140E-02
 -1.89782036E-02  1.31006105E-01 -3.39780017E-18  3.61255689E-02 -1.79464741E-02
  9.30781000E-02 -5.56477040E-19  1.15053474E-18 -9.58571326E-19  3.07369924E-18
 -8.02225650E-04  3.81477608E-18 -1.80864178E-18  1.31756220E-18 -8.53131588E-04
 -6.06731592E-19  2.48403801E-19 -5.80345064E-20  5.09961604E-20 -2.24650281E-04
  1.24881070E-03  1.09494504E-19 -3.28071677E-19 -1.39342888E-18 -3.98175884E-18
 -2.84706081E-03  1.60745537E-19 -1.94687198E-18 -3.20784280E-18 -4.01632511E-03
  3.01539058E-04 -2.79243222E-04  1.13952450E-04 -2.30276337E-03 -2.71513429E-20
 -2.58814825E-03  5.87454017E-04 -1.08216684E-03  1.11563273E-19  4.09006815E-04
 -2.40521223E-04 -9.97489861E-06  1.06205488E-04  8.76179043E-20 -5.93635807E-20
  4.56618729E-04 -1.71696075E-03 -7.91751341E-04  3.61004512E-03 -3.04016330E-20
 -2.11423955E-03 -1.08340762E-04  2.66288430E-03  1.33970387E-19  1.08842530E-04
  1.57461105E-04 -3.41890690E-04 -1.08605586E-03  4.23965595E-04 -1.89829701E-19
 -1.37773203E-03 -1.37220226E-03  1.38619061E-05 -2.40965322E-19 -1.44038805E-06
  1.83141982E-04 -9.72012975E-05 -1.40626778E-04 -2.60173737E-20 -2.47828844E-20
 -2.03127135E-03  4.31776202E-03  1.50556768E-03 -1.19586458E-03  2.67606217E-19
  6.06822024E-03  3.79837706E-04 -1.02245620E-03  6.80609530E-20 -6.69328141E-05
 -1.96062084E-04 -2.16373034E-05  2.13892962E-04 -3.22781640E-04 -2.60919529E-04
 -9.33070072E-20 -1.02654035E-04  1.06261723E-05 -2.69360156E-04  7.88166412E-21
  6.13607428E-05 -6.32902465E-05  1.55416649E-05  1.79274636E-05  2.20959539E-20
 -5.61493556E-20  5.19229900E-04 -1.93536618E-03 -6.86463836E-04  8.70989792E-04
 -3.75181323E-20 -2.18028870E-03 -4.04394945E-04  6.23078248E-04  4.56103773E-20
  8.03998877E-05  8.45647655E-06  4.50362846E-05 -3.19576552E-04  2.58021602E-04
  6.74146135E-04  1.24666837E-03  1.60196282E-19  2.25984674E-03  1.17112582E-03
  1.08686489E-03  2.19299506E-19  1.11907904E-04 -3.17977037E-04  1.22604626E-04
  8.14015788E-05  6.17250358E-20  3.02020360E-20  4.19714374E-04 -1.30466027E-03
  8.80988383E-04 -2.55476838E-04  2.27521930E-19 -1.96286286E-03  7.85011375E-04
  2.45840513E-04  1.66573590E-19 -1.13696623E-04  1.52973143E-04 -1.16308294E-05
 -1.15336843E-04  5.55857990E-20  3.43094353E-22 -9.10757549E-20 -5.38471348E-19
 -1.19793083E-04 -5.53990694E-19  1.26277240E-19 -2.92115189E-19  1.95349100E-05
  1.06679383E-19 -6.71246583E-20  7.70450407E-21 -1.86744659E-20  1.80528563E-05
 -1.94824917E-04  2.31364301E-19 -8.65515908E-19 -2.80988998E-19  9.67383162E-19
  2.74845681E-04 -1.01143588E-18 -4.14570438E-20  7.09023387E-19  3.84128606E-04
  3.00526495E-20 -1.14534355E-20  1.80512722E-20 -2.82220504E-20 -3.38870209E-05
 -5.63941671E-20  4.66053961E-20  1.59989944E-19  2.18632932E-19  1.83912826E-04
  3.97611215E-19  2.20220967E-19  1.90102457E-19  5.86548274E-05  3.06968294E-20
 -5.58127665E-20  2.97788173E-20  3.05661186E-20  2.66963203E-05  6.90561893E-05
  7.72780443E-20 -2.41004068E-19  2.22174232E-19 -3.87463861E-20  3.07868357E-04
 -3.58746273E-19  1.62808432E-19  4.72995594E-20  1.16195559E-04 -2.28822336E-20
  2.71286024E-20 -4.34844824E-21 -1.75566394E-20 -8.26031585E-06  1.24915057E-05
 -1.30931594E-03  2.62728960E-03  5.03669013E-04  7.38087140E-03  8.59736913E-20
  9.82401263E-03  7.16044777E-04  2.99644310E-03  1.24899583E-19 -9.06745379E-04
  5.16014043E-04 -5.44752611E-05  3.39640567E-05 -1.98764456E-19  5.48928595E-21
  3.77360465E-04 -1.07843412E-03  1.37882722E-03 -6.07338793E-03  2.44733798E-19
 -2.58295218E-03  1.55481599E-03 -4.55346304E-03  2.75151990E-19 -1.34646279E-04
  1.28434293E-05  4.83582566E-05  7.12786237E-05 -1.44541105E-20  1.27767606E-20
  3.76504437E-04  3.79902122E-03 -7.16713662E-03 -1.73732479E-03 -2.38151585E-02
 -2.97138832E-19 -3.31421286E-02 -7.84388989E-04 -1.01509243E-02 -1.34370499E-19
  3.45102141E-03 -1.75317981E-03  5.21615031E-05  2.40799184E-05  7.14964849E-19
  5.22000953E-21 -1.07843469E-03  3.59744261E-03 -3.71886007E-03  2.36704648E-02
 -6.62676664E-19  6.84045367E-03 -3.96979132E-03  1.75729879E-02 -7.04645886E-19
  4.58813445E-04  1.11607234E-04 -1.77255641E-05 -3.51555341E-04  8.85909901E-20
 -6.19814573E-20 -2.81359978E-03  1.12777056E-02  2.90237674E-03 -5.29476502E-03
 -5.59087173E-03 -2.29515257E-02 -4.40895825E-19 -2.42975205E-02 -9.34562295E-03
 -9.61646327E-03 -1.58271289E-18  3.41071643E-03 -1.54554231E-03 -2.46028110E-04
 -1.40683096E-03  6.17116365E-19  2.44538089E-19 -1.37882666E-03  3.71885458E-03
 -2.64475255E-03  2.00118178E-02 -1.42682151E-18  1.11048683E-02 -4.57209035E-03
  1.56037937E-02 -1.17181246E-18  3.57039014E-05 -1.74380545E-04  9.63264664E-05
  1.02567434E-04  5.95354848E-20 -4.47324295E-20 -4.18121205E-04  9.70841535E-04
  1.29285336E-03  2.98695985E-02 -5.49555568E-02  6.14703769E-03 -1.65585195E-01
  1.15050715E-18 -2.30042987E-01  2.01093597E-02 -9.19012310E-02  3.57156800E-18
  2.01976577E-02 -2.76738698E-03 -2.68934510E-03 -1.69555557E-04  3.38408559E-18
 -3.29310465E-20 -6.07339553E-03  2.36704791E-02 -2.00118656E-02  1.51730855E-01
 -3.59258397E-18  1.86966535E-02 -1.16600689E-02  1.21342171E-01 -2.10135254E-18
  3.76738239E-03  9.09500112E-04  1.38868928E-03 -1.62273529E-03  1.13748558E-18
 -2.80074890E-19 -8.57798471E-03  3.05522478E-02  2.40081690E-02  1.91350436E-01
  4.99938045E-19 -9.11864093E-19 -4.51276845E-19 -3.96859251E-18  2.30941838E-03
 -4.19241826E-18 -1.59331768E-18 -1.65788091E-18  2.50456882E-04  5.74657846E-19
 -2.54896298E-19 -5.74414002E-20  2.44998995E-19 -4.53011925E-05  2.12859402E-03
 -2.40400290E-19  6.45786642E-19 -1.41254291E-18  3.44849299E-18 -4.12389881E-03
  1.94692901E-18 -1.16208597E-18  2.69498150E-18 -1.56377677E-03  5.09702837E-20
 -3.30605069E-20  5.16114691E-20 -4.42096724E-20  1.14837405E-04 -2.73647416E-04
 -7.04968099E-20  1.59893498E-19  4.70097040E-19  4.16003292E-18  1.08549219E-03
  6.98055344E-03 -1.45986341E-02 -6.99327623E-03 -3.76992807E-02 -1.21682712E-18
 -4.79867157E-02 -9.36238382E-03 -1.65419042E-02 -1.64115504E-18  5.02429581E-03
 -2.54200721E-03  3.69210912E-04 -9.94820663E-04  1.11964762E-18 -1.72112826E-19
 -2.58294887E-03  6.84044136E-03 -1.11048507E-02  1.86965866E-02 -1.96026609E-18
  1.70089436E-02 -1.15057772E-02  1.45802942E-02 -2.02932969E-18  8.23947527E-04
 -6.05794218E-04 -2.51494390E-04  4.98230186E-04  9.99888247E-20  8.66383278E-20
  4.66565107E-04  5.49407345E-03 -1.91814984E-03  4.82221011E-02 -3.54649632E-19
 -6.63434193E-03  3.11343078E-03 -6.44571658E-03 -4.40994678E-03 -1.72230258E-02
 -9.55328732E-19 -2.13241232E-02 -9.18757969E-03 -7.36545541E-03 -1.81112136E-18
  2.90491526E-03 -1.35339356E-03 -6.00552598E-05 -1.34799284E-03  6.26522334E-19
  5.21309418E-20 -1.55481476E-03  3.96978477E-03 -4.57208406E-03  1.16600213E-02
 -1.17040431E-18  1.15057879E-02 -6.04967993E-03  8.94338855E-03 -1.03368734E-18
  7.46249490E-05 -3.04578673E-04 -5.08834462E-05  3.38420933E-04  1.85754160E-20
  1.43950583E-20 -6.10395897E-04  1.82139363E-03 -4.21376721E-03  2.22975865E-02
 -1.40815710E-18 -9.87016049E-04 -5.81940137E-03  2.45315471E-02 -4.64812466E-02
  8.13317313E-03 -1.32460290E-01  1.47458178E-18 -1.77620410E-01  1.43047351E-02
 -7.15154374E-02  2.53833661E-18  1.58039039E-02 -2.57073016E-03 -1.75023710E-03
  2.74312350E-04  2.74352510E-18  4.59630447E-20 -4.55346849E-03  1.75729972E-02
 -1.56038319E-02  1.21342153E-01 -2.79515021E-18  1.45803412E-02 -8.94342494E-03
  9.56404071E-02 -1.60683818E-18  2.74690823E-03  5.86320419E-04  9.22430462E-04
 -1.25129039E-03  8.05277130E-19 -2.16590654E-19 -5.91796193E-03  2.14296191E-02
  1.89781854E-02  1.31006175E-01  3.27959266E-18  3.61255398E-02  1.79464583E-02
  9.30781355E-02  5.38971626E-19 -1.11736591E-18 -9.64374649E-19 -2.98615080E-18
 -8.02229389E-04 -3.68803193E-18 -1.81885228E-18 -1.27394318E-18 -8.53136026E-04
  5.95454397E-19 -2.27781348E-19  5.77398454E-20  5.27524245E-20  2.24649096E-04
  1.24881103E-03 -2.71902842E-19  6.92106273E-19 -1.16067783E-18  2.00118217E-18
 -1.56377643E-03  2.01892841E-18 -1.02730615E-18  1.53985947E-18  1.45958106E-04
  4.18267931E-20 -5.52545452E-20  1.33994577E-20  1.52927333E-20  7.40380274E-05
 -1.94488235E-04 -1.05271278E-19  3.12779505E-19 -1.40697289E-18  3.86355088E-18
 -2.84705369E-03 -1.86526510E-19 -1.95968108E-18  3.10654103E-18 -4.01632339E-03
  3.01539397E-04 -2.79243825E-04 -1.13951610E-04 -2.30276845E-03  2.87943541E-20
 -2.58815257E-03 -5.87455095E-04 -1.08216948E-03 -1.10791455E-19  4.09007733E-04
 -2.40521833E-04 -9.97483889E-06 -1.06204697E-04  8.76938353E-20  5.94617740E-20
 -1.34646406E-04  4.58813592E-04 -3.57050885E-05  3.76738653E-03 -5.36584196E-20
  8.23949468E-04 -7.46261492E-05  2.74691165E-03 -4.37868229E-20 -9.56114212E-06
  2.20599744E-05  9.01987473E-06 -8.61626992E-05  5.11889875E-21 -1.88515899E-20
  4.56619107E-04 -1.71696193E-03  7.91751092E-04  3.61005068E-03  2.78259220E-20
 -2.11424233E-03  1.08340043E-04  2.66288825E-03 -1.35870453E-19  1.08842637E-04
  1.57462374E-04 -3.41892875E-04  1.08605659E-03  4.23963424E-04  1.92294324E-19
 -1.37774010E-03  1.37220407E-03  1.38608208E-05  2.41838223E-19 -1.44012019E-06
  1.83142372E-04 -9.72015462E-05  1.40626617E-04 -2.65193743E-20  2.46959888E-20
  1.28430720E-05  1.11608488E-04  1.74378808E-04  9.09503902E-04  2.82942004E-20
 -6.05793852E-04  3.04577677E-04  5.86323112E-04  5.19099216E-20  2.20600953E-05
  5.68872674E-05  3.49664569E-05 -4.69678212E-05  1.39123221E-20 -8.15901289E-21
 -2.03127349E-03  4.31776713E-03 -1.50556490E-03 -1.19586134E-03 -2.62120543E-19
  6.06822681E-03 -3.79835455E-04 -1.02245408E-03 -6.55828473E-20 -6.69325117E-05
 -1.96062456E-04 -2.16368457E-05  2.13891914E-04  3.22781608E-04 -2.60921224E-04
  9.32657503E-20 -1.02656586E-04 -1.06263678E-05 -2.69361368E-04 -7.76209205E-21
  6.13609305E-05 -6.32902833E-05  1.55416170E-05 -1.79273305E-05  2.21417251E-20
  5.62720201E-20  4.83581217E-05 -1.77253143E-05 -9.63272934E-05  1.38869020E-03
 -5.22641745E-20 -2.51493718E-04  5.08828196E-05  9.22431442E-04 -1.38172820E-20
  9.01993763E-06  3.49663573E-05 -6.19357022E-06 -5.53114576E-05  3.70294584E-21
 -1.26071954E-20  5.19230060E-04 -1.93536697E-03  6.86463735E-04  8.70991822E-04
  3.65162802E-20 -2.18028964E-03  4.04394796E-04  6.23079611E-04 -4.61985359E-20
  8.03999099E-05  8.45641762E-06  4.50363748E-05  3.19577589E-04 -2.58023653E-04
  6.74146249E-04 -1.24667260E-03  1.62126425E-19 -2.25985403E-03  1.17112587E-03
 -1.08686616E-03  2.19905341E-19 -1.11906840E-04  3.17976556E-04 -1.22604672E-04
  8.14010734E-05 -6.16261152E-20  3.04025567E-20 -7.12789505E-05  3.51556384E-04
  1.02565567E-04  1.62274044E-03 -4.63653586E-20 -4.98228340E-04  3.38419456E-04
  1.25129434E-03  1.37565394E-20  8.61626321E-05  4.69677529E-05  5.53114623E-05
 -4.19894794E-05  3.45025888E-20 -8.65302510E-21 -4.19714689E-04  1.30466111E-03
  8.80990732E-04  2.55485109E-04  2.24952810E-19  1.96286331E-03  7.85012893E-04
 -2.45834455E-04  1.63412659E-19  1.13696807E-04 -1.52973073E-04  1.16307902E-05
 -1.15336288E-04  5.53579696E-20  5.26792801E-22  9.05948062E-20 -5.36542765E-19
  1.19792642E-04 -5.52379832E-19 -1.27113192E-19 -2.91510251E-19 -1.95352281E-05
  1.06759417E-19 -6.44205033E-20  7.55117448E-21  1.87733595E-20  1.80527327E-05
  1.94824768E-04 -1.44033143E-20  8.83402491E-20 -5.96090541E-20  1.13533132E-18
 -1.14837082E-04  1.00344889E-19 -1.88172221E-20  8.03742165E-19 -7.40377233E-05
  5.05743786E-21  1.37387715E-20  3.67496672E-21 -3.43725290E-20  1.15252292E-05
 -9.30449822E-06  2.31663890E-19 -8.66447246E-19  2.80360402E-19  9.64815151E-19
 -2.74845360E-04 -1.01283722E-18  4.08967744E-20  7.05863298E-19 -3.84128483E-04
  2.99715609E-20 -1.12199647E-20  1.80327993E-20  2.80100196E-20 -3.38870028E-05
  5.60475971E-20 -4.41787152E-20  1.62332762E-19 -2.20002507E-19  1.83913065E-04
 -3.97507042E-19  2.18983880E-19 -1.92306321E-19  5.86549477E-05 -3.00800266E-20
  5.60659466E-20 -2.96282197E-20  3.00384752E-20 -2.66963848E-05  6.90562437E-05
 -1.23023623E-20  6.17119006E-20 -4.58426045E-20  2.90878171E-19 -2.73647458E-04
 -8.86614062E-20  1.46542117E-20  2.23670969E-19 -1.94488284E-04  1.89238747E-20
  8.36639234E-21  1.25241896E-20 -9.08828629E-21  9.30450094E-06 -6.41111954E-06
 -7.03966341E-20  2.18034954E-19  2.30300508E-19  5.11434629E-20  3.07869004E-04
  3.31878313E-19  1.67177817E-19 -3.91972525E-20  1.16195805E-04  2.37438331E-20
 -2.66943012E-20  4.77775818E-21 -1.72420904E-20  8.26032487E-06  1.24915439E-05
Grdnt Energy                               R     -2.050722061907302E+02
Grdnt NVar                                 I                3
Grdnt IGetFC                               I                4
Internal Forces                            R   N=           3
  7.81714910E-05  7.77369965E-05  2.70526567E-04
Internal Force Constants                   R   N=           6
  7.49470756E-01  1.38931112E-01  7.49468476E-01  5.78364248E-02  5.78364957E-02
  3.66855826E-01
Mulliken Charges                           R   N=           3
  4.80514969E-01 -2.40257371E-01 -2.40257598E-01
Optimization MaxStp                        I                2
Optimization MaxJob                        I                1
Optimization Job offset                    I                0
Optimization Num results per geometry      I                2
Optimization Num geometry variables        I                9
Optimization Reference Energy              R     -2.050000000000000E+02
Opt point       1 Results for each geome   R   N=           2
 -7.22061907E-02  0.00000000E+00
Opt point       1 Geometries               R   N=           9
  1.52770556E-16  6.20595722E-01 -1.12748214E-16  2.09123546E+00 -2.71509722E-01
  5.07364502E-16 -2.09123546E+00 -2.71511535E-01 -5.90041468E-16
Opt point       1 Gradient at each geome   R   N=           9
  3.99610128E-07  1.57714600E-04 -1.00032439E-15 -1.18590830E-04 -7.87721314E-05
  5.69970507E-15  1.18191220E-04 -7.89424684E-05 -4.69937870E-15
Optimization Number of geometries          I   N=           1
           1
ONIOM Charges                              I   N=          16
           0           0           0           0           0           0
           0           0           0           0           0           0
           0           0           0           0
ONIOM Multiplicities                       I   N=          16
           2           0           0           0           0           0
           0           0           0           0           0           0
           0           0           0           0
Atom Layers                                I   N=           3
           1           1           1
Atom Modifiers                             I   N=           3
           0           0           0
Int Atom Modified Types                    I   N=           3
           0           0           0
Force Field                                I                0
Atom Modified Types                        C   N=           3
                                    
Link Atoms                                 I   N=           3
           0           0           0
Atom Modified MM Charges                   R   N=           3
  0.00000000E+00  0.00000000E+00  0.00000000E+00
Link Distances                             R   N=          12
  0.00000000E+00  0.00000000E+00  0.00000000E+00  0.00000000E+00  0.00000000E+00
  0.00000000E+00  0.00000000E+00  0.00000000E+00  0.00000000E+00  0.00000000E+00
  0.00000000E+00  0.00000000E+00
Cartesian Gradient                         R   N=           9
  3.99610128E-07  1.57714600E-04 -1.00032439E-15 -1.18590830E-04 -7.87721314E-05
  5.69970507E-15  1.18191220E-04 -7.89424684E-05 -4.69937870E-15
Cartesian Force Constants                  R   N=          45
  1.03313953E+00 -7.13416887E-07  4.40154418E-01  1.42616564E-13  1.61039008E-16
  1.69293217E-04 -5.16570877E-01  2.34172913E-01 -7.04975358E-14  6.63401271E-01
  2.20331354E-01 -2.20077164E-01  1.43098541E-14 -2.27252037E-01  1.57002440E-01
 -7.05316380E-14 -1.57426025E-15 -8.45511741E-05  3.09957730E-14 -6.29936892E-15
  1.14175211E-05 -5.16568654E-01 -2.34172200E-01 -7.20149965E-14 -1.46830394E-01
  6.92068319E-03  3.95521700E-14  6.63399048E-01 -2.20330641E-01 -2.20077254E-01
 -1.44950530E-14 -6.92087611E-03  6.30747244E-02  7.85732141E-15  2.27251517E-01
  1.57002529E-01 -7.20482689E-14  1.36723793E-15 -8.47420414E-05  3.95052379E-14
 -8.03161733E-15  7.31336483E-05  3.24568152E-14  6.64708337E-15  1.16083909E-05
Nonadiabatic coupling                      R   N=           9
  0.00000000E+00  0.00000000E+00  0.00000000E+00  0.00000000E+00  0.00000000E+00
  0.00000000E+00  0.00000000E+00  0.00000000E+00  0.00000000E+00
Dipole Moment                              R   N=           3
  6.23615630E-07  1.26727652E-01 -2.93975634E-17
Dipole Derivatives                         R   N=          27
  1.75717603E+00  4.46665469E-07 -6.28393600E-14  1.36282827E-07  2.51935018E-01
 -1.97081576E-16  8.99817564E-14  1.17658100E-15  1.42062194E-01 -8.78588463E-01
 -1.26169410E-01  3.16401836E-14  3.44499556E-01 -1.25967319E-01 -6.41642570E-15
 -4.50744815E-14 -4.62668812E-15 -7.10309477E-02 -8.78587565E-01  1.26168963E-01
  3.11909478E-14 -3.44499692E-01 -1.25967699E-01  6.69706718E-15 -4.48499801E-14
  3.46811374E-15 -7.10312458E-02
Polarizability                             R   N=           6
  2.40768538E+01  8.44012834E-06  8.97667504E+00  8.15146662E-15 -2.24785578E-16
  7.08081673E+00
Polarizability Derivatives                 R   N=          54
 -8.45802826E-06  4.89061221E+00  2.11817478E-06 -2.70918181E-15  1.43185986E-12
 -2.79695883E-07  6.92460872E+00  5.91955420E-06  5.18558250E+00  1.89828766E-14
  1.90478515E-15  5.70119457E-01  8.53262726E-17  9.36520481E-14 -1.31268909E-14
  1.20243901E-06  2.12520184E+00  2.03905595E-16  1.04344782E+01 -2.44530367E+00
  3.61452392E-01  2.24196429E-14 -7.15948637E-13  4.40542162E-01 -3.46230568E+00
  4.65346874E+00 -2.59278661E+00 -9.63126720E-15  1.55140519E-13 -2.85059597E-01
  3.19008501E-14 -4.79155540E-14  3.11667043E-14  4.06363376E+00 -1.06259890E+00
  5.76300614E-15 -1.04344697E+01 -2.44530855E+00 -3.61454510E-01 -1.91256970E-14
 -7.15580314E-13 -4.40541883E-01 -3.46230304E+00 -4.65347466E+00 -2.59279590E+00
 -8.93913011E-15 -1.56975120E-13 -2.85059860E-01 -3.21578806E-14 -4.46257492E-14
 -1.79569905E-14 -4.06363496E+00 -1.06260294E+00 -6.77818139E-15
HyperPolarizability                        R   N=          10
  1.18548123E-05  1.23045112E+01  1.43863335E-05  5.31596133E+00 -1.17532411E-15
  3.83555809E-15 -6.05507739E-16  2.15513377E-06  1.14059001E+00 -1.50210426E-15
Quadrupole Moment                          R   N=           6
 -1.33810851E+00  4.15731066E-01  9.22377448E-01 -4.53381592E-07 -1.83695606E-15
  5.53262162E-17
Anisotropic Hyperfine tensors              R   N=          18
 -5.06640634E-01 -6.46093253E-07  9.53404391E-01 -2.07436526E-16  1.57952538E-17
 -4.46763757E-01 -6.75328599E-01 -2.87174302E-01  1.40787015E+00 -2.17450514E-16
  9.43322834E-18 -7.32541548E-01 -6.75329360E-01  2.87174032E-01  1.40787117E+00
 -1.85686637E-16  5.60989731E-17 -7.32541810E-01
Isotropic Hyperfine splittings             R   N=           3
  4.62342868E-01  6.72908591E-02  6.72907880E-02
QEq coupling tensors                       R   N=          18
 -2.36095483E-01 -7.10399018E-07  7.31338893E-01 -3.02857223E-16 -5.31889561E-17
 -4.95243410E-01 -8.17663524E-01  1.23913609E+00  7.94524340E-01  2.12135601E-16
  3.11237864E-16  2.31391836E-02 -8.17662829E-01 -1.23913868E+00  7.94521983E-01
  9.87864396E-17 -3.14126978E-17  2.31408467E-02
Number of Normal Modes                     I                3
Vib-LE2Fix                                 I               14
Vib-NDFDPol                                I                0
Vib-NumROA                                 I                0
Vib-NDim                                   I                3
Vib-NDim0                                  I                3
Vib-LFlags                                 I                8
Vib-IFlags                                 I   N=          24
           0           0           1           0           0           0
           0           0           0           0           2           0
           0           0           0           0           0           0
           3           0           0           0           0           0
Vib-AtMass                                 R   N=           3
  1.40030740E+01  1.59949146E+01  1.59949146E+01
Vib-E2                                     R   N=          42
  7.49354605E+02  1.40399354E+03  1.71995686E+03  1.51677546E+01  1.53149108E+01
  1.46240337E+01  5.01818027E+00  1.77866801E+01  2.54889817E+01  7.86538295E+00
  4.28155503E-01  3.23416998E+02  1.66044172E+00  1.97355043E+01  5.95984748E+00
  7.11841160E-01  1.82961775E-01  7.50000000E-01  8.31667302E-01  3.09328296E-01
  8.57142857E-01  0.00000000E+00  0.00000000E+00  0.00000000E+00  0.00000000E+00
  0.00000000E+00  0.00000000E+00  1.00000000E+02  1.00000000E+02  1.00000000E+02
  0.00000000E+00  0.00000000E+00  0.00000000E+00  0.00000000E+00  0.00000000E+00
  0.00000000E+00  0.00000000E+00  0.00000000E+00  0.00000000E+00  0.00000000E+00
  0.00000000E+00  0.00000000E+00
Vib-Modes                                  R   N=          27
 -2.38314006E-07  6.44417710E-01 -7.97081309E-17 -4.61293024E-01 -2.82084554E-01
 -1.33149436E-16  4.61293232E-01 -2.82084065E-01  2.22497642E-16  3.11344461E-06
  5.84289916E-01 -4.96184290E-18  5.13698249E-01 -2.55763453E-01  2.54482059E-16
 -5.13700975E-01 -2.55765062E-01 -1.54563998E-16  8.29607335E-01 -1.91538941E-06
  3.01598861E-16 -3.63150360E-01  1.54917362E-01 -1.89899199E-16 -3.63146289E-01
 -1.54915685E-01 -1.47470698E-16
ClPar MaxAn                                I              200
ClPar NIntPar                              I                4
ClPar NRealPar                             I               16
ClPar NBits                                I               30
ClPar LenBitVec                            I                1
ClPar Read BitMap                          I   N=         200
           0           0           0           0           0           0
           0           0           0           0           0           0
           0           0           0           0           0           0
           0           0           0           0           0           0
           0           0           0           0           0           0
           0           0           0           0           0           0
           0           0           0           0           0           0
           0           0           0           0           0           0
           0           0           0           0           0           0
           0           0           0           0           0           0
           0           0           0           0           0           0
           0           0           0           0           0           0
           0           0           0           0           0           0
           0           0           0           0           0           0
           0           0           0           0           0           0
           0           0           0           0           0           0
           0           0           0           0           0           0
           0           0           0           0           0           0
           0           0           0           0           0           0
           0           0           0           0           0           0
           0           0           0           0           0           0
           0           0           0           0           0           0
           0           0           0           0           0           0
           0           0           0           0           0           0
           0           0           0           0           0           0
           0           0           0           0           0           0
           0           0           0           0           0           0
           0           0           0           0           0           0
           0           0           0           0           0           0
           0           0           0           0           0           0
           0           0           0           0           0           0
           0           0           0           0           0           0
           0           0           0           0           0           0
           0           0
ClPar Default BitMap                       I   N=         200
        2016        2016        2016        2016        2016        2016
        2016        2016        2016        2016        2016        2016
        2016        2016        2016        2016        2016        2016
        2016        2016        2016        2016        2016        2016
        2016        2016        2016        2016        2016        2016
        2016        2016        2016        2016        2016        2016
        2016        2016        2016        2016        2016        2016
        2016        2016        2016        2016        2016        2016
        2016        2016        2016        2016        2016        2016
        2016        2016        2016        2016        2016        2016
        2016        2016        2016        2016        2016        2016
        2016        2016        2016        2016        2016        2016
        2016        2016        2016        2016        2016        2016
        2016        2016        2016        2016        2016        2016
        2016        2016         480         480         480         480
         480         480         480         480         480         480
         480         480         480         480         480         480
         480         480         480         480         480         480
         480         480         480         480         480         480
         480         480         480         480         480         480
         480         480         480         480         480         480
         480         480         480         480         480         480
         480         480         480         480         480         480
         480         480         480         480         480         480
         480         480         480         480         480         480
         480         480         480         480         480         480
         480         480         480         480         480         480
         480         480         480         480         480         480
         480         480         480         480         480         480
         480         480         480         480         480         480
         480         480         480         480         480         480
         480         480         480         480         480         480
         480         480         480         480         480         480
         480         480
ClPar Int Params                           I   N=         800
           0           0           0           0           0           0
           0           0           0           0           0           0
           0           0           0           0           0           0
           0           0           0           0           0           0
           0           0           0           0           0           0
           0           0           0           0           0           0
           0           0           0           0           0           0
           0           0           0           0           0           0
           0           0           0           0           0           0
           0           0           0           0           0           0
           0           0           0           0           0           0
           0           0           0           0           0           0
           0           0           0           0           0           0
           0           0           0           0           0           0
           0           0           0           0           0           0
           0           0           0           0           0           0
           0           0           0           0           0           0
           0           0           0           0           0           0
           0           0           0           0           0           0
           0           0           0           0           0           0
           0           0           0           0           0           0
           0           0           0           0           0           0
           0           0           0           0           0           0
           0           0           0           0           0           0
           0           0           0           0           0           0
           0           0           0           0           0           0
           0           0           0           0           0           0
           0           0           0           0           0           0
           0           0           0           0           0           0
           0           0           0           0           0           0
           0           0           0           0           0           0
           0           0           0           0           0           0
           0           0           0           0           0           0
           0           0           0           0           0           0
           0           0           0           0           0           0
           0           0           0           0           0           0
           0           0           0           0           0           0
           0           0           0           0           0           0
           0           0           0           0           0           0
           0           0           0           0           0           0
           0           0           0           0           0           0
           0           0           0           0           0           0
           0           0           0           0           0           0
           0           0           0           0           0           0
           0           0           0           0           0           0
           0           0           0           0           0           0
           0           0           0           0           0           0
           0           0           0           0           0           0
           0           0           0           0           0           0
           0           0           0           0           0           0
           0           0           0           0           0           0
           0           0           0           0           0           0
           0           0           0           0           0           0
           0           0           0           0           0           0
           0           0           0           0           0           0
           0           0           0           0           0           0
           0           0           0           0           0           0
           0           0           0           0           0           0
           0           0           0           0           0           0
           0           0           0           0           0           0
           0           0           0           0           0           0
           0           0           0           0           0           0
           0           0           0           0           0           0
           0           0           0           0           0           0
           0           0           0           0           0           0
           0           0           0           0           0           0
           0           0           0           0           0           0
           0           0           0           0           0           0
           0           0           0           0           0           0
           0           0           0           0           0           0
           0           0           0           0           0           0
           0           0           0           0           0           0
           0           0           0           0           0           0
           0           0           0           0           0           0
           0           0           0           0           0           0
           0           0           0           0           0           0
           0           0           0           0           0           0
           0           0           0           0           0           0
           0           0           0           0           0           0
           0           0           0           0           0           0
           0           0           0           0           0           0
           0           0           0           0           0           0
           0           0           0           0           0           0
           0           0           0           0           0           0
           0           0           0           0           0           0
           0           0           0           0           0           0
           0           0           0           0           0           0
           0           0           0           0           0           0
           0           0           0           0           0           0
           0           0           0           0           0           0
           0           0           0           0           0           0
           0           0           0           0           0           0
           0           0           0           0           0           0
           0           0           0           0           0           0
           0           0           0           0           0           0
           0           0           0           0           0           0
           0           0           0           0           0           0
           0           0           0           0           0           0
           0           0           0           0           0           0
           0           0           0           0           0           0
           0           0           0           0           0           0
           0           0           0           0           0           0
           0           0           0           0           0           0
           0           0           0           0           0           0
           0           0           0           0           0           0
           0           0           0           0           0           0
           0           0           0           0           0           0
           0           0           0           0           0           0
           0           0           0           0           0           0
           0           0           0           0           0           0
           0           0           0           0           0           0
           0           0           0           0           0           0
           0           0           0           0           0           0
           0           0           0           0           0           0
           0           0           0           0           0           0
           0           0           0           0           0           0
           0           0           0           0           0           0
           0           0           0           0           0           0
           0           0           0           0           0           0
           0           0           0           0           0           0
           0           0           0           0           0           0
           0           0           0           0           0           0
           0           0           0           0           0           0
           0           0           0           0           0           0
           0           0           0           0           0           0
           0           0           0           0           0           0
           0           0           0           0           0           0
           0           0           0           0           0           0
           0           0           0           0           0           0
           0           0           0           0           0           0
           0           0           0           0           0           0
           0           0           0           0           0           0
           0           0           0           0           0           0
           0           0
ClPar Real Params                          R   N=        3200
  0.00000000E+00  0.00000000E+00  0.00000000E+00  0.00000000E+00  0.00000000E+00
  0.00000000E+00  0.00000000E+00  0.00000000E+00  0.00000000E+00  0.00000000E+00
  0.00000000E+00  0.00000000E+00  0.00000000E+00  0.00000000E+00  0.00000000E+00
  0.00000000E+00  0.00000000E+00  0.00000000E+00  0.00000000E+00  0.00000000E+00
  0.00000000E+00  0.00000000E+00  0.00000000E+00  0.00000000E+00  0.00000000E+00
  0.00000000E+00  0.00000000E+00  0.00000000E+00  0.00000000E+00  0.00000000E+00
  0.00000000E+00  0.00000000E+00  0.00000000E+00  0.00000000E+00  0.00000000E+00
  0.00000000E+00  0.00000000E+00  0.00000000E+00  0.00000000E+00  0.00000000E+00
  0.00000000E+00  0.00000000E+00  0.00000000E+00  0.00000000E+00  0.00000000E+00
  0.00000000E+00  0.00000000E+00  0.00000000E+00  0.00000000E+00  0.00000000E+00
  0.00000000E+00  0.00000000E+00  0.00000000E+00  0.00000000E+00  0.00000000E+00
  0.00000000E+00  0.00000000E+00  0.00000000E+00  0.00000000E+00  0.00000000E+00
  0.00000000E+00  0.00000000E+00  0.00000000E+00  0.00000000E+00  0.00000000E+00
  0.00000000E+00  0.00000000E+00  0.00000000E+00  0.00000000E+00  0.00000000E+00
  0.00000000E+00  0.00000000E+00  0.00000000E+00  0.00000000E+00  0.00000000E+00
  0.00000000E+00  0.00000000E+00  0.00000000E+00  0.00000000E+00  0.00000000E+00
  0.00000000E+00  0.00000000E+00  0.00000000E+00  0.00000000E+00  0.00000000E+00
  0.00000000E+00  0.00000000E+00  0.00000000E+00  0.00000000E+00  0.00000000E+00
  0.00000000E+00  0.00000000E+00  0.00000000E+00  0.00000000E+00  0.00000000E+00
  0.00000000E+00  0.00000000E+00  0.00000000E+00  0.00000000E+00  0.00000000E+00
  0.00000000E+00  0.00000000E+00  0.00000000E+00  0.00000000E+00  0.00000000E+00
  0.00000000E+00  0.00000000E+00  0.00000000E+00  0.00000000E+00  0.00000000E+00
  0.00000000E+00  0.00000000E+00  0.00000000E+00  0.00000000E+00  0.00000000E+00
  0.00000000E+00  0.00000000E+00  0.00000000E+00  0.00000000E+00  0.00000000E+00
  0.00000000E+00  0.00000000E+00  0.00000000E+00  0.00000000E+00  0.00000000E+00
  0.00000000E+00  0.00000000E+00  0.00000000E+00  0.00000000E+00  0.00000000E+00
  0.00000000E+00  0.00000000E+00  0.00000000E+00  0.00000000E+00  0.00000000E+00
  0.00000000E+00  0.00000000E+00  0.00000000E+00  0.00000000E+00  0.00000000E+00
  0.00000000E+00  0.00000000E+00  0.00000000E+00  0.00000000E+00  0.00000000E+00
  0.00000000E+00  0.00000000E+00  0.00000000E+00  0.00000000E+00  0.00000000E+00
  0.00000000E+00  0.00000000E+00  0.00000000E+00  0.00000000E+00  0.00000000E+00
  0.00000000E+00  0.00000000E+00  0.00000000E+00  0.00000000E+00  0.00000000E+00
  0.00000000E+00  0.00000000E+00  0.00000000E+00  0.00000000E+00  0.00000000E+00
  0.00000000E+00  0.00000000E+00  0.00000000E+00  0.00000000E+00  0.00000000E+00
  0.00000000E+00  0.00000000E+00  0.00000000E+00  0.00000000E+00  0.00000000E+00
  0.00000000E+00  0.00000000E+00  0.00000000E+00  0.00000000E+00  0.00000000E+00
  0.00000000E+00  0.00000000E+00  0.00000000E+00  0.00000000E+00  0.00000000E+00
  0.00000000E+00  0.00000000E+00  0.00000000E+00  0.00000000E+00  0.00000000E+00
  0.00000000E+00  0.00000000E+00  0.00000000E+00  0.00000000E+00  0.00000000E+00
  0.00000000E+00  0.00000000E+00  0.00000000E+00  0.00000000E+00  0.00000000E+00
  2.26000000E-01  4.43000000E-01  1.01000000E-01  1.47000000E-01  1.92000000E-01
  2.40000000E-01  2.75000000E-01  3.03000000E-01  3.25000000E-01  4.13000000E-01
  9.60000000E-02  1.35000000E-01  1.73000000E-01  2.11000000E-01  2.48000000E-01
  2.86000000E-01  3.23000000E-01  3.60000000E-01  8.20000000E-02  1.04000000E-01
  1.17000000E-01  1.23000000E-01  1.29000000E-01  1.34000000E-01  1.40000000E-01
  1.44000000E-01  1.48000000E-01  1.52000000E-01  1.55000000E-01  1.76000000E-01
  1.98000000E-01  2.19000000E-01  2.39000000E-01  2.60000000E-01  2.80000000E-01
  3.00000000E-01  7.90000000E-02  9.90000000E-02  1.19000000E-01  1.26000000E-01
  1.33000000E-01  1.40000000E-01  1.47000000E-01  1.53000000E-01  1.58000000E-01
  1.63000000E-01  1.57000000E-01  1.70000000E-01  1.87000000E-01  2.03000000E-01
  2.19000000E-01  2.34000000E-01  2.50000000E-01  2.65000000E-01  7.40000000E-02
  9.20000000E-02  1.05000000E-01  1.06000000E-01  1.07000000E-01  1.08000000E-01
  1.09000000E-01  1.10000000E-01  1.11000000E-01  1.12000000E-01  1.13000000E-01
  1.14000000E-01  1.15000000E-01  1.16000000E-01  1.17000000E-01  1.17000000E-01
  1.26000000E-01  1.36000000E-01  1.46000000E-01  1.55000000E-01  1.65000000E-01
  1.73000000E-01  1.82000000E-01  1.90000000E-01  1.62000000E-01  1.78000000E-01
  1.10000000E-01  1.35000000E-01  1.59000000E-01  1.83000000E-01  2.07000000E-01
  2.31000000E-01  6.90000000E-02  9.40000000E-02  1.02000000E-01  1.03000000E-01
  1.05000000E-01  1.07000000E-01  1.09000000E-01  1.11000000E-01  1.13000000E-01
  1.15000000E-01  1.17000000E-01  1.19000000E-01  1.20000000E-01  1.22000000E-01
  1.24000000E-01  1.26000000E-01  1.28000000E-01  1.28000000E-01  1.28000000E-01
  1.28000000E-01  1.28000000E-01  1.28000000E-01  1.28000000E-01  1.28000000E-01
  1.28000000E-01  1.28000000E-01  1.28000000E-01  1.28000000E-01  1.28000000E-01
  1.28000000E-01  1.28000000E-01  1.28000000E-01  1.28000000E-01  1.28000000E-01
  1.28000000E-01  1.28000000E-01  1.28000000E-01  1.28000000E-01  1.28000000E-01
  1.28000000E-01  1.28000000E-01  1.28000000E-01  1.28000000E-01  1.28000000E-01
  1.28000000E-01  1.28000000E-01  1.28000000E-01  1.28000000E-01  1.28000000E-01
  1.28000000E-01  1.28000000E-01  1.28000000E-01  1.28000000E-01  1.28000000E-01
  1.28000000E-01  1.28000000E-01  1.28000000E-01  1.28000000E-01  1.28000000E-01
  1.28000000E-01  1.28000000E-01  1.28000000E-01  1.28000000E-01  1.28000000E-01
  1.28000000E-01  1.28000000E-01  1.28000000E-01  1.28000000E-01  1.28000000E-01
  1.28000000E-01  1.28000000E-01  1.28000000E-01  1.28000000E-01  1.28000000E-01
  1.28000000E-01  1.28000000E-01  1.28000000E-01  1.28000000E-01  1.28000000E-01
  1.28000000E-01  1.28000000E-01  1.28000000E-01  1.28000000E-01  1.28000000E-01
  1.28000000E-01  1.28000000E-01  1.28000000E-01  1.28000000E-01  1.28000000E-01
  1.28000000E-01  1.28000000E-01  1.28000000E-01  1.28000000E-01  1.28000000E-01
  1.28000000E-01  1.28000000E-01  1.28000000E-01  1.28000000E-01  1.28000000E-01
  1.28000000E-01  1.28000000E-01  1.28000000E-01  1.28000000E-01  1.28000000E-01
  1.28000000E-01  1.28000000E-01  1.28000000E-01  1.28000000E-01  1.28000000E-01
  1.28000000E-01  1.28000000E-01  1.28000000E-01  1.28000000E-01  1.28000000E-01
  5.47000000E-01  5.92000000E-01  5.99000000E-01  6.68000000E-01  6.98000000E-01
  7.18000000E-01  7.26000000E-01  7.36000000E-01  7.43000000E-01  7.45000000E-01
  6.07000000E-01  6.66000000E-01  6.93000000E-01  7.09000000E-01  7.20000000E-01
  7.29000000E-01  7.35000000E-01  7.40000000E-01  6.08000000E-01  7.34000000E-01
  7.46000000E-01  7.55000000E-01  7.61000000E-01  7.65000000E-01  7.67000000E-01
  7.60000000E-01  7.49000000E-01  7.33000000E-01  7.08000000E-01  6.48000000E-01
  6.88000000E-01  7.09000000E-01  7.22000000E-01  7.31000000E-01  7.38000000E-01
  7.44000000E-01  6.09000000E-01  7.30000000E-01  7.41000000E-01  7.52000000E-01
  7.58000000E-01  7.63000000E-01  7.66000000E-01  7.58000000E-01  7.48000000E-01
  7.33000000E-01  7.01000000E-01  6.45000000E-01  6.86000000E-01  7.08000000E-01
  7.22000000E-01  7.31000000E-01  7.38000000E-01  7.44000000E-01  6.08000000E-01
  7.28000000E-01  7.32000000E-01  7.32000000E-01  7.32000000E-01  7.32000000E-01
  7.32000000E-01  7.32000000E-01  7.32000000E-01  7.32000000E-01  7.32000000E-01
  7.31000000E-01  7.31000000E-01  7.31000000E-01  7.31000000E-01  7.46000000E-01
  7.37000000E-01  7.46000000E-01  7.51000000E-01  7.55000000E-01  7.58000000E-01
  7.47000000E-01  7.32000000E-01  7.11000000E-01  7.41000000E-01  7.07000000E-01
  7.47000000E-01  7.43000000E-01  7.42000000E-01  7.42000000E-01  7.43000000E-01
  7.44000000E-01  6.05000000E-01  7.24000000E-01  7.26000000E-01  7.26000000E-01
  7.27000000E-01  7.27000000E-01  7.27000000E-01  7.28000000E-01  7.28000000E-01
  7.28000000E-01  7.28000000E-01  7.28000000E-01  7.29000000E-01  7.29000000E-01
  7.29000000E-01  7.29000000E-01  7.29000000E-01  7.29000000E-01  7.29000000E-01
  7.29000000E-01  7.29000000E-01  7.29000000E-01  7.29000000E-01  7.29000000E-01
  7.29000000E-01  7.29000000E-01  7.29000000E-01  7.29000000E-01  7.29000000E-01
  7.29000000E-01  7.29000000E-01  7.29000000E-01  7.29000000E-01  7.29000000E-01
  7.29000000E-01  7.29000000E-01  7.29000000E-01  7.29000000E-01  7.29000000E-01
  7.29000000E-01  7.29000000E-01  7.29000000E-01  7.29000000E-01  7.29000000E-01
  7.29000000E-01  7.29000000E-01  7.29000000E-01  7.29000000E-01  7.29000000E-01
  7.29000000E-01  7.29000000E-01  7.29000000E-01  7.29000000E-01  7.29000000E-01
  7.29000000E-01  7.29000000E-01  7.29000000E-01  7.29000000E-01  7.29000000E-01
  7.29000000E-01  7.29000000E-01  7.29000000E-01  7.29000000E-01  7.29000000E-01
  7.29000000E-01  7.29000000E-01  7.29000000E-01  7.29000000E-01  7.29000000E-01
  7.29000000E-01  7.29000000E-01  7.29000000E-01  7.29000000E-01  7.29000000E-01
  7.29000000E-01  7.29000000E-01  7.29000000E-01  7.29000000E-01  7.29000000E-01
  7.29000000E-01  7.29000000E-01  7.29000000E-01  7.29000000E-01  7.29000000E-01
  7.29000000E-01  7.29000000E-01  7.29000000E-01  7.29000000E-01  7.29000000E-01
  7.29000000E-01  7.29000000E-01  7.29000000E-01  7.29000000E-01  7.29000000E-01
  7.29000000E-01  7.29000000E-01  7.29000000E-01  7.29000000E-01  7.29000000E-01
  7.29000000E-01  7.29000000E-01  7.29000000E-01  7.29000000E-01  7.29000000E-01
  7.29000000E-01  7.29000000E-01  7.29000000E-01  7.29000000E-01  7.29000000E-01
  7.29000000E-01  7.29000000E-01  7.29000000E-01  7.29000000E-01  7.29000000E-01
  1.00000000E+00  1.70400000E+00  3.23000000E-01  3.89000000E-01  4.67000000E-01
  5.67000000E-01  6.36000000E-01  6.64000000E-01  6.96000000E-01  8.79000000E-01
  3.07000000E-01  3.48000000E-01  4.00000000E-01  4.54000000E-01  5.09000000E-01
  5.65000000E-01  6.21000000E-01  6.77000000E-01  2.56000000E-01  3.50000000E-01
  3.64000000E-01  3.62000000E-01  3.62000000E-01  3.62000000E-01  3.62000000E-01
  3.65000000E-01  3.69000000E-01  3.75000000E-01  3.86000000E-01  4.46000000E-01
  4.55000000E-01  4.74000000E-01  4.96000000E-01  5.20000000E-01  5.45000000E-01
  5.70000000E-01  2.45000000E-01  3.22000000E-01  3.55000000E-01  3.59000000E-01
  3.64000000E-01  3.70000000E-01  3.76000000E-01  3.85000000E-01  3.95000000E-01
  4.08000000E-01  3.76000000E-01  4.23000000E-01  4.22000000E-01  4.32000000E-01
  4.45000000E-01  4.59000000E-01  4.75000000E-01  4.91000000E-01  2.28000000E-01
  2.92000000E-01  2.89000000E-01  2.92000000E-01  2.95000000E-01  2.98000000E-01
  3.00000000E-01  3.03000000E-01  3.06000000E-01  3.09000000E-01  3.12000000E-01
  3.15000000E-01  3.18000000E-01  3.21000000E-01  3.24000000E-01  3.61000000E-01
  3.69000000E-01  3.70000000E-01  3.72000000E-01  3.75000000E-01  3.78000000E-01
  3.85000000E-01  3.94000000E-01  4.07000000E-01  5.26000000E-01  6.21000000E-01
  3.36000000E-01  3.54000000E-01  3.71000000E-01  3.86000000E-01  4.02000000E-01
  4.17000000E-01  2.09000000E-01  2.94000000E-01  2.65000000E-01  2.72000000E-01
  2.78000000E-01  2.84000000E-01  2.91000000E-01  2.97000000E-01  3.03000000E-01
  3.10000000E-01  3.16000000E-01  3.22000000E-01  3.29000000E-01  3.35000000E-01
  3.41000000E-01  3.48000000E-01  3.54000000E-01  3.54000000E-01  3.54000000E-01
  3.54000000E-01  3.54000000E-01  3.54000000E-01  3.54000000E-01  3.54000000E-01
  3.54000000E-01  3.54000000E-01  3.54000000E-01  3.54000000E-01  3.54000000E-01
  3.54000000E-01  3.54000000E-01  3.54000000E-01  3.54000000E-01  3.54000000E-01
  3.54000000E-01  3.54000000E-01  3.54000000E-01  3.54000000E-01  3.54000000E-01
  3.54000000E-01  3.54000000E-01  3.54000000E-01  3.54000000E-01  3.54000000E-01
  3.54000000E-01  3.54000000E-01  3.54000000E-01  3.54000000E-01  3.54000000E-01
  3.54000000E-01  3.54000000E-01  3.54000000E-01  3.54000000E-01  3.54000000E-01
  3.54000000E-01  3.54000000E-01  3.54000000E-01  3.54000000E-01  3.54000000E-01
  3.54000000E-01  3.54000000E-01  3.54000000E-01  3.54000000E-01  3.54000000E-01
  3.54000000E-01  3.54000000E-01  3.54000000E-01  3.54000000E-01  3.54000000E-01
  3.54000000E-01  3.54000000E-01  3.54000000E-01  3.54000000E-01  3.54000000E-01
  3.54000000E-01  3.54000000E-01  3.54000000E-01  3.54000000E-01  3.54000000E-01
  3.54000000E-01  3.54000000E-01  3.54000000E-01  3.54000000E-01  3.54000000E-01
  3.54000000E-01  3.54000000E-01  3.54000000E-01  3.54000000E-01  3.54000000E-01
  3.54000000E-01  3.54000000E-01  3.54000000E-01  3.54000000E-01  3.54000000E-01
  3.54000000E-01  3.54000000E-01  3.54000000E-01  3.54000000E-01  3.54000000E-01
  3.54000000E-01  3.54000000E-01  3.54000000E-01  3.54000000E-01  3.54000000E-01
  3.54000000E-01  3.54000000E-01  3.54000000E-01  3.54000000E-01  3.54000000E-01
  3.54000000E-01  3.54000000E-01  3.54000000E-01  3.54000000E-01  3.54000000E-01
  2.74000000E-01  2.96000000E-01  5.80000000E-02  4.40000000E-02  3.90000000E-02
  3.90000000E-02  3.60000000E-02  3.20000000E-02  2.90000000E-02  3.30000000E-02
  5.50000000E-02  3.90000000E-02  3.30000000E-02  3.00000000E-02  2.80000000E-02
  2.60000000E-02  2.50000000E-02  2.50000000E-02  4.50000000E-02  4.40000000E-02
  3.30000000E-02  2.50000000E-02  2.10000000E-02  1.80000000E-02  1.50000000E-02
  1.80000000E-02  2.10000000E-02  2.50000000E-02  3.30000000E-02  5.00000000E-02
  3.80000000E-02  3.10000000E-02  2.70000000E-02  2.40000000E-02  2.20000000E-02
  2.10000000E-02  4.30000000E-02  4.00000000E-02  3.20000000E-02  2.50000000E-02
  2.10000000E-02  1.80000000E-02  1.60000000E-02  1.90000000E-02  2.20000000E-02
  2.80000000E-02  3.10000000E-02  4.70000000E-02  3.40000000E-02  2.80000000E-02
  2.40000000E-02  2.10000000E-02  1.90000000E-02  1.80000000E-02  3.90000000E-02
  3.60000000E-02  2.50000000E-02  2.50000000E-02  2.50000000E-02  2.60000000E-02
  2.60000000E-02  2.60000000E-02  2.70000000E-02  2.70000000E-02  2.70000000E-02
  2.70000000E-02  2.80000000E-02  2.80000000E-02  2.80000000E-02  3.30000000E-02
  3.30000000E-02  2.60000000E-02  2.10000000E-02  1.80000000E-02  1.60000000E-02
  1.80000000E-02  2.20000000E-02  2.60000000E-02  4.90000000E-02  8.20000000E-02
  3.00000000E-02  2.40000000E-02  2.10000000E-02  1.80000000E-02  1.60000000E-02
  1.50000000E-02  3.50000000E-02  3.60000000E-02  2.20000000E-02  2.30000000E-02
  2.40000000E-02  2.40000000E-02  2.50000000E-02  2.50000000E-02  2.60000000E-02
  2.70000000E-02  2.70000000E-02  2.80000000E-02  2.80000000E-02  2.90000000E-02
  3.00000000E-02  3.00000000E-02  3.10000000E-02  3.10000000E-02  3.10000000E-02
  3.10000000E-02  3.10000000E-02  3.10000000E-02  3.10000000E-02  3.10000000E-02
  3.10000000E-02  3.10000000E-02  3.10000000E-02  3.10000000E-02  3.10000000E-02
  3.10000000E-02  3.10000000E-02  3.10000000E-02  3.10000000E-02  3.10000000E-02
  3.10000000E-02  3.10000000E-02  3.10000000E-02  3.10000000E-02  3.10000000E-02
  3.10000000E-02  3.10000000E-02  3.10000000E-02  3.10000000E-02  3.10000000E-02
  3.10000000E-02  3.10000000E-02  3.10000000E-02  3.10000000E-02  3.10000000E-02
  3.10000000E-02  3.10000000E-02  3.10000000E-02  3.10000000E-02  3.10000000E-02
  3.10000000E-02  3.10000000E-02  3.10000000E-02  3.10000000E-02  3.10000000E-02
  3.10000000E-02  3.10000000E-02  3.10000000E-02  3.10000000E-02  3.10000000E-02
  3.10000000E-02  3.10000000E-02  3.10000000E-02  3.10000000E-02  3.10000000E-02
  3.10000000E-02  3.10000000E-02  3.10000000E-02  3.10000000E-02  3.10000000E-02
  3.10000000E-02  3.10000000E-02  3.10000000E-02  3.10000000E-02  3.10000000E-02
  3.10000000E-02  3.10000000E-02  3.10000000E-02  3.10000000E-02  3.10000000E-02
  3.10000000E-02  3.10000000E-02  3.10000000E-02  3.10000000E-02  3.10000000E-02
  3.10000000E-02  3.10000000E-02  3.10000000E-02  3.10000000E-02  3.10000000E-02
  3.10000000E-02  3.10000000E-02  3.10000000E-02  3.10000000E-02  3.10000000E-02
  3.10000000E-02  3.10000000E-02  3.10000000E-02  3.10000000E-02  3.10000000E-02
  3.10000000E-02  3.10000000E-02  3.10000000E-02  3.10000000E-02  3.10000000E-02
  3.10000000E-02  3.10000000E-02  3.10000000E-02  3.10000000E-02  3.10000000E-02
 -5.92770000E-01 -9.17860000E-01 -2.48668000E+00 -8.36430000E-01 -3.18470000E-01
 -4.55790000E-01 -5.70730000E-01 -6.77940000E-01 -7.69860000E-01 -8.51140000E-01
 -1.51908000E+00 -3.18830000E-01 -2.17900000E-01 -3.01260000E-01 -3.72750000E-01
 -4.15890000E-01 -4.45930000E-01 -5.91320000E-01 -9.56370000E-01 -2.88450000E-01
 -4.87320000E-01 -6.34280000E-01 -7.17490000E-01 -7.91980000E-01 -8.68490000E-01
 -9.17520000E-01 -9.54890000E-01 -9.88460000E-01 -1.50055000E+00 -2.92560000E-01
 -2.14960000E-01 -2.91180000E-01 -3.42080000E-01 -3.84480000E-01 -4.34940000E-01
 -5.24310000E-01 -8.10070000E-01 -2.58460000E-01 -4.35550000E-01 -5.32740000E-01
 -6.08450000E-01 -6.10260000E-01 -7.58920000E-01 -8.90130000E-01 -8.45780000E-01
 -8.69340000E-01 -1.38234000E+00 -2.64850000E-01 -1.97280000E-01 -2.65040000E-01
 -2.94470000E-01 -3.16570000E-01 -3.63590000E-01 -4.57840000E-01 -8.61830000E-01
 -1.33004000E+00 -6.82880000E-01 -6.25540000E-01 -6.35430000E-01 -8.79690000E-01
 -9.02690000E-01 -9.59650000E-01 -1.01869000E+00 -6.81170000E-01 -7.96500000E-01
 -9.04950000E-01 -8.34790000E-01 -9.01560000E-01 -9.74130000E-01 -1.03326000E+00
 -7.15490000E-01 -7.83960000E-01 -8.28380000E-01 -5.61040000E-01 -1.03841000E+00
 -8.62500000E-01 -9.59300000E-01 -1.01755000E+00 -7.64900000E-01 -1.29467000E+00
 -1.92740000E-01 -2.56010000E-01 -3.19820000E-01 -1.94660000E-01 -2.60090000E-01
 -4.27990000E-01  0.00000000E+00  0.00000000E+00  0.00000000E+00  0.00000000E+00
  0.00000000E+00  0.00000000E+00  0.00000000E+00  0.00000000E+00  0.00000000E+00
  0.00000000E+00  0.00000000E+00  0.00000000E+00  0.00000000E+00  0.00000000E+00
  0.00000000E+00  0.00000000E+00  0.00000000E+00  0.00000000E+00  0.00000000E+00
  0.00000000E+00  0.00000000E+00  0.00000000E+00  0.00000000E+00  0.00000000E+00
  0.00000000E+00  0.00000000E+00  0.00000000E+00  0.00000000E+00  0.00000000E+00
  0.00000000E+00  0.00000000E+00  0.00000000E+00  0.00000000E+00  0.00000000E+00
  0.00000000E+00  0.00000000E+00  0.00000000E+00  0.00000000E+00  0.00000000E+00
  0.00000000E+00  0.00000000E+00  0.00000000E+00  0.00000000E+00  0.00000000E+00
  0.00000000E+00  0.00000000E+00  0.00000000E+00  0.00000000E+00  0.00000000E+00
  0.00000000E+00  0.00000000E+00  0.00000000E+00  0.00000000E+00  0.00000000E+00
  0.00000000E+00  0.00000000E+00  0.00000000E+00  0.00000000E+00  0.00000000E+00
  0.00000000E+00  0.00000000E+00  0.00000000E+00  0.00000000E+00  0.00000000E+00
  0.00000000E+00  0.00000000E+00  0.00000000E+00  0.00000000E+00  0.00000000E+00
  0.00000000E+00  0.00000000E+00  0.00000000E+00  0.00000000E+00  0.00000000E+00
  0.00000000E+00  0.00000000E+00  0.00000000E+00  0.00000000E+00  0.00000000E+00
  0.00000000E+00  0.00000000E+00  0.00000000E+00  0.00000000E+00  0.00000000E+00
  0.00000000E+00  0.00000000E+00  0.00000000E+00  0.00000000E+00  0.00000000E+00
  0.00000000E+00  0.00000000E+00  0.00000000E+00  0.00000000E+00  0.00000000E+00
  0.00000000E+00  0.00000000E+00  0.00000000E+00  0.00000000E+00  0.00000000E+00
  0.00000000E+00  0.00000000E+00  0.00000000E+00  0.00000000E+00  0.00000000E+00
  0.00000000E+00  0.00000000E+00  0.00000000E+00  0.00000000E+00  0.00000000E+00
  0.00000000E+00  0.00000000E+00  0.00000000E+00  0.00000000E+00  0.00000000E+00
  1.90440000E+00  1.36430000E+00  4.84000000E-01  7.31600000E+00  9.24030000E+00
  8.78200000E+00  5.61290000E+00  4.83340000E+00  3.24870000E+00  2.71090000E+00
  2.01130000E+00  1.50282000E+01  1.46788000E+01  2.13546000E+01  2.38290000E+01
  1.98022000E+01  1.50468000E+01  1.09745000E+01  1.27219000E+01  1.51949000E+01
  1.57342000E+01  2.79222000E+01  1.61366000E+01  2.21252000E+01  2.45676000E+01
  1.96016000E+01  1.79818000E+01  1.72396000E+01  5.01500000E+00  1.92898000E+01
  2.34477000E+01  2.23993000E+01  2.96586000E+01  2.60081000E+01  2.15580000E+01
  1.69594000E+01  1.56479000E+01  1.86897000E+01  1.93530000E+01  3.43444000E+01
  1.98480000E+01  2.72140000E+01  3.02182000E+01  2.41099000E+01  2.21176000E+01
  2.12047000E+01  7.56690000E+00  2.37264000E+01  2.93879000E+01  3.01278000E+01
  4.19382000E+01  3.85203000E+01  3.39511000E+01  2.75774000E+01  1.56460000E+01
  1.04460000E+01  2.01830000E+01  4.99540000E+01  4.76430000E+01  1.18690000E+01
  1.08670000E+01  9.96100000E+00  9.18700000E+00  3.67980000E+01  1.34070000E+01
  9.38200000E+00  9.81700000E+00  8.90800000E+00  8.40700000E+00  8.05800000E+00
  1.29600000E+01  2.67920000E+01  2.49300000E+01  3.45630000E+01  1.11860000E+01
  1.09440000E+01  1.01270000E+01  9.40400000E+00  1.36660000E+01  7.81000000E+00
  6.93600000E+01  5.86630000E+01  4.79690000E+01  4.52740000E+01  3.92290000E+01
  3.30660000E+01  0.00000000E+00  0.00000000E+00  0.00000000E+00  0.00000000E+00
  0.00000000E+00  0.00000000E+00  0.00000000E+00  0.00000000E+00  0.00000000E+00
  0.00000000E+00  0.00000000E+00  0.00000000E+00  0.00000000E+00  0.00000000E+00
  0.00000000E+00  0.00000000E+00  0.00000000E+00  0.00000000E+00  0.00000000E+00
  0.00000000E+00  0.00000000E+00  0.00000000E+00  0.00000000E+00  0.00000000E+00
  0.00000000E+00  0.00000000E+00  0.00000000E+00  0.00000000E+00  0.00000000E+00
  0.00000000E+00  0.00000000E+00  0.00000000E+00  0.00000000E+00  0.00000000E+00
  0.00000000E+00  0.00000000E+00  0.00000000E+00  0.00000000E+00  0.00000000E+00
  0.00000000E+00  0.00000000E+00  0.00000000E+00  0.00000000E+00  0.00000000E+00
  0.00000000E+00  0.00000000E+00  0.00000000E+00  0.00000000E+00  0.00000000E+00
  0.00000000E+00  0.00000000E+00  0.00000000E+00  0.00000000E+00  0.00000000E+00
  0.00000000E+00  0.00000000E+00  0.00000000E+00  0.00000000E+00  0.00000000E+00
  0.00000000E+00  0.00000000E+00  0.00000000E+00  0.00000000E+00  0.00000000E+00
  0.00000000E+00  0.00000000E+00  0.00000000E+00  0.00000000E+00  0.00000000E+00
  0.00000000E+00  0.00000000E+00  0.00000000E+00  0.00000000E+00  0.00000000E+00
  0.00000000E+00  0.00000000E+00  0.00000000E+00  0.00000000E+00  0.00000000E+00
  0.00000000E+00  0.00000000E+00  0.00000000E+00  0.00000000E+00  0.00000000E+00
  0.00000000E+00  0.00000000E+00  0.00000000E+00  0.00000000E+00  0.00000000E+00
  0.00000000E+00  0.00000000E+00  0.00000000E+00  0.00000000E+00  0.00000000E+00
  0.00000000E+00  0.00000000E+00  0.00000000E+00  0.00000000E+00  0.00000000E+00
  0.00000000E+00  0.00000000E+00  0.00000000E+00  0.00000000E+00  0.00000000E+00
  0.00000000E+00  0.00000000E+00  0.00000000E+00  0.00000000E+00  0.00000000E+00
  0.00000000E+00  0.00000000E+00  0.00000000E+00  0.00000000E+00  0.00000000E+00
  0.00000000E+00  0.00000000E+00  0.00000000E+00  0.00000000E+00  0.00000000E+00
  0.00000000E+00  0.00000000E+00  0.00000000E+00  0.00000000E+00  0.00000000E+00
  0.00000000E+00  0.00000000E+00  0.00000000E+00  0.00000000E+00  0.00000000E+00
  0.00000000E+00  0.00000000E+00  0.00000000E+00  0.00000000E+00  0.00000000E+00
  0.00000000E+00  0.00000000E+00  0.00000000E+00  0.00000000E+00  0.00000000E+00
  0.00000000E+00  0.00000000E+00  0.00000000E+00  0.00000000E+00  0.00000000E+00
  0.00000000E+00  0.00000000E+00  0.00000000E+00  0.00000000E+00  0.00000000E+00
  0.00000000E+00  0.00000000E+00  0.00000000E+00  0.00000000E+00  0.00000000E+00
  0.00000000E+00  0.00000000E+00  0.00000000E+00  0.00000000E+00  0.00000000E+00
  0.00000000E+00  0.00000000E+00  0.00000000E+00  0.00000000E+00  0.00000000E+00
  0.00000000E+00  0.00000000E+00  0.00000000E+00  0.00000000E+00  0.00000000E+00
  0.00000000E+00  0.00000000E+00  0.00000000E+00  0.00000000E+00  0.00000000E+00
  0.00000000E+00  0.00000000E+00  0.00000000E+00  0.00000000E+00  0.00000000E+00
  0.00000000E+00  0.00000000E+00  0.00000000E+00  0.00000000E+00  0.00000000E+00
  0.00000000E+00  0.00000000E+00  0.00000000E+00  0.00000000E+00  0.00000000E+00
  0.00000000E+00  0.00000000E+00  0.00000000E+00  0.00000000E+00  0.00000000E+00
  0.00000000E+00  0.00000000E+00  0.00000000E+00  0.00000000E+00  0.00000000E+00
  0.00000000E+00  0.00000000E+00  0.00000000E+00  0.00000000E+00  0.00000000E+00
  0.00000000E+00  0.00000000E+00  0.00000000E+00  0.00000000E+00  0.00000000E+00
  0.00000000E+00  0.00000000E+00  0.00000000E+00  0.00000000E+00  0.00000000E+00
  0.00000000E+00  0.00000000E+00  0.00000000E+00  0.00000000E+00  0.00000000E+00
  0.00000000E+00  0.00000000E+00  0.00000000E+00  0.00000000E+00  0.00000000E+00
  0.00000000E+00  0.00000000E+00  0.00000000E+00  0.00000000E+00  0.00000000E+00
  0.00000000E+00  0.00000000E+00  0.00000000E+00  0.00000000E+00  0.00000000E+00
  0.00000000E+00  0.00000000E+00  0.00000000E+00  0.00000000E+00  0.00000000E+00
  0.00000000E+00  0.00000000E+00  0.00000000E+00  0.00000000E+00  0.00000000E+00
  0.00000000E+00  0.00000000E+00  0.00000000E+00  0.00000000E+00  0.00000000E+00
  0.00000000E+00  0.00000000E+00  0.00000000E+00  0.00000000E+00  0.00000000E+00
  0.00000000E+00  0.00000000E+00  0.00000000E+00  0.00000000E+00  0.00000000E+00
  0.00000000E+00  0.00000000E+00  0.00000000E+00  0.00000000E+00  0.00000000E+00
  0.00000000E+00  0.00000000E+00  0.00000000E+00  0.00000000E+00  0.00000000E+00
  0.00000000E+00  0.00000000E+00  0.00000000E+00  0.00000000E+00  0.00000000E+00
  0.00000000E+00  0.00000000E+00  0.00000000E+00  0.00000000E+00  0.00000000E+00
  0.00000000E+00  0.00000000E+00  0.00000000E+00  0.00000000E+00  0.00000000E+00
  0.00000000E+00  0.00000000E+00  0.00000000E+00  0.00000000E+00  0.00000000E+00
  0.00000000E+00  0.00000000E+00  0.00000000E+00  0.00000000E+00  0.00000000E+00
  0.00000000E+00  0.00000000E+00  0.00000000E+00  0.00000000E+00  0.00000000E+00
  0.00000000E+00  0.00000000E+00  0.00000000E+00  0.00000000E+00  0.00000000E+00
  0.00000000E+00  0.00000000E+00  0.00000000E+00  0.00000000E+00  0.00000000E+00
  0.00000000E+00  0.00000000E+00  0.00000000E+00  0.00000000E+00  0.00000000E+00
  0.00000000E+00  0.00000000E+00  0.00000000E+00  0.00000000E+00  0.00000000E+00
  0.00000000E+00  0.00000000E+00  0.00000000E+00  0.00000000E+00  0.00000000E+00
  0.00000000E+00  0.00000000E+00  0.00000000E+00  0.00000000E+00  0.00000000E+00
  0.00000000E+00  0.00000000E+00  0.00000000E+00  0.00000000E+00  0.00000000E+00
  0.00000000E+00  0.00000000E+00  0.00000000E+00  0.00000000E+00  0.00000000E+00
  0.00000000E+00  0.00000000E+00  0.00000000E+00  0.00000000E+00  0.00000000E+00
  0.00000000E+00  0.00000000E+00  0.00000000E+00  0.00000000E+00  0.00000000E+00
  0.00000000E+00  0.00000000E+00  0.00000000E+00  0.00000000E+00  0.00000000E+00
  0.00000000E+00  0.00000000E+00  0.00000000E+00  0.00000000E+00  0.00000000E+00
  0.00000000E+00  0.00000000E+00  0.00000000E+00  0.00000000E+00  0.00000000E+00
  0.00000000E+00  0.00000000E+00  0.00000000E+00  0.00000000E+00  0.00000000E+00
  0.00000000E+00  0.00000000E+00  0.00000000E+00  0.00000000E+00  0.00000000E+00
  0.00000000E+00  0.00000000E+00  0.00000000E+00  0.00000000E+00  0.00000000E+00
  0.00000000E+00  0.00000000E+00  0.00000000E+00  0.00000000E+00  0.00000000E+00
  0.00000000E+00  0.00000000E+00  0.00000000E+00  0.00000000E+00  0.00000000E+00
  0.00000000E+00  0.00000000E+00  0.00000000E+00  0.00000000E+00  0.00000000E+00
  0.00000000E+00  0.00000000E+00  0.00000000E+00  0.00000000E+00  0.00000000E+00
  0.00000000E+00  0.00000000E+00  0.00000000E+00  0.00000000E+00  0.00000000E+00
  0.00000000E+00  0.00000000E+00  0.00000000E+00  0.00000000E+00  0.00000000E+00
  0.00000000E+00  0.00000000E+00  0.00000000E+00  0.00000000E+00  0.00000000E+00
  0.00000000E+00  0.00000000E+00  0.00000000E+00  0.00000000E+00  0.00000000E+00
  0.00000000E+00  0.00000000E+00  0.00000000E+00  0.00000000E+00  0.00000000E+00
  0.00000000E+00  0.00000000E+00  0.00000000E+00  0.00000000E+00  0.00000000E+00
  0.00000000E+00  0.00000000E+00  0.00000000E+00  0.00000000E+00  0.00000000E+00
  0.00000000E+00  0.00000000E+00  0.00000000E+00  0.00000000E+00  0.00000000E+00
  0.00000000E+00  0.00000000E+00  0.00000000E+00  0.00000000E+00  0.00000000E+00
  0.00000000E+00  0.00000000E+00  0.00000000E+00  0.00000000E+00  0.00000000E+00
  0.00000000E+00  0.00000000E+00  0.00000000E+00  0.00000000E+00  0.00000000E+00
  0.00000000E+00  0.00000000E+00  0.00000000E+00  0.00000000E+00  0.00000000E+00
  0.00000000E+00  0.00000000E+00  0.00000000E+00  0.00000000E+00  0.00000000E+00
  0.00000000E+00  0.00000000E+00  0.00000000E+00  0.00000000E+00  0.00000000E+00
  0.00000000E+00  0.00000000E+00  0.00000000E+00  0.00000000E+00  0.00000000E+00
  0.00000000E+00  0.00000000E+00  0.00000000E+00  0.00000000E+00  0.00000000E+00
  0.00000000E+00  0.00000000E+00  0.00000000E+00  0.00000000E+00  0.00000000E+00
  0.00000000E+00  0.00000000E+00  0.00000000E+00  0.00000000E+00  0.00000000E+00
  0.00000000E+00  0.00000000E+00  0.00000000E+00  0.00000000E+00  0.00000000E+00
  0.00000000E+00  0.00000000E+00  0.00000000E+00  0.00000000E+00  0.00000000E+00
  0.00000000E+00  0.00000000E+00  0.00000000E+00  0.00000000E+00  0.00000000E+00
  0.00000000E+00  0.00000000E+00  0.00000000E+00  0.00000000E+00  0.00000000E+00
  0.00000000E+00  0.00000000E+00  0.00000000E+00  0.00000000E+00  0.00000000E+00
  0.00000000E+00  0.00000000E+00  0.00000000E+00  0.00000000E+00  0.00000000E+00
  0.00000000E+00  0.00000000E+00  0.00000000E+00  0.00000000E+00  0.00000000E+00
  0.00000000E+00  0.00000000E+00  0.00000000E+00  0.00000000E+00  0.00000000E+00
  0.00000000E+00  0.00000000E+00  0.00000000E+00  0.00000000E+00  0.00000000E+00
  0.00000000E+00  0.00000000E+00  0.00000000E+00  0.00000000E+00  0.00000000E+00
  0.00000000E+00  0.00000000E+00  0.00000000E+00  0.00000000E+00  0.00000000E+00
  0.00000000E+00  0.00000000E+00  0.00000000E+00  0.00000000E+00  0.00000000E+00
  0.00000000E+00  0.00000000E+00  0.00000000E+00  0.00000000E+00  0.00000000E+00
  0.00000000E+00  0.00000000E+00  0.00000000E+00  0.00000000E+00  0.00000000E+00
  0.00000000E+00  0.00000000E+00  0.00000000E+00  0.00000000E+00  0.00000000E+00
  0.00000000E+00  0.00000000E+00  0.00000000E+00  0.00000000E+00  0.00000000E+00
  0.00000000E+00  0.00000000E+00  0.00000000E+00  0.00000000E+00  0.00000000E+00
  0.00000000E+00  0.00000000E+00  0.00000000E+00  0.00000000E+00  0.00000000E+00
  0.00000000E+00  0.00000000E+00  0.00000000E+00  0.00000000E+00  0.00000000E+00
  0.00000000E+00  0.00000000E+00  0.00000000E+00  0.00000000E+00  0.00000000E+00
  0.00000000E+00  0.00000000E+00  0.00000000E+00  0.00000000E+00  0.00000000E+00
  0.00000000E+00  0.00000000E+00  0.00000000E+00  0.00000000E+00  0.00000000E+00
  0.00000000E+00  0.00000000E+00  0.00000000E+00  0.00000000E+00  0.00000000E+00
  0.00000000E+00  0.00000000E+00  0.00000000E+00  0.00000000E+00  0.00000000E+00
  0.00000000E+00  0.00000000E+00  0.00000000E+00  0.00000000E+00  0.00000000E+00
  0.00000000E+00  0.00000000E+00  0.00000000E+00  0.00000000E+00  0.00000000E+00
  0.00000000E+00  0.00000000E+00  0.00000000E+00  0.00000000E+00  0.00000000E+00
  0.00000000E+00  0.00000000E+00  0.00000000E+00  0.00000000E+00  0.00000000E+00
  0.00000000E+00  0.00000000E+00  0.00000000E+00  0.00000000E+00  0.00000000E+00
  0.00000000E+00  0.00000000E+00  0.00000000E+00  0.00000000E+00  0.00000000E+00
  0.00000000E+00  0.00000000E+00  0.00000000E+00  0.00000000E+00  0.00000000E+00
  0.00000000E+00  0.00000000E+00  0.00000000E+00  0.00000000E+00  0.00000000E+00
  0.00000000E+00  0.00000000E+00  0.00000000E+00  0.00000000E+00  0.00000000E+00
  0.00000000E+00  0.00000000E+00  0.00000000E+00  0.00000000E+00  0.00000000E+00
  0.00000000E+00  0.00000000E+00  0.00000000E+00  0.00000000E+00  0.00000000E+00
  0.00000000E+00  0.00000000E+00  0.00000000E+00  0.00000000E+00  0.00000000E+00
  0.00000000E+00  0.00000000E+00  0.00000000E+00  0.00000000E+00  0.00000000E+00
  0.00000000E+00  0.00000000E+00  0.00000000E+00  0.00000000E+00  0.00000000E+00
  0.00000000E+00  0.00000000E+00  0.00000000E+00  0.00000000E+00  0.00000000E+00
  0.00000000E+00  0.00000000E+00  0.00000000E+00  0.00000000E+00  0.00000000E+00
  0.00000000E+00  0.00000000E+00  0.00000000E+00  0.00000000E+00  0.00000000E+00
  0.00000000E+00  0.00000000E+00  0.00000000E+00  0.00000000E+00  0.00000000E+00
  0.00000000E+00  0.00000000E+00  0.00000000E+00  0.00000000E+00  0.00000000E+00
  0.00000000E+00  0.00000000E+00  0.00000000E+00  0.00000000E+00  0.00000000E+00
  0.00000000E+00  0.00000000E+00  0.00000000E+00  0.00000000E+00  0.00000000E+00
  0.00000000E+00  0.00000000E+00  0.00000000E+00  0.00000000E+00  0.00000000E+00
  0.00000000E+00  0.00000000E+00  0.00000000E+00  0.00000000E+00  0.00000000E+00
  0.00000000E+00  0.00000000E+00  0.00000000E+00  0.00000000E+00  0.00000000E+00
  0.00000000E+00  0.00000000E+00  0.00000000E+00  0.00000000E+00  0.00000000E+00
  0.00000000E+00  0.00000000E+00  0.00000000E+00  0.00000000E+00  0.00000000E+00
  0.00000000E+00  0.00000000E+00  0.00000000E+00  0.00000000E+00  0.00000000E+00
  0.00000000E+00  0.00000000E+00  0.00000000E+00  0.00000000E+00  0.00000000E+00
  0.00000000E+00  0.00000000E+00  0.00000000E+00  0.00000000E+00  0.00000000E+00
  0.00000000E+00  0.00000000E+00  0.00000000E+00  0.00000000E+00  0.00000000E+00
  0.00000000E+00  0.00000000E+00  0.00000000E+00  0.00000000E+00  0.00000000E+00
  0.00000000E+00  0.00000000E+00  0.00000000E+00  0.00000000E+00  0.00000000E+00
  0.00000000E+00  0.00000000E+00  0.00000000E+00  0.00000000E+00  0.00000000E+00
  0.00000000E+00  0.00000000E+00  0.00000000E+00  0.00000000E+00  0.00000000E+00
  0.00000000E+00  0.00000000E+00  0.00000000E+00  0.00000000E+00  0.00000000E+00
  0.00000000E+00  0.00000000E+00  0.00000000E+00  0.00000000E+00  0.00000000E+00
  0.00000000E+00  0.00000000E+00  0.00000000E+00  0.00000000E+00  0.00000000E+00
  0.00000000E+00  0.00000000E+00  0.00000000E+00  0.00000000E+00  0.00000000E+00
  0.00000000E+00  0.00000000E+00  0.00000000E+00  0.00000000E+00  0.00000000E+00
  0.00000000E+00  0.00000000E+00  0.00000000E+00  0.00000000E+00  0.00000000E+00
  0.00000000E+00  0.00000000E+00  0.00000000E+00  0.00000000E+00  0.00000000E+00
  0.00000000E+00  0.00000000E+00  0.00000000E+00  0.00000000E+00  0.00000000E+00
  0.00000000E+00  0.00000000E+00  0.00000000E+00  0.00000000E+00  0.00000000E+00
  0.00000000E+00  0.00000000E+00  0.00000000E+00  0.00000000E+00  0.00000000E+00
  0.00000000E+00  0.00000000E+00  0.00000000E+00  0.00000000E+00  0.00000000E+00
  0.00000000E+00  0.00000000E+00  0.00000000E+00  0.00000000E+00  0.00000000E+00
  0.00000000E+00  0.00000000E+00  0.00000000E+00  0.00000000E+00  0.00000000E+00
  0.00000000E+00  0.00000000E+00  0.00000000E+00  0.00000000E+00  0.00000000E+00
  0.00000000E+00  0.00000000E+00  0.00000000E+00  0.00000000E+00  0.00000000E+00
  0.00000000E+00  0.00000000E+00  0.00000000E+00  0.00000000E+00  0.00000000E+00
  0.00000000E+00  0.00000000E+00  0.00000000E+00  0.00000000E+00  0.00000000E+00
  0.00000000E+00  0.00000000E+00  0.00000000E+00  0.00000000E+00  0.00000000E+00
  0.00000000E+00  0.00000000E+00  0.00000000E+00  0.00000000E+00  0.00000000E+00
  0.00000000E+00  0.00000000E+00  0.00000000E+00  0.00000000E+00  0.00000000E+00
  0.00000000E+00  0.00000000E+00  0.00000000E+00  0.00000000E+00  0.00000000E+00
  0.00000000E+00  0.00000000E+00  0.00000000E+00  0.00000000E+00  0.00000000E+00
  0.00000000E+00  0.00000000E+00  0.00000000E+00  0.00000000E+00  0.00000000E+00
  0.00000000E+00  0.00000000E+00  0.00000000E+00  0.00000000E+00  0.00000000E+00
  0.00000000E+00  0.00000000E+00  0.00000000E+00  0.00000000E+00  0.00000000E+00
  0.00000000E+00  0.00000000E+00  0.00000000E+00  0.00000000E+00  0.00000000E+00
  0.00000000E+00  0.00000000E+00  0.00000000E+00  0.00000000E+00  0.00000000E+00
  0.00000000E+00  0.00000000E+00  0.00000000E+00  0.00000000E+00  0.00000000E+00
  0.00000000E+00  0.00000000E+00  0.00000000E+00  0.00000000E+00  0.00000000E+00
  0.00000000E+00  0.00000000E+00  0.00000000E+00  0.00000000E+00  0.00000000E+00
  0.00000000E+00  0.00000000E+00  0.00000000E+00  0.00000000E+00  0.00000000E+00
  0.00000000E+00  0.00000000E+00  0.00000000E+00  0.00000000E+00  0.00000000E+00
  0.00000000E+00  0.00000000E+00  0.00000000E+00  0.00000000E+00  0.00000000E+00
  0.00000000E+00  0.00000000E+00  0.00000000E+00  0.00000000E+00  0.00000000E+00
  0.00000000E+00  0.00000000E+00  0.00000000E+00  0.00000000E+00  0.00000000E+00
  0.00000000E+00  0.00000000E+00  0.00000000E+00  0.00000000E+00  0.00000000E+00
  0.00000000E+00  0.00000000E+00  0.00000000E+00  0.00000000E+00  0.00000000E+00
  0.00000000E+00  0.00000000E+00  0.00000000E+00  0.00000000E+00  0.00000000E+00
  0.00000000E+00  0.00000000E+00  0.00000000E+00  0.00000000E+00  0.00000000E+00
  0.00000000E+00  0.00000000E+00  0.00000000E+00  0.00000000E+00  0.00000000E+00
  0.00000000E+00  0.00000000E+00  0.00000000E+00  0.00000000E+00  0.00000000E+00
  0.00000000E+00  0.00000000E+00  0.00000000E+00  0.00000000E+00  0.00000000E+00
  0.00000000E+00  0.00000000E+00  0.00000000E+00  0.00000000E+00  0.00000000E+00
  0.00000000E+00  0.00000000E+00  0.00000000E+00  0.00000000E+00  0.00000000E+00
  0.00000000E+00  0.00000000E+00  0.00000000E+00  0.00000000E+00  0.00000000E+00
  0.00000000E+00  0.00000000E+00  0.00000000E+00  0.00000000E+00  0.00000000E+00
  0.00000000E+00  0.00000000E+00  0.00000000E+00  0.00000000E+00  0.00000000E+00
  0.00000000E+00  0.00000000E+00  0.00000000E+00  0.00000000E+00  0.00000000E+00
  0.00000000E+00  0.00000000E+00  0.00000000E+00  0.00000000E+00  0.00000000E+00
  0.00000000E+00  0.00000000E+00  0.00000000E+00  0.00000000E+00  0.00000000E+00
  0.00000000E+00  0.00000000E+00  0.00000000E+00  0.00000000E+00  0.00000000E+00
  0.00000000E+00  0.00000000E+00  0.00000000E+00  0.00000000E+00  0.00000000E+00
  0.00000000E+00  0.00000000E+00  0.00000000E+00  0.00000000E+00  0.00000000E+00
  0.00000000E+00  0.00000000E+00  0.00000000E+00  0.00000000E+00  0.00000000E+00
  0.00000000E+00  0.00000000E+00  0.00000000E+00  0.00000000E+00  0.00000000E+00
  0.00000000E+00  0.00000000E+00  0.00000000E+00  0.00000000E+00  0.00000000E+00
  0.00000000E+00  0.00000000E+00  0.00000000E+00  0.00000000E+00  0.00000000E+00
  0.00000000E+00  0.00000000E+00  0.00000000E+00  0.00000000E+00  0.00000000E+00
  0.00000000E+00  0.00000000E+00  0.00000000E+00  0.00000000E+00  0.00000000E+00
  0.00000000E+00  0.00000000E+00  0.00000000E+00  0.00000000E+00  0.00000000E+00
  0.00000000E+00  0.00000000E+00  0.00000000E+00  0.00000000E+00  0.00000000E+00
  0.00000000E+00  0.00000000E+00  0.00000000E+00  0.00000000E+00  0.00000000E+00
  0.00000000E+00  0.00000000E+00  0.00000000E+00  0.00000000E+00  0.00000000E+00
  0.00000000E+00  0.00000000E+00  0.00000000E+00  0.00000000E+00  0.00000000E+00
  0.00000000E+00  0.00000000E+00  0.00000000E+00  0.00000000E+00  0.00000000E+00
  0.00000000E+00  0.00000000E+00  0.00000000E+00  0.00000000E+00  0.00000000E+00
  0.00000000E+00  0.00000000E+00  0.00000000E+00  0.00000000E+00  0.00000000E+00
  0.00000000E+00  0.00000000E+00  0.00000000E+00  0.00000000E+00  0.00000000E+00
  0.00000000E+00  0.00000000E+00  0.00000000E+00  0.00000000E+00  0.00000000E+00
  0.00000000E+00  0.00000000E+00  0.00000000E+00  0.00000000E+00  0.00000000E+00
  0.00000000E+00  0.00000000E+00  0.00000000E+00  0.00000000E+00  0.00000000E+00
  0.00000000E+00  0.00000000E+00  0.00000000E+00  0.00000000E+00  0.00000000E+00
  0.00000000E+00  0.00000000E+00  0.00000000E+00  0.00000000E+00  0.00000000E+00
  0.00000000E+00  0.00000000E+00  0.00000000E+00  0.00000000E+00  0.00000000E+00
  0.00000000E+00  0.00000000E+00  0.00000000E+00  0.00000000E+00  0.00000000E+00
  0.00000000E+00  0.00000000E+00  0.00000000E+00  0.00000000E+00  0.00000000E+00
  0.00000000E+00  0.00000000E+00  0.00000000E+00  0.00000000E+00  0.00000000E+00
  0.00000000E+00  0.00000000E+00  0.00000000E+00  0.00000000E+00  0.00000000E+00
  0.00000000E+00  0.00000000E+00  0.00000000E+00  0.00000000E+00  0.00000000E+00
  0.00000000E+00  0.00000000E+00  0.00000000E+00  0.00000000E+00  0.00000000E+00
  0.00000000E+00  0.00000000E+00  0.00000000E+00  0.00000000E+00  0.00000000E+00
  0.00000000E+00  0.00000000E+00  0.00000000E+00  0.00000000E+00  0.00000000E+00
  0.00000000E+00  0.00000000E+00  0.00000000E+00  0.00000000E+00  0.00000000E+00
  0.00000000E+00  0.00000000E+00  0.00000000E+00  0.00000000E+00  0.00000000E+00
  0.00000000E+00  0.00000000E+00  0.00000000E+00  0.00000000E+00  0.00000000E+00
  0.00000000E+00  0.00000000E+00  0.00000000E+00  0.00000000E+00  0.00000000E+00
  0.00000000E+00  0.00000000E+00  0.00000000E+00  0.00000000E+00  0.00000000E+00
  0.00000000E+00  0.00000000E+00  0.00000000E+00  0.00000000E+00  0.00000000E+00
  0.00000000E+00  0.00000000E+00  0.00000000E+00  0.00000000E+00  0.00000000E+00
  0.00000000E+00  0.00000000E+00  0.00000000E+00  0.00000000E+00  0.00000000E+00
  0.00000000E+00  0.00000000E+00  0.00000000E+00  0.00000000E+00  0.00000000E+00
  0.00000000E+00  0.00000000E+00  0.00000000E+00  0.00000000E+00  0.00000000E+00
  0.00000000E+00  0.00000000E+00  0.00000000E+00  0.00000000E+00  0.00000000E+00
  0.00000000E+00  0.00000000E+00  0.00000000E+00  0.00000000E+00  0.00000000E+00
  0.00000000E+00  0.00000000E+00  0.00000000E+00  0.00000000E+00  0.00000000E+00
  0.00000000E+00  0.00000000E+00  0.00000000E+00  0.00000000E+00  0.00000000E+00
  0.00000000E+00  0.00000000E+00  0.00000000E+00  0.00000000E+00  0.00000000E+00
  0.00000000E+00  0.00000000E+00  0.00000000E+00  0.00000000E+00  0.00000000E+00
  0.00000000E+00  0.00000000E+00  0.00000000E+00  0.00000000E+00  0.00000000E+00
  0.00000000E+00  0.00000000E+00  0.00000000E+00  0.00000000E+00  0.00000000E+00
  0.00000000E+00  0.00000000E+00  0.00000000E+00  0.00000000E+00  0.00000000E+00
  0.00000000E+00  0.00000000E+00  0.00000000E+00  0.00000000E+00  0.00000000E+00
  0.00000000E+00  0.00000000E+00  0.00000000E+00  0.00000000E+00  0.00000000E+00
  0.00000000E+00  0.00000000E+00  0.00000000E+00  0.00000000E+00  0.00000000E+00
  0.00000000E+00  0.00000000E+00  0.00000000E+00  0.00000000E+00  0.00000000E+00
  0.00000000E+00  0.00000000E+00  0.00000000E+00  0.00000000E+00  0.00000000E+00
  0.00000000E+00  0.00000000E+00  0.00000000E+00  0.00000000E+00  0.00000000E+00
  0.00000000E+00  0.00000000E+00  0.00000000E+00  0.00000000E+00  0.00000000E+00
  0.00000000E+00  0.00000000E+00  0.00000000E+00  0.00000000E+00  0.00000000E+00
  0.00000000E+00  0.00000000E+00  0.00000000E+00  0.00000000E+00  0.00000000E+00
  0.00000000E+00  0.00000000E+00  0.00000000E+00  0.00000000E+00  0.00000000E+00
  0.00000000E+00  0.00000000E+00  0.00000000E+00  0.00000000E+00  0.00000000E+00
  0.00000000E+00  0.00000000E+00  0.00000000E+00  0.00000000E+00  0.00000000E+00
  0.00000000E+00  0.00000000E+00  0.00000000E+00  0.00000000E+00  0.00000000E+00
  0.00000000E+00  0.00000000E+00  0.00000000E+00  0.00000000E+00  0.00000000E+00
  0.00000000E+00  0.00000000E+00  0.00000000E+00  0.00000000E+00  0.00000000E+00
  0.00000000E+00  0.00000000E+00  0.00000000E+00  0.00000000E+00  0.00000000E+00
  0.00000000E+00  0.00000000E+00  0.00000000E+00  0.00000000E+00  0.00000000E+00
  0.00000000E+00  0.00000000E+00  0.00000000E+00  0.00000000E+00  0.00000000E+00
  0.00000000E+00  0.00000000E+00  0.00000000E+00  0.00000000E+00  0.00000000E+00
  0.00000000E+00  0.00000000E+00  0.00000000E+00  0.00000000E+00  0.00000000E+00
  0.00000000E+00  0.00000000E+00  0.00000000E+00  0.00000000E+00  0.00000000E+00
  0.00000000E+00  0.00000000E+00  0.00000000E+00  0.00000000E+00  0.00000000E+00
  0.00000000E+00  0.00000000E+00  0.00000000E+00  0.00000000E+00  0.00000000E+00
  0.00000000E+00  0.00000000E+00  0.00000000E+00  0.00000000E+00  0.00000000E+00
  0.00000000E+00  0.00000000E+00  0.00000000E+00  0.00000000E+00  0.00000000E+00
  0.00000000E+00  0.00000000E+00  0.00000000E+00  0.00000000E+00  0.00000000E+00
  0.00000000E+00  0.00000000E+00  0.00000000E+00  0.00000000E+00  0.00000000E+00
  0.00000000E+00  0.00000000E+00  0.00000000E+00  0.00000000E+00  0.00000000E+00
  0.00000000E+00  0.00000000E+00  0.00000000E+00  0.00000000E+00  0.00000000E+00
  0.00000000E+00  0.00000000E+00  0.00000000E+00  0.00000000E+00  0.00000000E+00
  0.00000000E+00  0.00000000E+00  0.00000000E+00  0.00000000E+00  0.00000000E+00
  0.00000000E+00  0.00000000E+00  0.00000000E+00  0.00000000E+00  0.00000000E+00
  0.00000000E+00  0.00000000E+00  0.00000000E+00  0.00000000E+00  0.00000000E+00
  0.00000000E+00  0.00000000E+00  0.00000000E+00  0.00000000E+00  0.00000000E+00
  0.00000000E+00  0.00000000E+00  0.00000000E+00  0.00000000E+00  0.00000000E+00
  0.00000000E+00  0.00000000E+00  0.00000000E+00  0.00000000E+00  0.00000000E+00
  0.00000000E+00  0.00000000E+00  0.00000000E+00  0.00000000E+00  0.00000000E+00
  0.00000000E+00  0.00000000E+00  0.00000000E+00  0.00000000E+00  0.00000000E+00
  0.00000000E+00  0.00000000E+00  0.00000000E+00  0.00000000E+00  0.00000000E+00
  0.00000000E+00  0.00000000E+00  0.00000000E+00  0.00000000E+00  0.00000000E+00
  0.00000000E+00  0.00000000E+00  0.00000000E+00  0.00000000E+00  0.00000000E+00
  0.00000000E+00  0.00000000E+00  0.00000000E+00  0.00000000E+00  0.00000000E+00
  0.00000000E+00  0.00000000E+00  0.00000000E+00  0.00000000E+00  0.00000000E+00
  0.00000000E+00  0.00000000E+00  0.00000000E+00  0.00000000E+00  0.00000000E+00
  0.00000000E+00  0.00000000E+00  0.00000000E+00  0.00000000E+00  0.00000000E+00
  0.00000000E+00  0.00000000E+00  0.00000000E+00  0.00000000E+00  0.00000000E+00
  0.00000000E+00  0.00000000E+00  0.00000000E+00  0.00000000E+00  0.00000000E+00
  0.00000000E+00  0.00000000E+00  0.00000000E+00  0.00000000E+00  0.00000000E+00
  0.00000000E+00  0.00000000E+00  0.00000000E+00  0.00000000E+00  0.00000000E+00
  0.00000000E+00  0.00000000E+00  0.00000000E+00  0.00000000E+00  0.00000000E+00
  0.00000000E+00  0.00000000E+00  0.00000000E+00  0.00000000E+00  0.00000000E+00
  0.00000000E+00  0.00000000E+00  0.00000000E+00  0.00000000E+00  0.00000000E+00
  0.00000000E+00  0.00000000E+00  0.00000000E+00  0.00000000E+00  0.00000000E+00
  0.00000000E+00  0.00000000E+00  0.00000000E+00  0.00000000E+00  0.00000000E+00
  0.00000000E+00  0.00000000E+00  0.00000000E+00  0.00000000E+00  0.00000000E+00
  0.00000000E+00  0.00000000E+00  0.00000000E+00  0.00000000E+00  0.00000000E+00
  0.00000000E+00  0.00000000E+00  0.00000000E+00  0.00000000E+00  0.00000000E+00
  0.00000000E+00  0.00000000E+00  0.00000000E+00  0.00000000E+00  0.00000000E+00
  0.00000000E+00  0.00000000E+00  0.00000000E+00  0.00000000E+00  0.00000000E+00
  0.00000000E+00  0.00000000E+00  0.00000000E+00  0.00000000E+00  0.00000000E+00
  0.00000000E+00  0.00000000E+00  0.00000000E+00  0.00000000E+00  0.00000000E+00
  0.00000000E+00  0.00000000E+00  0.00000000E+00  0.00000000E+00  0.00000000E+00
  0.00000000E+00  0.00000000E+00  0.00000000E+00  0.00000000E+00  0.00000000E+00
  0.00000000E+00  0.00000000E+00  0.00000000E+00  0.00000000E+00  0.00000000E+00
  0.00000000E+00  0.00000000E+00  0.00000000E+00  0.00000000E+00  0.00000000E+00
  0.00000000E+00  0.00000000E+00  0.00000000E+00  0.00000000E+00  0.00000000E+00
  0.00000000E+00  0.00000000E+00  0.00000000E+00  0.00000000E+00  0.00000000E+00
  0.00000000E+00  0.00000000E+00  0.00000000E+00  0.00000000E+00  0.00000000E+00
  0.00000000E+00  0.00000000E+00  0.00000000E+00  0.00000000E+00  0.00000000E+00
  0.00000000E+00  0.00000000E+00  0.00000000E+00  0.00000000E+00  0.00000000E+00
  0.00000000E+00  0.00000000E+00  0.00000000E+00  0.00000000E+00  0.00000000E+00
  0.00000000E+00  0.00000000E+00  0.00000000E+00  0.00000000E+00  0.00000000E+00
  0.00000000E+00  0.00000000E+00  0.00000000E+00  0.00000000E+00  0.00000000E+00
  0.00000000E+00  0.00000000E+00  0.00000000E+00  0.00000000E+00  0.00000000E+00
  0.00000000E+00  0.00000000E+00  0.00000000E+00  0.00000000E+00  0.00000000E+00
  0.00000000E+00  0.00000000E+00  0.00000000E+00  0.00000000E+00  0.00000000E+00
  0.00000000E+00  0.00000000E+00  0.00000000E+00  0.00000000E+00  0.00000000E+00
  0.00000000E+00  0.00000000E+00  0.00000000E+00  0.00000000E+00  0.00000000E+00
  0.00000000E+00  0.00000000E+00  0.00000000E+00  0.00000000E+00  0.00000000E+00
  0.00000000E+00  0.00000000E+00  0.00000000E+00  0.00000000E+00  0.00000000E+00
  0.00000000E+00  0.00000000E+00  0.00000000E+00  0.00000000E+00  0.00000000E+00
  0.00000000E+00  0.00000000E+00  0.00000000E+00  0.00000000E+00  0.00000000E+00
  0.00000000E+00  0.00000000E+00  0.00000000E+00  0.00000000E+00  0.00000000E+00
  0.00000000E+00  0.00000000E+00  0.00000000E+00  0.00000000E+00  0.00000000E+00
  0.00000000E+00  0.00000000E+00  0.00000000E+00  0.00000000E+00  0.00000000E+00
  0.00000000E+00  0.00000000E+00  0.00000000E+00  0.00000000E+00  0.00000000E+00
  0.00000000E+00  0.00000000E+00  0.00000000E+00  0.00000000E+00  0.00000000E+00
  0.00000000E+00  0.00000000E+00  0.00000000E+00  0.00000000E+00  0.00000000E+00
  0.00000000E+00  0.00000000E+00  0.00000000E+00  0.00000000E+00  0.00000000E+00
  0.00000000E+00  0.00000000E+00  0.00000000E+00  0.00000000E+00  0.00000000E+00
  0.00000000E+00  0.00000000E+00  0.00000000E+00  0.00000000E+00  0.00000000E+00
  0.00000000E+00  0.00000000E+00  0.00000000E+00  0.00000000E+00  0.00000000E+00
  0.00000000E+00  0.00000000E+00  0.00000000E+00  0.00000000E+00  0.00000000E+00
  0.00000000E+00  0.00000000E+00  0.00000000E+00  0.00000000E+00  0.00000000E+00
  0.00000000E+00  0.00000000E+00  0.00000000E+00  0.00000000E+00  0.00000000E+00
  0.00000000E+00  0.00000000E+00  0.00000000E+00  0.00000000E+00  0.00000000E+00
  0.00000000E+00  0.00000000E+00  0.00000000E+00  0.00000000E+00  0.00000000E+00
  0.00000000E+00  0.00000000E+00  0.00000000E+00  0.00000000E+00  0.00000000E+00
  0.00000000E+00  0.00000000E+00  0.00000000E+00  0.00000000E+00  0.00000000E+00
  0.00000000E+00  0.00000000E+00  0.00000000E+00  0.00000000E+00  0.00000000E+00
  0.00000000E+00  0.00000000E+00  0.00000000E+00  0.00000000E+00  0.00000000E+00
  0.00000000E+00  0.00000000E+00  0.00000000E+00  0.00000000E+00  0.00000000E+00
  0.00000000E+00  0.00000000E+00  0.00000000E+00  0.00000000E+00  0.00000000E+00
  0.00000000E+00  0.00000000E+00  0.00000000E+00  0.00000000E+00  0.00000000E+00
  0.00000000E+00  0.00000000E+00  0.00000000E+00  0.00000000E+00  0.00000000E+00
  0.00000000E+00  0.00000000E+00  0.00000000E+00  0.00000000E+00  0.00000000E+00
  0.00000000E+00  0.00000000E+00  0.00000000E+00  0.00000000E+00  0.00000000E+00
  0.00000000E+00  0.00000000E+00  0.00000000E+00  0.00000000E+00  0.00000000E+00
  0.00000000E+00  0.00000000E+00  0.00000000E+00  0.00000000E+00  0.00000000E+00
  0.00000000E+00  0.00000000E+00  0.00000000E+00  0.00000000E+00  0.00000000E+00
  0.00000000E+00  0.00000000E+00  0.00000000E+00  0.00000000E+00  0.00000000E+00
  0.00000000E+00  0.00000000E+00  0.00000000E+00  0.00000000E+00  0.00000000E+00
  0.00000000E+00  0.00000000E+00  0.00000000E+00  0.00000000E+00  0.00000000E+00
  0.00000000E+00  0.00000000E+00  0.00000000E+00  0.00000000E+00  0.00000000E+00
  0.00000000E+00  0.00000000E+00  0.00000000E+00  0.00000000E+00  0.00000000E+00
  0.00000000E+00  0.00000000E+00  0.00000000E+00  0.00000000E+00  0.00000000E+00
  0.00000000E+00  0.00000000E+00  0.00000000E+00  0.00000000E+00  0.00000000E+00
  0.00000000E+00  0.00000000E+00  0.00000000E+00  0.00000000E+00  0.00000000E+00
  0.00000000E+00  0.00000000E+00  0.00000000E+00  0.00000000E+00  0.00000000E+00
  0.00000000E+00  0.00000000E+00  0.00000000E+00  0.00000000E+00  0.00000000E+00
  0.00000000E+00  0.00000000E+00  0.00000000E+00  0.00000000E+00  0.00000000E+00
  0.00000000E+00  0.00000000E+00  0.00000000E+00  0.00000000E+00  0.00000000E+00
  0.00000000E+00  0.00000000E+00  0.00000000E+00  0.00000000E+00  0.00000000E+00
  0.00000000E+00  0.00000000E+00  0.00000000E+00  0.00000000E+00  0.00000000E+00
  0.00000000E+00  0.00000000E+00  0.00000000E+00  0.00000000E+00  0.00000000E+00
  0.00000000E+00  0.00000000E+00  0.00000000E+00  0.00000000E+00  0.00000000E+00
Gaussian Version                           C   N=           2
ES64L-G16RevC.01        
