Coordinates from ORCA-job no2 E -204.832780206867                       
FOpt      UB3LYP                                                      6-31G(d)            
Number of atoms                            I                3
Info1-9                                    I   N=           9
          10          10           0           0           0         110
           2          18        -502
Charge                                     I                0
Multiplicity                               I                2
Number of electrons                        I               23
Number of alpha electrons                  I               12
Number of beta electrons                   I               11
Number of basis functions                  I               45
Number of independent functions            I               45
Number of point charges in /Mol/           I                0
Number of translation vectors              I                0
Atomic numbers                             I   N=           3
           7           8           8
Nuclear charges                            R   N=           3
  7.00000000E+00  8.00000000E+00  8.00000000E+00
Current cartesian coordinates              R   N=           9
  1.11022302E-16  6.20546219E-01  1.66533454E-16  2.09125168E+00 -2.71488066E-01
 -1.11022302E-16 -2.09125168E+00 -2.71489876E-01  0.00000000E+00
Force Field                                I                0
Int Atom Types                             I   N=           3
           0           0           0
MM charges                                 R   N=           3
  0.00000000E+00  0.00000000E+00  0.00000000E+00
Integer atomic weights                     I   N=           3
          14          16          16
Real atomic weights                        R   N=           3
  1.40030740E+01  1.59949146E+01  1.59949146E+01
Atom fragment info                         I   N=           3
           0           0           0
Atom residue num                           I   N=           3
           0           0           0
Nuclear spins                              I   N=           3
           2           0           0
Nuclear ZEff                               R   N=           3
 -4.55000000E+00 -5.60000000E+00 -5.60000000E+00
Nuclear QMom                               R   N=           3
  2.04400000E+00  0.00000000E+00  0.00000000E+00
Nuclear GFac                               R   N=           3
  4.03761000E-01  0.00000000E+00  0.00000000E+00
MicOpt                                     I   N=           3
          -1          -1          -1
Number of contracted shells                I               12
Number of primitive shells                 I               33
Pure/Cartesian d shells                    I                1
Pure/Cartesian f shells                    I                0
Highest angular momentum                   I                2
Largest degree of contraction              I                6
Shell types                                I   N=          12
           0          -1          -1           2           0          -1
          -1           2           0          -1          -1           2
Number of primitives per shell             I   N=          12
           6           3           1           1           6           3
           1           1           6           3           1           1
Shell to atom map                          I   N=          12
           1           1           1           1           2           2
           2           2           3           3           3           3
Primitive exponents                        R   N=          33
  4.17351146E+03  6.27457911E+02  1.42902093E+02  4.02343293E+01  1.28202129E+01
  4.39043701E+00  1.16263619E+01  2.71627981E+00  7.72218397E-01  2.12031498E-01
  8.00000000E-01  5.48467166E+03  8.25234946E+02  1.88046958E+02  5.29645000E+01
  1.68975704E+01  5.79963534E+00  1.55396162E+01  3.59993359E+00  1.01376175E+00
  2.70005823E-01  8.00000000E-01  5.48467166E+03  8.25234946E+02  1.88046958E+02
  5.29645000E+01  1.68975704E+01  5.79963534E+00  1.55396162E+01  3.59993359E+00
  1.01376175E+00  2.70005823E-01  8.00000000E-01
Contraction coefficients                   R   N=          33
  1.83477216E-03  1.39946270E-02  6.85865518E-02  2.32240873E-01  4.69069948E-01
  3.60455199E-01 -1.14961182E-01 -1.69117479E-01  1.14585195E+00  1.00000000E+00
  1.00000000E+00  1.83107443E-03  1.39501722E-02  6.84450781E-02  2.32714336E-01
  4.70192898E-01  3.58520853E-01 -1.10777550E-01 -1.48026263E-01  1.13076702E+00
  1.00000000E+00  1.00000000E+00  1.83107443E-03  1.39501722E-02  6.84450781E-02
  2.32714336E-01  4.70192898E-01  3.58520853E-01 -1.10777550E-01 -1.48026263E-01
  1.13076702E+00  1.00000000E+00  1.00000000E+00
P(S=P) Contraction coefficients            R   N=          33
  0.00000000E+00  0.00000000E+00  0.00000000E+00  0.00000000E+00  0.00000000E+00
  0.00000000E+00  6.75797439E-02  3.23907296E-01  7.40895140E-01  1.00000000E+00
  0.00000000E+00  0.00000000E+00  0.00000000E+00  0.00000000E+00  0.00000000E+00
  0.00000000E+00  0.00000000E+00  7.08742682E-02  3.39752839E-01  7.27158577E-01
  1.00000000E+00  0.00000000E+00  0.00000000E+00  0.00000000E+00  0.00000000E+00
  0.00000000E+00  0.00000000E+00  0.00000000E+00  7.08742682E-02  3.39752839E-01
  7.27158577E-01  1.00000000E+00  0.00000000E+00
Coordinates of each shell                  R   N=          36
  3.05311332E-16  6.20546219E-01  8.32667268E-17  3.05311332E-16  6.20546219E-01
  8.32667268E-17  3.05311332E-16  6.20546219E-01  8.32667268E-17  3.05311332E-16
  6.20546219E-01  8.32667268E-17  2.09125168E+00 -2.71488066E-01 -2.22044605E-16
  2.09125168E+00 -2.71488066E-01 -2.22044605E-16  2.09125168E+00 -2.71488066E-01
 -2.22044605E-16  2.09125168E+00 -2.71488066E-01 -2.22044605E-16 -2.09125168E+00
 -2.71489876E-01  3.33066907E-16 -2.09125168E+00 -2.71489876E-01  3.33066907E-16
 -2.09125168E+00 -2.71489876E-01  3.33066907E-16 -2.09125168E+00 -2.71489876E-01
  3.33066907E-16
Constraint Structure                       R   N=           9
 -2.22044605E-16  6.04531876E-01 -2.77555756E-17  2.07804848E+00 -2.64475586E-01
 -5.55111512E-16 -2.07804848E+00 -2.64489805E-01  1.11022302E-15
Num ILSW                                   I              100
ILSW                                       I   N=         100
           1           1           0           0           2           0
           0           0           0           0         402          -1
           0           0           0           0           0           0
           0           0           0           0           1           0
           1           0           0           0           0           0
           0           0      100000           0          -1           0
           0           0           0           0           0           0
           0           0           0           1           0           0
           0           0           1           0           0           0
           0           0           4          40           0           0
           0           0           5           0           0           0
           0           0           0           0           0           0
           0           0           0           0           0           0
           0           0           0           0           0           0
           0           0           0           0           0           0
           0           0           0           0           0           0
           0           0           0           0
Num RLSW                                   I               40
RLSW                                       R   N=          40
  8.00000000E-01  7.20000000E-01  1.00000000E+00  8.10000000E-01  2.00000000E-01
  0.00000000E+00  0.00000000E+00  1.00000000E+00  0.00000000E+00  0.00000000E+00
  0.00000000E+00  0.00000000E+00  1.00000000E+00  0.00000000E+00  0.00000000E+00
  0.00000000E+00  0.00000000E+00  1.00000000E+00  0.00000000E+00  0.00000000E+00
  0.00000000E+00  0.00000000E+00  1.00000000E+00  0.00000000E+00  0.00000000E+00
  0.00000000E+00  0.00000000E+00  1.00000000E+00  0.00000000E+00  0.00000000E+00
  0.00000000E+00  0.00000000E+00  0.00000000E+00  0.00000000E+00  0.00000000E+00
  0.00000000E+00  0.00000000E+00  0.00000000E+00  1.00000000E+00  1.00000000E+00
MxBond                                     I                2
NBond                                      I   N=           3
           2           1           1
IBond                                      I   N=           6
           2           3           1           0           1           0
RBond                                      R   N=           6
  2.00000000E+00  2.00000000E+00  2.00000000E+00  0.00000000E+00  2.00000000E+00
  0.00000000E+00
Virial Ratio                               R      2.008586375169813E+00
SCF Energy                                 R     -2.050722060894756E+02
Total Energy                               R     -2.050722060894756E+02
S**2                                       R      7.532980818492749E-01
S**2 after annihilation                    R      7.500072968047988E-01
RMS Force                                  R      8.760590321888051E-05
RMS Density                                R      5.763723900463998E-09
External E-field                           R   N=          35
  0.00000000E+00  0.00000000E+00  0.00000000E+00  0.00000000E+00  0.00000000E+00
  0.00000000E+00  0.00000000E+00  0.00000000E+00  0.00000000E+00  0.00000000E+00
  0.00000000E+00  0.00000000E+00  0.00000000E+00  0.00000000E+00  0.00000000E+00
  0.00000000E+00  0.00000000E+00  0.00000000E+00  0.00000000E+00  0.00000000E+00
  0.00000000E+00  0.00000000E+00  0.00000000E+00  0.00000000E+00  0.00000000E+00
  0.00000000E+00  0.00000000E+00  0.00000000E+00  0.00000000E+00  0.00000000E+00
  0.00000000E+00  0.00000000E+00  0.00000000E+00  0.00000000E+00  0.00000000E+00
IOpCl                                      I                1
IROHF                                      I                0
Alpha Orbital Energies                     R   N=          45
 -1.92656286E+01 -1.92656190E+01 -1.45871581E+01 -1.28186448E+00 -1.13634097E+00
 -6.78245303E-01 -5.74953905E-01 -5.72018830E-01 -5.64992732E-01 -3.81493165E-01
 -3.77433330E-01 -2.87782043E-01 -9.02827697E-02  2.10459948E-01  3.69469542E-01
  5.83814610E-01  5.90692036E-01  5.92870945E-01  6.11790392E-01  7.79790221E-01
  8.20166135E-01  8.79432539E-01  8.89042355E-01  9.38038029E-01  9.52455460E-01
  1.27305884E+00  1.37165934E+00  1.38996986E+00  1.39937145E+00  1.46792643E+00
  1.71168849E+00  1.73082408E+00  1.81274917E+00  1.83223159E+00  1.83334864E+00
  2.19685521E+00  2.32473338E+00  2.64123225E+00  2.69437305E+00  2.70376850E+00
  2.77150749E+00  2.85842101E+00  3.40618123E+00  3.62591431E+00  3.70461191E+00
Beta Orbital Energies                      R   N=          45
 -1.92567195E+01 -1.92567023E+01 -1.45765256E+01 -1.26317468E+00 -1.11482550E+00
 -6.44868789E-01 -5.54060167E-01 -5.48234449E-01 -5.29790506E-01 -3.69833263E-01
 -3.41000363E-01 -1.43181899E-01 -7.37972380E-02  2.23715457E-01  3.95198688E-01
  5.96915840E-01  5.98845905E-01  6.19696715E-01  6.20700496E-01  7.85630363E-01
  8.38041192E-01  8.83745415E-01  9.14714276E-01  9.44642189E-01  9.69093717E-01
  1.28877902E+00  1.37682728E+00  1.40281551E+00  1.42014016E+00  1.48853768E+00
  1.72948150E+00  1.74229796E+00  1.83394859E+00  1.84271793E+00  1.85512532E+00
  2.21398779E+00  2.33491180E+00  2.67000032E+00  2.71450766E+00  2.71468136E+00
  2.78126701E+00  2.87527003E+00  3.42421132E+00  3.63842108E+00  3.72430170E+00
Alpha MO coefficients                      R   N=        2025
  6.94658744E-07  4.23278234E-06  1.49232800E-04 -1.19998484E-07  0.00000000E+00
 -2.49027305E-05 -3.29553610E-03  6.09118164E-06  0.00000000E+00 -6.13445256E-06
  8.97935698E-07  1.92835844E-06  6.40688083E-04  0.00000000E+00  0.00000000E+00
  7.05546003E-01  1.85989215E-02 -9.45914644E-04  3.43609413E-04  0.00000000E+00
  9.19224449E-03 -9.70269367E-04  6.07931184E-04  0.00000000E+00 -5.30337679E-03
 -5.61933982E-03 -5.70357348E-03 -9.36699680E-05  0.00000000E+00  0.00000000E+00
 -6.98428234E-01 -1.84096415E-02 -9.35541197E-04 -3.38707041E-04  0.00000000E+00
 -9.10625608E-03 -9.59217033E-04 -6.03893044E-04  0.00000000E+00  5.25034117E-03
  5.56519349E-03  5.64666763E-03 -8.98777211E-05  0.00000000E+00  0.00000000E+00
  1.37007131E-04  8.34982133E-04 -7.57477386E-07 -2.37820363E-05  0.00000000E+00
 -4.91153358E-03  1.67043464E-05  1.20159623E-03  0.00000000E+00 -1.20968882E-03
  1.77071599E-04  3.80345810E-04 -3.24785707E-06  0.00000000E+00  0.00000000E+00
  6.98462216E-01  1.85747482E-02 -1.01821202E-03  4.81801343E-04  0.00000000E+00
  8.43408108E-03 -1.08494072E-03  3.95197038E-04  0.00000000E+00 -5.20419501E-03
 -5.31202718E-03 -5.58375774E-03 -3.73521747E-04  0.00000000E+00  0.00000000E+00
  7.05579643E-01  1.87623623E-02  1.02774858E-03  4.85260574E-04  0.00000000E+00
  8.52684021E-03  1.09472044E-03  4.01340368E-04  0.00000000E+00 -5.25769764E-03
 -5.36872615E-03 -5.64129716E-03  3.74452049E-04  0.00000000E+00  0.00000000E+00
  9.92796281E-01  3.48065401E-02  2.64516487E-09 -1.20114072E-03  0.00000000E+00
  4.46676747E-03  1.06930669E-09 -8.00351227E-05  0.00000000E+00 -7.58850143E-03
 -7.90502838E-03 -8.26737236E-03 -6.02509975E-10  0.00000000E+00  0.00000000E+00
 -4.01292364E-06  4.56228446E-04 -1.09486698E-04  5.30293991E-05  0.00000000E+00
 -1.39814730E-03  5.87505417E-04 -2.19251946E-04  0.00000000E+00 -2.83170139E-04
  1.96143958E-04  2.80538325E-04  2.01438556E-04  0.00000000E+00  0.00000000E+00
 -4.01280005E-06  4.56228028E-04  1.09487406E-04  5.30297162E-05  0.00000000E+00
 -1.39814403E-03 -5.87503367E-04 -2.19251622E-04  0.00000000E+00 -2.83168562E-04
  1.96143346E-04  2.80537810E-04 -2.01438310E-04  0.00000000E+00  0.00000000E+00
 -1.55682063E-01  3.50841377E-01  4.74917531E-07 -1.06872836E-01  0.00000000E+00
  1.29474989E-01 -2.36991168E-08 -1.17582845E-03  0.00000000E+00  2.04094532E-02
 -6.45600697E-03 -1.61736211E-02 -3.06142109E-08  0.00000000E+00  0.00000000E+00
 -1.14356624E-01  2.60778051E-01 -1.28514600E-01  4.78864452E-02  0.00000000E+00
  1.89726860E-01 -4.68951993E-02  1.45409210E-02  0.00000000E+00  1.91533958E-02
 -2.80445009E-03 -5.06729577E-03 -9.92573363E-03  0.00000000E+00  0.00000000E+00
 -1.14356279E-01  2.60777286E-01  1.28514217E-01  4.78863699E-02  0.00000000E+00
  1.89726211E-01  4.68950735E-02  1.45408866E-02  0.00000000E+00  1.91533778E-02
 -2.80443167E-03 -5.06727610E-03  9.92572931E-03  0.00000000E+00  0.00000000E+00
  1.59376738E-07 -3.71468291E-07  3.22481575E-01  2.21501916E-07  0.00000000E+00
 -2.13990166E-07 -5.20320820E-03  7.71486240E-09  0.00000000E+00 -3.47893315E-09
 -2.17190066E-08  9.51047744E-09 -3.10809411E-02  0.00000000E+00  0.00000000E+00
 -1.44529540E-01  3.26863945E-01 -1.11672372E-01  6.48165037E-02  0.00000000E+00
  3.02964680E-01 -4.76679195E-02  3.00877911E-02  0.00000000E+00  3.20987741E-03
  1.98742746E-04 -7.73127559E-03 -1.12151739E-02  0.00000000E+00  0.00000000E+00
  1.44529826E-01 -3.26864615E-01 -1.11672596E-01 -6.48166601E-02  0.00000000E+00
 -3.02965203E-01 -4.76680184E-02 -3.00878517E-02  0.00000000E+00 -3.20991182E-03
 -1.98751303E-04  7.73128598E-03 -1.12151984E-02  0.00000000E+00  0.00000000E+00
  1.37500564E-01 -3.46312693E-01  3.05933995E-08 -1.22502626E-01  0.00000000E+00
 -3.87778097E-01  2.30596088E-08 -3.91265136E-02  0.00000000E+00  1.51926477E-02
  7.10269174E-03  1.58076179E-03 -6.04967125E-09  0.00000000E+00  0.00000000E+00
 -1.14639142E-01  2.55191458E-01  1.82076113E-01 -1.40027049E-01  0.00000000E+00
  4.00801151E-01  6.30793874E-02 -6.24388227E-02  0.00000000E+00 -2.02026553E-02
 -6.64338496E-03 -1.60188992E-03  1.52132557E-02  0.00000000E+00  0.00000000E+00
 -1.14639082E-01  2.55191325E-01 -1.82075803E-01 -1.40027021E-01  0.00000000E+00
  4.00800914E-01 -6.30792511E-02 -6.24387958E-02  0.00000000E+00 -2.02026226E-02
 -6.64340205E-03 -1.60189714E-03 -1.52132492E-02  0.00000000E+00  0.00000000E+00
 -1.61127175E-02  2.59139102E-02  3.83751494E-07  4.65776131E-01  0.00000000E+00
  9.43693578E-02  8.60448556E-08  2.03624459E-01  0.00000000E+00  1.78243911E-02
 -2.57096913E-02  3.49853634E-03  4.32762799E-08  0.00000000E+00  0.00000000E+00
 -3.46559145E-02  7.31824088E-02  2.41550884E-01  2.09913175E-01  0.00000000E+00
  1.38733056E-01  1.18642038E-01  1.11108743E-01  0.00000000E+00 -2.60713759E-02
  1.32556437E-02  9.26075778E-04 -1.16803539E-02  0.00000000E+00  0.00000000E+00
 -3.46561605E-02  7.31829368E-02 -2.41551611E-01  2.09911901E-01  0.00000000E+00
  1.38733982E-01 -1.18642372E-01  1.11108104E-01  0.00000000E+00 -2.60714257E-02
  1.32556195E-02  9.26076792E-04  1.16802542E-02  0.00000000E+00  0.00000000E+00
  8.62612238E-08 -1.86593117E-07  3.60324483E-01 -6.41378590E-07  0.00000000E+00
 -4.32955016E-07  8.58254780E-02 -2.92655080E-07  0.00000000E+00 -1.40227247E-08
  2.76922678E-08 -1.07010012E-08 -5.08842057E-03  0.00000000E+00  0.00000000E+00
  7.99439189E-02 -1.70562418E-01 -2.93597186E-01  2.27638831E-01  0.00000000E+00
 -3.07685982E-01 -1.35777314E-01  1.13063466E-01  0.00000000E+00  1.81812773E-02
  5.61611520E-03 -1.33531260E-03 -1.58007735E-02  0.00000000E+00  0.00000000E+00
 -7.99438843E-02  1.70562357E-01 -2.93596295E-01 -2.27639638E-01  0.00000000E+00
  3.07685787E-01 -1.35776866E-01 -1.13063880E-01  0.00000000E+00 -1.81811894E-02
 -5.61617785E-03  1.33530081E-03 -1.58008154E-02  0.00000000E+00  0.00000000E+00
  0.00000000E+00  0.00000000E+00  0.00000000E+00  0.00000000E+00  4.69473384E-01
  0.00000000E+00  0.00000000E+00  0.00000000E+00  2.25314033E-01  0.00000000E+00
  0.00000000E+00  0.00000000E+00  0.00000000E+00  4.91224059E-08 -1.98762063E-02
  0.00000000E+00  0.00000000E+00  0.00000000E+00  0.00000000E+00  3.13327414E-01
  0.00000000E+00  0.00000000E+00  0.00000000E+00  1.66575787E-01  0.00000000E+00
  0.00000000E+00  0.00000000E+00  0.00000000E+00 -2.79463279E-02  1.10355032E-02
  0.00000000E+00  0.00000000E+00  0.00000000E+00  0.00000000E+00  3.13326882E-01
  0.00000000E+00  0.00000000E+00  0.00000000E+00  1.66575502E-01  0.00000000E+00
  0.00000000E+00  0.00000000E+00  0.00000000E+00  2.79462850E-02  1.10355081E-02
  8.80554674E-09 -1.81625705E-08 -5.33917151E-02 -2.03229979E-07  0.00000000E+00
  3.08781266E-08  6.72237723E-02 -1.43870212E-07  0.00000000E+00 -2.31049239E-08
  3.56957120E-08 -3.05169519E-09  4.13487239E-02  0.00000000E+00  0.00000000E+00
 -2.67342002E-03  7.69013235E-03  2.91936740E-01  4.02476822E-01  0.00000000E+00
 -2.34653365E-02  2.00931852E-01  2.49558234E-01  0.00000000E+00 -1.70334181E-02
  1.32790267E-02  1.67706125E-03 -9.45157370E-03  0.00000000E+00  0.00000000E+00
  2.67344649E-03 -7.69017816E-03  2.91937318E-01 -4.02476859E-01  0.00000000E+00
  2.34651452E-02  2.00932181E-01 -2.49558247E-01  0.00000000E+00  1.70334509E-02
 -1.32790456E-02 -1.67706092E-03 -9.45156026E-03  0.00000000E+00  0.00000000E+00
  0.00000000E+00  0.00000000E+00  0.00000000E+00  0.00000000E+00 -1.82222508E-07
  0.00000000E+00  0.00000000E+00  0.00000000E+00 -1.69028512E-07  0.00000000E+00
  0.00000000E+00  0.00000000E+00  0.00000000E+00  5.07428583E-02  2.70130670E-08
  0.00000000E+00  0.00000000E+00  0.00000000E+00  0.00000000E+00  4.81898017E-01
  0.00000000E+00  0.00000000E+00  0.00000000E+00  3.25586639E-01  0.00000000E+00
  0.00000000E+00  0.00000000E+00  0.00000000E+00 -1.98727682E-02  8.75819454E-03
  0.00000000E+00  0.00000000E+00  0.00000000E+00  0.00000000E+00 -4.81898425E-01
  0.00000000E+00  0.00000000E+00  0.00000000E+00 -3.25586885E-01  0.00000000E+00
  0.00000000E+00  0.00000000E+00  0.00000000E+00 -1.98727873E-02 -8.75821723E-03
 -7.05295532E-02  1.35019843E-01 -1.83113587E-07  4.09395322E-01  0.00000000E+00
  5.40889784E-01 -3.16615903E-08  2.10989242E-01  0.00000000E+00 -5.75434475E-02
  1.74444005E-02  3.67600776E-03 -3.94981758E-08  0.00000000E+00  0.00000000E+00
  1.44056912E-02 -5.39861717E-02  4.78615382E-02 -4.22519443E-01  0.00000000E+00
 -7.44090970E-02  3.78279876E-02 -3.17594528E-01  0.00000000E+00 -6.85474352E-03
 -6.33339619E-04 -1.88725564E-03  3.72243912E-03  0.00000000E+00  0.00000000E+00
  1.44056816E-02 -5.39861680E-02 -4.78614622E-02 -4.22519525E-01  0.00000000E+00
 -7.44089749E-02 -3.78279122E-02 -3.17594548E-01  0.00000000E+00 -6.85475444E-03
 -6.33347608E-04 -1.88725983E-03 -3.72244953E-03  0.00000000E+00  0.00000000E+00
  0.00000000E+00  0.00000000E+00  0.00000000E+00  0.00000000E+00  5.72045871E-01
  0.00000000E+00  0.00000000E+00  0.00000000E+00  4.68643551E-01  0.00000000E+00
  0.00000000E+00  0.00000000E+00  0.00000000E+00 -1.06820582E-08  1.24472919E-02
  0.00000000E+00  0.00000000E+00  0.00000000E+00  0.00000000E+00 -3.90339446E-01
  0.00000000E+00  0.00000000E+00  0.00000000E+00 -3.55145783E-01  0.00000000E+00
  0.00000000E+00  0.00000000E+00  0.00000000E+00 -9.30169517E-03  6.56528910E-03
  0.00000000E+00  0.00000000E+00  0.00000000E+00  0.00000000E+00 -3.90339314E-01
  0.00000000E+00  0.00000000E+00  0.00000000E+00 -3.55145609E-01  0.00000000E+00
  0.00000000E+00  0.00000000E+00  0.00000000E+00  9.30168841E-03  6.56529649E-03
 -1.25166295E-01  2.37442054E-01 -6.53063435E-07 -4.31845966E-01  0.00000000E+00
  2.01947596E+00 -7.37582191E-07 -8.38727295E-01  0.00000000E+00 -7.31461113E-02
 -7.87564831E-03  2.26628295E-02 -6.72661055E-08  0.00000000E+00  0.00000000E+00
  7.47645015E-02 -1.98992746E-01  3.92666713E-01  3.99100795E-03  0.00000000E+00
 -8.90853039E-01  7.46397708E-01 -4.51722667E-02  0.00000000E+00  6.99820987E-03
 -1.95655653E-02  6.62769622E-03  1.13090888E-02  0.00000000E+00  0.00000000E+00
  7.47646312E-02 -1.98993050E-01 -3.92667313E-01  3.99015538E-03  0.00000000E+00
 -8.90854230E-01 -7.46398588E-01 -4.51736926E-02  0.00000000E+00  6.99823096E-03
 -1.95655457E-02  6.62767640E-03 -1.13090137E-02  0.00000000E+00  0.00000000E+00
 -1.05037542E-07 -1.41083030E-07  5.61606580E-01 -6.96591238E-08  0.00000000E+00
  4.93536504E-06  2.45402074E+00 -6.54158141E-07  0.00000000E+00 -7.06650699E-08
 -6.21429376E-08 -4.19569225E-08  1.95148141E-02  0.00000000E+00  0.00000000E+00
  8.31689105E-02 -1.98469938E-01  1.49427574E-01 -2.18271871E-01  0.00000000E+00
 -1.64394219E+00  8.36874912E-01 -6.01431829E-01  0.00000000E+00 -2.44849465E-02
  1.61459364E-02 -4.80912805E-03 -2.49365710E-03  0.00000000E+00  0.00000000E+00
 -8.31687211E-02  1.98469266E-01  1.49426920E-01  2.18272141E-01  0.00000000E+00
  1.64393813E+00  8.36871924E-01  6.01431872E-01  0.00000000E+00  2.44847611E-02
 -1.61460376E-02  4.80912794E-03 -2.49372771E-03  0.00000000E+00  0.00000000E+00
  1.49206116E-02 -1.07822112E+00 -4.73316317E-08 -2.99699297E-01  0.00000000E+00
  1.59918261E+00 -9.55873763E-07  3.49133048E-01  0.00000000E+00 -1.60445685E-01
 -1.88123986E-01 -1.90912055E-01 -1.69678975E-08  0.00000000E+00  0.00000000E+00
 -1.00754640E-02 -3.11666992E-01 -1.24558572E-01  7.78039709E-02  0.00000000E+00
  3.02680139E-01  2.86193583E-02 -1.08850493E-01  0.00000000E+00 -1.50665188E-01
 -1.11681750E-01 -7.31954317E-02  7.41039353E-02  0.00000000E+00  0.00000000E+00
 -1.00753998E-02 -3.11667380E-01  1.24558396E-01  7.78038548E-02  0.00000000E+00
  3.02679465E-01 -2.86200567E-02 -1.08850951E-01  0.00000000E+00 -1.50665217E-01
 -1.11681887E-01 -7.31955309E-02 -7.41039274E-02  0.00000000E+00  0.00000000E+00
  3.00088388E-03 -2.36853869E-01  1.11841480E-05  7.12897815E-01  0.00000000E+00
  1.61071947E+00 -3.16283684E-05 -1.53307516E+00  0.00000000E+00  1.77048174E-01
 -7.93822936E-02 -3.97766502E-02  1.98445271E-06  0.00000000E+00  0.00000000E+00
  8.28755082E-03 -1.43960675E-01 -9.65711369E-02  2.43144301E-01  0.00000000E+00
 -5.87088308E-01  5.73222444E-01 -1.12566753E-01  0.00000000E+00 -1.98919315E-01
 -1.43238656E-02  3.29965495E-03  4.16509360E-02  0.00000000E+00  0.00000000E+00
  8.28738652E-03 -1.43963376E-01  9.65794532E-02  2.43144685E-01  0.00000000E+00
 -5.87115614E-01 -5.73233850E-01 -1.12574843E-01  0.00000000E+00 -1.98924054E-01
 -1.43249248E-02  3.29987501E-03 -4.16543451E-02  0.00000000E+00  0.00000000E+00
  1.25499733E-07 -3.64398546E-06 -7.89423072E-01  1.03765820E-05  0.00000000E+00
  2.30802541E-05  2.13450635E+00 -2.14770234E-05  0.00000000E+00  2.77341738E-06
 -1.25202528E-06 -6.35956573E-07 -1.29422690E-01  0.00000000E+00  0.00000000E+00
 -8.17980032E-03 -8.40641570E-02 -2.90748291E-01  1.68005713E-02  0.00000000E+00
 -9.07713077E-01  3.65552125E-01 -2.46052554E-01  0.00000000E+00 -1.63049524E-01
 -3.29665799E-02  9.64056142E-03  1.10552997E-01  0.00000000E+00  0.00000000E+00
  8.17995003E-03  8.40602030E-02 -2.90745190E-01 -1.67936272E-02  0.00000000E+00
  9.07696086E-01  3.65536156E-01  2.46049791E-01  0.00000000E+00  1.63043487E-01
  3.29663794E-02 -9.64042964E-03  1.10551858E-01  0.00000000E+00  0.00000000E+00
  0.00000000E+00  0.00000000E+00  0.00000000E+00  0.00000000E+00 -8.51411840E-01
  0.00000000E+00  0.00000000E+00  0.00000000E+00  1.19572928E+00  0.00000000E+00
  0.00000000E+00  0.00000000E+00  0.00000000E+00 -3.74228904E-08  4.27731847E-02
  0.00000000E+00  0.00000000E+00  0.00000000E+00  0.00000000E+00 -2.26527791E-01
  0.00000000E+00  0.00000000E+00  0.00000000E+00 -5.73990420E-02  0.00000000E+00
  0.00000000E+00  0.00000000E+00  0.00000000E+00  6.09701822E-02 -2.14513467E-02
  0.00000000E+00  0.00000000E+00  0.00000000E+00  0.00000000E+00 -2.26527734E-01
  0.00000000E+00  0.00000000E+00  0.00000000E+00 -5.73991561E-02  0.00000000E+00
  0.00000000E+00  0.00000000E+00  0.00000000E+00 -6.09700769E-02 -2.14513545E-02
  4.10039136E-02  3.44908717E-01  2.81589232E-07 -2.05355050E-01  0.00000000E+00
  8.88402379E-01 -2.51846275E-07 -1.93149488E-01  0.00000000E+00  3.45324199E-01
  7.07105330E-02 -2.79380681E-02 -1.81705135E-07  0.00000000E+00  0.00000000E+00
  1.58405230E-02 -1.67277245E-01 -5.11183136E-01 -4.12405181E-02  0.00000000E+00
 -1.99609285E-01  1.08516307E+00 -2.13256549E-01  0.00000000E+00 -1.22863483E-01
 -7.62071782E-02 -6.31219446E-02  1.27880940E-02  0.00000000E+00  0.00000000E+00
  1.58405465E-02 -1.67276144E-01  5.11181911E-01 -4.12411671E-02  0.00000000E+00
 -1.99610888E-01 -1.08516062E+00 -2.13256231E-01  0.00000000E+00 -1.22863014E-01
 -7.62066592E-02 -6.31215590E-02 -1.27880028E-02  0.00000000E+00  0.00000000E+00
 -3.63864332E-08 -4.98543379E-07  1.74132862E-01  3.08993541E-07  0.00000000E+00
 -1.17400028E-06 -4.01785191E-01  4.62414406E-07  0.00000000E+00 -3.69219339E-07
 -2.51778546E-07  1.61383811E-08 -1.39602497E-01  0.00000000E+00  0.00000000E+00
 -4.57716804E-03 -3.83051409E-01 -3.55214886E-01  4.12472727E-01  0.00000000E+00
  8.09494292E-01  5.14031867E-01 -4.15553709E-01  0.00000000E+00 -1.28121380E-01
 -1.58612310E-01 -1.36557657E-01 -3.05726585E-03  0.00000000E+00  0.00000000E+00
  4.57711542E-03  3.83051993E-01 -3.55216292E-01 -4.12472446E-01  0.00000000E+00
 -8.09493786E-01  5.14034858E-01  4.15553974E-01  0.00000000E+00  1.28121645E-01
  1.58612583E-01  1.36557868E-01 -3.05728603E-03  0.00000000E+00  0.00000000E+00
  0.00000000E+00  0.00000000E+00  0.00000000E+00  0.00000000E+00  2.62601151E-07
  0.00000000E+00  0.00000000E+00  0.00000000E+00 -8.00551019E-07  0.00000000E+00
  0.00000000E+00  0.00000000E+00  0.00000000E+00 -8.71609757E-02  2.69977141E-09
  0.00000000E+00  0.00000000E+00  0.00000000E+00  0.00000000E+00 -6.53329356E-01
  0.00000000E+00  0.00000000E+00  0.00000000E+00  8.14737942E-01  0.00000000E+00
  0.00000000E+00  0.00000000E+00  0.00000000E+00  2.99031217E-02  3.87923057E-03
  0.00000000E+00  0.00000000E+00  0.00000000E+00  0.00000000E+00  6.53328789E-01
  0.00000000E+00  0.00000000E+00  0.00000000E+00 -8.14736730E-01  0.00000000E+00
  0.00000000E+00  0.00000000E+00  0.00000000E+00  2.99031285E-02 -3.87922443E-03
  2.34932372E-02  2.63974974E-01 -1.06442461E-07 -2.52322770E-01  0.00000000E+00
 -6.90035328E-01  3.88655839E-07  1.08654250E+00  0.00000000E+00  1.76709469E-01
  3.57584375E-02 -5.10939132E-02  2.18505045E-07  0.00000000E+00  0.00000000E+00
 -3.38458818E-03 -1.52012107E-02  1.49706605E-01  5.55555771E-01  0.00000000E+00
  3.97758769E-01 -3.08232153E-01 -9.24023911E-01  0.00000000E+00  2.21726653E-03
  1.22331906E-02 -7.13020366E-02 -1.24846790E-02  0.00000000E+00  0.00000000E+00
 -3.38459522E-03 -1.52015370E-02 -1.49706593E-01  5.55555690E-01  0.00000000E+00
  3.97760006E-01  3.08232357E-01 -9.24023145E-01  0.00000000E+00  2.21720390E-03
  1.22330313E-02 -7.13021609E-02  1.24847034E-02  0.00000000E+00  0.00000000E+00
  0.00000000E+00  0.00000000E+00  0.00000000E+00  0.00000000E+00  2.79883926E-01
  0.00000000E+00  0.00000000E+00  0.00000000E+00 -1.01464252E+00  0.00000000E+00
  0.00000000E+00  0.00000000E+00  0.00000000E+00 -4.27419114E-08 -4.04265155E-02
  0.00000000E+00  0.00000000E+00  0.00000000E+00  0.00000000E+00 -6.12012827E-01
  0.00000000E+00  0.00000000E+00  0.00000000E+00  1.01994529E+00  0.00000000E+00
  0.00000000E+00  0.00000000E+00  0.00000000E+00  1.60403526E-02 -4.89368776E-02
  0.00000000E+00  0.00000000E+00  0.00000000E+00  0.00000000E+00 -6.12013541E-01
  0.00000000E+00  0.00000000E+00  0.00000000E+00  1.01994595E+00  0.00000000E+00
  0.00000000E+00  0.00000000E+00  0.00000000E+00 -1.60403655E-02 -4.89368644E-02
  2.05116839E-09  3.89804351E-08 -1.58148262E-01 -1.45207817E-07  0.00000000E+00
  4.07505761E-07  9.77461789E-01  2.46151443E-07  0.00000000E+00 -2.04227558E-08
  7.46908748E-08  2.20257146E-08  1.58492925E-01  0.00000000E+00  0.00000000E+00
  4.75103033E-03  1.70423866E-02  3.39063350E-01  4.70374866E-01  0.00000000E+00
 -5.22088213E-01 -4.34208613E-01 -8.05582392E-01  0.00000000E+00 -7.11449520E-02
  7.97744861E-02  4.44999663E-02 -4.75714201E-02  0.00000000E+00  0.00000000E+00
 -4.75101639E-03 -1.70424093E-02  3.39064069E-01 -4.70375075E-01  0.00000000E+00
  5.22087756E-01 -4.34209720E-01  8.05582454E-01  0.00000000E+00  7.11450396E-02
 -7.97746100E-02 -4.44999472E-02 -4.75712895E-02  0.00000000E+00  0.00000000E+00
 -1.05973277E-02 -6.03218604E-01  1.93944992E-07 -7.99959252E-02  0.00000000E+00
  4.65454750E+00 -1.44865334E-06 -1.22888441E+00  0.00000000E+00  1.36019364E-01
 -4.55114091E-01  2.29045093E-01  2.10913821E-07  0.00000000E+00  0.00000000E+00
  6.33676460E-02  9.52592703E-01 -1.22481611E-01  4.07545710E-02  0.00000000E+00
 -3.40637734E+00  1.35906977E+00 -4.01281381E-01  0.00000000E+00  1.77003508E-01
  1.16600754E-01  4.68267105E-01 -1.26257214E-01  0.00000000E+00  0.00000000E+00
  6.33677397E-02  9.52594284E-01  1.22482093E-01  4.07550055E-02  0.00000000E+00
 -3.40638158E+00 -1.35907108E+00 -4.01283739E-01  0.00000000E+00  1.77003905E-01
  1.16601694E-01  4.68267112E-01  1.26257433E-01  0.00000000E+00  0.00000000E+00
  0.00000000E+00  0.00000000E+00  0.00000000E+00  0.00000000E+00  3.01306035E-07
  0.00000000E+00  0.00000000E+00  0.00000000E+00 -3.62201876E-07  0.00000000E+00
  0.00000000E+00  0.00000000E+00  0.00000000E+00  5.80632511E-01  2.17016550E-06
  0.00000000E+00  0.00000000E+00  0.00000000E+00  0.00000000E+00 -1.39576270E-01
  0.00000000E+00  0.00000000E+00  0.00000000E+00 -5.81607770E-02  0.00000000E+00
  0.00000000E+00  0.00000000E+00  0.00000000E+00 -3.16375457E-01  2.63679122E-01
  0.00000000E+00  0.00000000E+00  0.00000000E+00  0.00000000E+00  1.39576108E-01
  0.00000000E+00  0.00000000E+00  0.00000000E+00  5.81616134E-02  0.00000000E+00
  0.00000000E+00  0.00000000E+00  0.00000000E+00 -3.16377013E-01 -2.63678077E-01
 -1.76608735E-08  1.67238766E-07  1.82473265E-01  1.87773457E-07  0.00000000E+00
 -4.49170617E-06 -3.52605015E+00 -4.06047870E-07  0.00000000E+00 -2.68971290E-07
  6.80562437E-07 -3.28457860E-07  9.20912966E-02  0.00000000E+00  0.00000000E+00
 -6.48585250E-02 -1.19324544E+00  2.52147478E-01 -1.58934835E-01  0.00000000E+00
  4.27874968E+00 -1.40485775E+00  9.95463016E-01  0.00000000E+00 -3.52090978E-01
 -4.16939273E-01 -1.06759958E-01  8.94080607E-02  0.00000000E+00  0.00000000E+00
  6.48584431E-02  1.19324415E+00  2.52147346E-01  1.58935131E-01  0.00000000E+00
 -4.27874359E+00 -1.40485519E+00 -9.95463319E-01  0.00000000E+00  3.52090929E-01
  4.16939295E-01  1.06759141E-01  8.94075703E-02  0.00000000E+00  0.00000000E+00
  0.00000000E+00  0.00000000E+00  0.00000000E+00  0.00000000E+00  1.63671706E-01
  0.00000000E+00  0.00000000E+00  0.00000000E+00 -1.73991768E-01  0.00000000E+00
  0.00000000E+00  0.00000000E+00  0.00000000E+00 -1.85025109E-06  7.04788711E-01
  0.00000000E+00  0.00000000E+00  0.00000000E+00  0.00000000E+00  1.68932065E-02
  0.00000000E+00  0.00000000E+00  0.00000000E+00  1.34323779E-01  0.00000000E+00
  0.00000000E+00  0.00000000E+00  0.00000000E+00  3.08199142E-01  2.46834911E-01
  0.00000000E+00  0.00000000E+00  0.00000000E+00  0.00000000E+00  1.68922771E-02
  0.00000000E+00  0.00000000E+00  0.00000000E+00  1.34323579E-01  0.00000000E+00
  0.00000000E+00  0.00000000E+00  0.00000000E+00 -3.08197357E-01  2.46835872E-01
  2.79079496E-03 -4.50741846E-01 -1.16395036E-07  1.88261061E-01  0.00000000E+00
  3.33509470E+00  1.80180177E-06 -1.06966403E+00  0.00000000E+00 -4.82602982E-02
  4.88217365E-01 -4.15547100E-01 -2.28192489E-07  0.00000000E+00  0.00000000E+00
  3.55904599E-02  7.00351899E-01 -1.20948503E-01  8.99950509E-02  0.00000000E+00
 -2.41746042E+00  1.07389999E+00 -1.74282260E-01  0.00000000E+00  3.72006406E-01
  8.81653018E-02  1.59658393E-04  2.74358792E-01  0.00000000E+00  0.00000000E+00
  3.55904156E-02  7.00350848E-01  1.20948206E-01  8.99948996E-02  0.00000000E+00
 -2.41745623E+00 -1.07389855E+00 -1.74282259E-01  0.00000000E+00  3.72006525E-01
  8.81643042E-02  1.59860599E-04 -2.74358536E-01  0.00000000E+00  0.00000000E+00
  2.62324663E-08  3.80889181E-07 -1.64741004E-02  9.09195613E-08  0.00000000E+00
 -3.69918647E-07  1.81859223E+00  9.99291005E-07  0.00000000E+00  7.30570663E-08
  9.36012437E-08 -4.86817332E-09 -3.55252745E-01  0.00000000E+00  0.00000000E+00
  2.04083347E-02  2.92987276E-01  1.29756234E-01  4.57791105E-02  0.00000000E+00
 -1.66802706E+00  4.40382382E-01 -4.34015731E-01  0.00000000E+00  1.21258204E-01
 -5.23715455E-01  5.32272282E-01 -1.43894874E-01  0.00000000E+00  0.00000000E+00
 -2.04083718E-02 -2.92987395E-01  1.29756282E-01 -4.57787769E-02  0.00000000E+00
  1.66802735E+00  4.40382462E-01  4.34015846E-01  0.00000000E+00 -1.21257875E-01
  5.23714794E-01 -5.32272100E-01 -1.43895758E-01  0.00000000E+00  0.00000000E+00
  0.00000000E+00  0.00000000E+00  0.00000000E+00  0.00000000E+00 -3.04199000E-08
  0.00000000E+00  0.00000000E+00  0.00000000E+00 -7.52688957E-08  0.00000000E+00
  0.00000000E+00  0.00000000E+00  0.00000000E+00 -8.79718931E-03 -2.45477830E-07
  0.00000000E+00  0.00000000E+00  0.00000000E+00  0.00000000E+00  3.95303678E-02
  0.00000000E+00  0.00000000E+00  0.00000000E+00 -4.64641302E-02  0.00000000E+00
  0.00000000E+00  0.00000000E+00  0.00000000E+00  4.15917283E-01  5.73228665E-01
  0.00000000E+00  0.00000000E+00  0.00000000E+00  0.00000000E+00 -3.95304320E-02
  0.00000000E+00  0.00000000E+00  0.00000000E+00  4.64641971E-02  0.00000000E+00
  0.00000000E+00  0.00000000E+00  0.00000000E+00  4.15918060E-01 -5.73228242E-01
 -4.33738467E-02 -4.06818859E-01  2.29087218E-07 -8.26035499E-02  0.00000000E+00
  2.40341547E+00  2.17836760E-06 -9.25726293E-01  0.00000000E+00  2.68594593E-01
 -3.43868795E-01 -1.01987124E-01 -6.62294687E-08  0.00000000E+00  0.00000000E+00
  2.03929194E-02  2.58365670E-01  6.00534766E-02 -1.37991171E-01  0.00000000E+00
 -1.42119748E+00  6.22796843E-01  3.70056600E-02  0.00000000E+00 -7.27555976E-03
  6.11554491E-01 -4.98222800E-01 -3.23506021E-02  0.00000000E+00  0.00000000E+00
  2.03928928E-02  2.58365256E-01 -6.00530182E-02 -1.37991246E-01  0.00000000E+00
 -1.42119383E+00 -6.22795992E-01  3.70060280E-02  0.00000000E+00 -7.27597547E-03
  6.11555067E-01 -4.98223093E-01  3.23504549E-02  0.00000000E+00  0.00000000E+00
  0.00000000E+00  0.00000000E+00  0.00000000E+00  0.00000000E+00 -1.53529194E-01
  0.00000000E+00  0.00000000E+00  0.00000000E+00 -2.13275990E-01  0.00000000E+00
  0.00000000E+00  0.00000000E+00  0.00000000E+00  1.35152436E-07 -3.19351157E-01
  0.00000000E+00  0.00000000E+00  0.00000000E+00  0.00000000E+00 -8.88284442E-02
  0.00000000E+00  0.00000000E+00  0.00000000E+00  1.58343828E-01  0.00000000E+00
  0.00000000E+00  0.00000000E+00  0.00000000E+00 -1.30588679E-01  6.74529554E-01
  0.00000000E+00  0.00000000E+00  0.00000000E+00  0.00000000E+00 -8.88283825E-02
  0.00000000E+00  0.00000000E+00  0.00000000E+00  1.58343739E-01  0.00000000E+00
  0.00000000E+00  0.00000000E+00  0.00000000E+00  1.30588063E-01  6.74529858E-01
  1.16775044E-08  4.58802125E-07  1.07787664E-01  9.17575092E-08  0.00000000E+00
 -3.80922857E-07  1.76615749E+00  8.99943658E-07  0.00000000E+00  2.33281003E-07
 -1.46719865E-07  8.66917521E-08 -4.16653308E-01  0.00000000E+00  0.00000000E+00
  2.64574199E-02  5.92769240E-02  2.91756712E-01  8.99181951E-02  0.00000000E+00
 -1.34512327E+00  2.04367100E-01 -4.99054672E-01  0.00000000E+00  3.93693504E-01
 -7.09965221E-02 -2.57127778E-01  4.80383472E-01  0.00000000E+00  0.00000000E+00
 -2.64574518E-02 -5.92771888E-02  2.91756668E-01 -8.99178491E-02  0.00000000E+00
  1.34512361E+00  2.04367146E-01  4.99054638E-01  0.00000000E+00 -3.93694341E-01
  7.09967475E-02  2.57128179E-01  4.80383020E-01  0.00000000E+00  0.00000000E+00
 -9.41665761E-02 -4.43464226E-01  4.68815368E-07  1.38712345E-03  0.00000000E+00
  2.02442732E+00  1.11521243E-06 -9.41029605E-01  0.00000000E+00  3.72540922E-01
  1.84123180E-01 -1.08547707E+00  7.46002086E-08  0.00000000E+00  0.00000000E+00
  3.77624452E-03 -2.93828323E-02  2.24666451E-01 -1.70983549E-01  0.00000000E+00
 -8.33228258E-01  3.38315299E-01  2.05095411E-01  0.00000000E+00 -1.09344560E-01
 -1.37429577E-01  1.17103098E-01 -4.37390312E-01  0.00000000E+00  0.00000000E+00
  3.77627152E-03 -2.93831269E-02 -2.24666255E-01 -1.70983708E-01  0.00000000E+00
 -8.33226387E-01 -3.38314799E-01  2.05095546E-01  0.00000000E+00 -1.09344908E-01
 -1.37428623E-01  1.17102628E-01  4.37390770E-01  0.00000000E+00  0.00000000E+00
  0.00000000E+00  0.00000000E+00  0.00000000E+00  0.00000000E+00 -1.86663631E-01
  0.00000000E+00  0.00000000E+00  0.00000000E+00 -6.24012560E-01  0.00000000E+00
  0.00000000E+00  0.00000000E+00  0.00000000E+00 -1.12022389E-07  7.56867426E-01
  0.00000000E+00  0.00000000E+00  0.00000000E+00  0.00000000E+00 -6.52696528E-02
  0.00000000E+00  0.00000000E+00  0.00000000E+00  4.25468081E-01  0.00000000E+00
  0.00000000E+00  0.00000000E+00  0.00000000E+00 -7.37632956E-01  3.33432810E-02
  0.00000000E+00  0.00000000E+00  0.00000000E+00  0.00000000E+00 -6.52697129E-02
  0.00000000E+00  0.00000000E+00  0.00000000E+00  4.25468023E-01  0.00000000E+00
  0.00000000E+00  0.00000000E+00  0.00000000E+00  7.37633039E-01  3.33441730E-02
  9.06450201E-08 -6.39215739E-07 -6.87160743E-02  6.46826782E-07  0.00000000E+00
 -2.60811125E-06 -2.48260250E-02  1.13262092E-06  0.00000000E+00 -1.13659413E-06
  6.07640828E-07  7.37782514E-07  1.22269859E+00  0.00000000E+00  0.00000000E+00
  1.52478504E-02  3.54996280E-01 -3.55425017E-01  1.04981578E-01  0.00000000E+00
 -3.62865816E-01  6.54358165E-02 -2.78576129E-01  0.00000000E+00  5.08619001E-01
 -3.57905205E-01  2.02547788E-01  3.48830712E-01  0.00000000E+00  0.00000000E+00
 -1.52478065E-02 -3.54996641E-01 -3.55424386E-01 -1.04981720E-01  0.00000000E+00
  3.62868768E-01  6.54375170E-02  2.78576162E-01  0.00000000E+00 -5.08617865E-01
  3.57905130E-01 -2.02548133E-01  3.48830105E-01  0.00000000E+00  0.00000000E+00
  1.00372670E-01  1.37783018E-01 -1.83285997E-06 -4.98553608E-01  0.00000000E+00
  2.79399919E+00 -3.00776592E-06 -1.34490638E+00  0.00000000E+00  1.90975871E-01
  9.77326855E-01  8.08535148E-02  1.26580728E-06  0.00000000E+00  0.00000000E+00
  5.11449667E-02  6.07337711E-01 -2.45034848E-02  1.41597484E-02  0.00000000E+00
 -2.40175963E+00  1.41978484E+00 -1.16793468E-01  0.00000000E+00 -8.31963011E-01
  6.09385416E-01  4.56728639E-01  4.97961204E-02  0.00000000E+00  0.00000000E+00
  5.11449718E-02  6.07339653E-01  2.45029974E-02  1.41596780E-02  0.00000000E+00
 -2.40176656E+00 -1.41978855E+00 -1.16796733E-01  0.00000000E+00 -8.31966265E-01
  6.09386285E-01  4.56729864E-01 -4.97992740E-02  0.00000000E+00  0.00000000E+00
  0.00000000E+00  0.00000000E+00  0.00000000E+00  0.00000000E+00  3.26131816E-07
  0.00000000E+00  0.00000000E+00  0.00000000E+00  3.81422928E-07  0.00000000E+00
  0.00000000E+00  0.00000000E+00  0.00000000E+00  1.16186549E+00  1.12131251E-07
  0.00000000E+00  0.00000000E+00  0.00000000E+00  0.00000000E+00 -6.76898190E-02
  0.00000000E+00  0.00000000E+00  0.00000000E+00 -2.85617914E-01  0.00000000E+00
  0.00000000E+00  0.00000000E+00  0.00000000E+00  6.45905134E-01 -4.03531982E-01
  0.00000000E+00  0.00000000E+00  0.00000000E+00  0.00000000E+00  6.76896234E-02
  0.00000000E+00  0.00000000E+00  0.00000000E+00  2.85617398E-01  0.00000000E+00
  0.00000000E+00  0.00000000E+00  0.00000000E+00  6.45904155E-01  4.03532184E-01
 -5.07268529E-07 -5.76733662E-07 -1.18102028E+00  5.46792278E-07  0.00000000E+00
 -3.06117204E-06 -1.92207083E+00  1.08816669E-06  0.00000000E+00 -3.72039827E-07
 -2.27057964E-06 -1.32573494E-06  5.09431785E-01  0.00000000E+00  0.00000000E+00
 -4.83343273E-03 -6.61635104E-01 -7.58835769E-02 -5.28568105E-03  0.00000000E+00
  2.30536058E+00 -1.22556056E+00  6.66318627E-01  0.00000000E+00  8.40941604E-01
 -1.59963774E-01 -4.03541790E-01 -5.73701294E-01  0.00000000E+00  0.00000000E+00
  4.83320114E-03  6.61633566E-01 -7.58835116E-02  5.28544340E-03  0.00000000E+00
 -2.30535299E+00 -1.22555578E+00 -6.66319133E-01  0.00000000E+00 -8.40938120E-01
  1.59960531E-01  4.03540172E-01 -5.73702186E-01  0.00000000E+00  0.00000000E+00
 -1.57611644E-01  1.08573310E+00  1.28281094E-06 -3.46403318E-01  0.00000000E+00
  3.12143865E+00  9.44241293E-07 -5.37817023E-01  0.00000000E+00  8.54435020E-01
 -9.50295161E-01 -9.14900334E-01  1.20021628E-06  0.00000000E+00  0.00000000E+00
 -1.36440501E-02  3.45691593E-01  2.32506041E-01 -1.66014855E-01  0.00000000E+00
 -1.56881465E+00  9.53983109E-01 -4.56596292E-01  0.00000000E+00 -5.42723284E-01
 -1.81649652E-01  2.00356881E-01  7.24779386E-01  0.00000000E+00  0.00000000E+00
 -1.36440154E-02  3.45691063E-01 -2.32505771E-01 -1.66014759E-01  0.00000000E+00
 -1.56881203E+00 -9.53981451E-01 -4.56596108E-01  0.00000000E+00 -5.42721690E-01
 -1.81650179E-01  2.00356368E-01 -7.24778575E-01  0.00000000E+00  0.00000000E+00
 -2.13656222E-01  7.55610922E-01 -1.48866063E-07  1.60215799E-01  0.00000000E+00
 -2.05852878E+00  4.21016742E-07  6.26640127E-01  0.00000000E+00 -1.61046393E+00
 -4.40226942E-01 -4.02769763E-01 -4.68858483E-07  0.00000000E+00  0.00000000E+00
 -2.49013229E-01  1.61193020E-01 -2.23072210E-01  1.34548450E-01  0.00000000E+00
  2.84345694E+00 -9.50699861E-01  4.09569281E-01  0.00000000E+00 -4.82526292E-01
 -7.02848509E-01 -9.25019707E-01 -4.46136673E-01  0.00000000E+00  0.00000000E+00
 -2.49013551E-01  1.61192404E-01  2.23071698E-01  1.34548345E-01  0.00000000E+00
  2.84345966E+00  9.50700351E-01  4.09570456E-01  0.00000000E+00 -4.82527236E-01
 -7.02849008E-01 -9.25020978E-01  4.46137230E-01  0.00000000E+00  0.00000000E+00
 -3.74571907E-07  6.44143657E-07 -2.03167738E-02  2.51427049E-07  0.00000000E+00
 -2.25394824E-07 -2.56521787E+00 -9.71686820E-07  0.00000000E+00 -2.25582116E-06
 -8.17274674E-07 -9.67352419E-07  8.69294571E-02  0.00000000E+00  0.00000000E+00
 -3.74664197E-01 -2.08815184E-01  1.39160493E-01 -8.28628093E-02  0.00000000E+00
  4.74093429E+00 -1.14707397E+00  7.19452134E-01  0.00000000E+00 -9.98841683E-01
 -1.22058418E+00 -1.38132622E+00 -1.83327918E-01  0.00000000E+00  0.00000000E+00
  3.74664328E-01  2.08815215E-01  1.39161228E-01  8.28633200E-02  0.00000000E+00
 -4.74093343E+00 -1.14707262E+00 -7.19452171E-01  0.00000000E+00  9.98842951E-01
  1.22058479E+00  1.38132646E+00 -1.83327213E-01  0.00000000E+00  0.00000000E+00
 -3.29534544E-01  6.03456700E-01 -2.39010698E-07  2.05678051E-01  0.00000000E+00
  3.72159702E+00  2.97807694E-06 -9.05605873E-01  0.00000000E+00 -1.78195753E+00
 -8.25241872E-01 -1.00963378E+00 -4.99960731E-07  0.00000000E+00  0.00000000E+00
  2.54574410E-01  2.37799830E-01 -3.70331687E-01  1.76451238E-01  0.00000000E+00
 -3.00928600E+00  6.35574944E-01  3.00041258E-02  0.00000000E+00  9.08456538E-01
  1.04576676E+00  7.90017554E-01 -2.68412993E-01  0.00000000E+00  0.00000000E+00
  2.54573729E-01  2.37798633E-01  3.70331009E-01  1.76451153E-01  0.00000000E+00
 -3.00927623E+00 -6.35572406E-01  3.00050369E-02  0.00000000E+00  9.08454767E-01
  1.04576490E+00  7.90015051E-01  2.68413302E-01  0.00000000E+00  0.00000000E+00
Beta MO coefficients                       R   N=        2025
  3.92779052E-07  2.42543225E-06  1.41258344E-04  5.32806094E-08  0.00000000E+00
 -1.38180120E-05 -2.92091872E-03  3.49725668E-06  0.00000000E+00 -3.42143252E-06
  4.37822041E-07  1.06228685E-06  6.77091880E-04  0.00000000E+00  0.00000000E+00
  7.04218731E-01  1.82990168E-02 -9.53567300E-04  2.99738347E-04  0.00000000E+00
  8.51544700E-03 -8.45348379E-04  5.19071875E-04  0.00000000E+00 -5.03413870E-03
 -5.51839092E-03 -5.42887025E-03 -5.14662211E-05  0.00000000E+00  0.00000000E+00
 -7.00010095E-01 -1.81889840E-02 -9.47508891E-04 -2.97192414E-04  0.00000000E+00
 -8.46706689E-03 -8.39229793E-04 -5.16867767E-04  0.00000000E+00  5.00412341E-03
  5.48674233E-03  5.39661299E-03 -4.95295561E-05  0.00000000E+00  0.00000000E+00
  1.31022957E-04  8.09338163E-04 -4.24316603E-07  1.75873083E-05  0.00000000E+00
 -4.60937870E-03  8.75159358E-06  1.16697616E-03  0.00000000E+00 -1.14095388E-03
  1.45979066E-04  3.54382888E-04 -2.02911952E-06  0.00000000E+00  0.00000000E+00
  7.00034678E-01  1.83023597E-02 -1.00764691E-03  4.23870326E-04  0.00000000E+00
  8.04507035E-03 -1.01784051E-03  3.66133688E-04  0.00000000E+00 -4.99259933E-03
 -5.26346465E-03 -5.36522702E-03 -3.22881359E-04  0.00000000E+00  0.00000000E+00
  7.04243167E-01  1.84117142E-02  1.01334303E-03  4.25659560E-04  0.00000000E+00
  8.09596186E-03  1.02288735E-03  3.69238295E-04  0.00000000E+00 -5.02268462E-03
 -5.29644627E-03 -5.39767047E-03  3.23183855E-04  0.00000000E+00  0.00000000E+00
  9.92981875E-01  3.40767893E-02  2.79902954E-09 -1.58511513E-03  0.00000000E+00
  4.27142863E-03  1.04065341E-09  4.36607184E-05  0.00000000E+00 -6.94909260E-03
 -7.89208732E-03 -7.90102397E-03 -2.91229539E-10  0.00000000E+00  0.00000000E+00
 -1.23903027E-05  3.91111492E-04 -2.73565139E-05 -3.07206785E-06  0.00000000E+00
 -1.34096911E-03  6.22394259E-04 -3.10372590E-04  0.00000000E+00 -3.47115719E-04
  1.61699284E-04  2.64863093E-04  2.91187657E-04  0.00000000E+00  0.00000000E+00
 -1.23901617E-05  3.91111209E-04  2.73572879E-05 -3.07175215E-06  0.00000000E+00
 -1.34096583E-03 -6.22392203E-04 -3.10372264E-04  0.00000000E+00 -3.47114160E-04
  1.61698562E-04  2.64862613E-04 -2.91187469E-04  0.00000000E+00  0.00000000E+00
 -1.55016852E-01  3.45577745E-01  4.92692798E-07 -1.19541773E-01  0.00000000E+00
  1.31473716E-01 -1.99323030E-08 -5.02461795E-03  0.00000000E+00  2.52546359E-02
 -9.76853424E-03 -1.52963200E-02 -2.97298165E-08  0.00000000E+00  0.00000000E+00
 -1.13491148E-01  2.54736538E-01 -1.29834235E-01  3.89442119E-02  0.00000000E+00
  1.91001463E-01 -4.83173757E-02  1.39322740E-02  0.00000000E+00  2.06687073E-02
 -6.21017152E-03 -3.71601423E-03 -8.60836317E-03  0.00000000E+00  0.00000000E+00
 -1.13490796E-01  2.54735765E-01  1.29833842E-01  3.89441514E-02  0.00000000E+00
  1.91000793E-01  4.83172413E-02  1.39322390E-02  0.00000000E+00  2.06686843E-02
 -6.21014840E-03 -3.71599792E-03  8.60835946E-03  0.00000000E+00  0.00000000E+00
  1.64864455E-07 -3.79942957E-07  3.27740362E-01  2.45847266E-07  0.00000000E+00
 -2.29222578E-07  1.03092272E-03  1.71886776E-08  0.00000000E+00 -9.55047809E-09
 -1.71668408E-08  8.94007930E-09 -3.22718926E-02  0.00000000E+00  0.00000000E+00
 -1.43478258E-01  3.20694567E-01 -1.13678670E-01  5.39235196E-02  0.00000000E+00
  3.02223763E-01 -4.88337204E-02  2.83344894E-02  0.00000000E+00  5.63460349E-03
 -3.48491038E-03 -5.47254899E-03 -1.06857445E-02  0.00000000E+00  0.00000000E+00
  1.43478547E-01 -3.20695228E-01 -1.13678911E-01 -5.39236460E-02  0.00000000E+00
 -3.02224298E-01 -4.88338253E-02 -2.83345462E-02  0.00000000E+00 -5.63464447E-03
  3.48491545E-03  5.47255491E-03 -1.06857651E-02  0.00000000E+00  0.00000000E+00
  1.28835378E-01 -3.24094649E-01 -5.82297766E-08 -6.40348803E-03  0.00000000E+00
 -3.48053151E-01  1.05129556E-08  1.57121388E-03  0.00000000E+00  1.20125102E-02
  9.05609652E-03 -1.25748539E-04 -1.73272119E-09  0.00000000E+00  0.00000000E+00
 -1.18483159E-01  2.62043653E-01  2.26610413E-01 -1.03507369E-01  0.00000000E+00
  4.18983515E-01  8.99125496E-02 -4.89308319E-02  0.00000000E+00 -2.24150572E-02
 -8.89644379E-03  1.32208604E-03  1.36766900E-02  0.00000000E+00  0.00000000E+00
 -1.18483080E-01  2.62043478E-01 -2.26610002E-01 -1.03507368E-01  0.00000000E+00
  4.18983213E-01 -8.99123601E-02 -4.89308168E-02  0.00000000E+00 -2.24150189E-02
 -8.89645943E-03  1.32207661E-03 -1.36766873E-02  0.00000000E+00  0.00000000E+00
  0.00000000E+00  0.00000000E+00  0.00000000E+00  0.00000000E+00  4.58567455E-01
  0.00000000E+00  0.00000000E+00  0.00000000E+00  2.22796103E-01  0.00000000E+00
  0.00000000E+00  0.00000000E+00  0.00000000E+00  5.24176922E-08 -2.64659415E-02
  0.00000000E+00  0.00000000E+00  0.00000000E+00  0.00000000E+00  3.15743139E-01
  0.00000000E+00  0.00000000E+00  0.00000000E+00  1.72287404E-01  0.00000000E+00
  0.00000000E+00  0.00000000E+00  0.00000000E+00 -2.83497838E-02  1.08969503E-02
  0.00000000E+00  0.00000000E+00  0.00000000E+00  0.00000000E+00  3.15742582E-01
  0.00000000E+00  0.00000000E+00  0.00000000E+00  1.72287101E-01  0.00000000E+00
  0.00000000E+00  0.00000000E+00  0.00000000E+00  2.83497396E-02  1.08969548E-02
  5.61689168E-08 -1.41523800E-07  3.70002012E-01  3.48996512E-07  0.00000000E+00
 -2.58457251E-07  9.14879445E-02  1.53338922E-07  0.00000000E+00  3.09595147E-08
 -3.22537584E-08 -3.43763767E-09 -1.08131138E-02  0.00000000E+00  0.00000000E+00
  8.06378540E-02 -1.70887555E-01 -3.14626966E-01  1.81389352E-01  0.00000000E+00
 -3.17246000E-01 -1.51424078E-01  9.23127766E-02  0.00000000E+00  1.79407085E-02
  9.46119167E-03 -2.60309447E-03 -1.59064572E-02  0.00000000E+00  0.00000000E+00
 -8.06379765E-02  1.70887819E-01 -3.14627142E-01 -1.81389257E-01  0.00000000E+00
  3.17246443E-01 -1.51424158E-01 -9.23127085E-02  0.00000000E+00 -1.79407318E-02
 -9.46120406E-03  2.60308863E-03 -1.59064491E-02  0.00000000E+00  0.00000000E+00
 -4.35548589E-02  8.78109076E-02 -3.56003725E-07  4.31849415E-01  0.00000000E+00
  1.65098964E-01 -9.81363309E-08  2.08091698E-01  0.00000000E+00  2.82726947E-02
 -4.05250842E-02  5.91290571E-03  7.14901708E-08  0.00000000E+00  0.00000000E+00
 -1.32357734E-02  2.03714681E-02  2.00315362E-01  2.46412671E-01  0.00000000E+00
  6.48611040E-02  1.05588929E-01  1.42738681E-01  0.00000000E+00 -2.29063531E-02
  1.34387512E-02  5.10879467E-04 -1.59934009E-02  0.00000000E+00  0.00000000E+00
 -1.32356965E-02  2.03713170E-02 -2.00314905E-01  2.46412309E-01  0.00000000E+00
  6.48607836E-02 -1.05588710E-01  1.42738480E-01  0.00000000E+00 -2.29063346E-02
  1.34387578E-02  5.10875508E-04  1.59933636E-02  0.00000000E+00  0.00000000E+00
  0.00000000E+00  0.00000000E+00  0.00000000E+00  0.00000000E+00 -1.94620365E-07
  0.00000000E+00  0.00000000E+00  0.00000000E+00 -1.79650341E-07  0.00000000E+00
  0.00000000E+00  0.00000000E+00  0.00000000E+00  5.09352529E-02  3.08367756E-08
  0.00000000E+00  0.00000000E+00  0.00000000E+00  0.00000000E+00  4.79187929E-01
  0.00000000E+00  0.00000000E+00  0.00000000E+00  3.28767007E-01  0.00000000E+00
  0.00000000E+00  0.00000000E+00  0.00000000E+00 -2.01521266E-02  8.20096352E-03
  0.00000000E+00  0.00000000E+00  0.00000000E+00  0.00000000E+00 -4.79188340E-01
  0.00000000E+00  0.00000000E+00  0.00000000E+00 -3.28767262E-01  0.00000000E+00
  0.00000000E+00  0.00000000E+00  0.00000000E+00 -2.01521477E-02 -8.20098605E-03
  2.91793964E-08 -6.29963779E-08  6.93983985E-03 -1.64201193E-07  0.00000000E+00
 -5.70582078E-08  1.23371540E-01 -1.24279270E-07  0.00000000E+00 -2.35478802E-08
  4.10968978E-08 -6.29928744E-09  4.21890145E-02  0.00000000E+00  0.00000000E+00
  5.32708613E-03 -1.06242886E-02  2.69554638E-01  4.02977029E-01  0.00000000E+00
 -8.27916836E-02  2.04208872E-01  2.60623237E-01  0.00000000E+00 -1.48606586E-02
  1.52859035E-02  2.22248238E-03 -1.32766728E-02  0.00000000E+00  0.00000000E+00
 -5.32707913E-03  1.06242953E-02  2.69555244E-01 -4.02977049E-01  0.00000000E+00
  8.27915571E-02  2.04209237E-01 -2.60623244E-01  0.00000000E+00  1.48606918E-02
 -1.52859243E-02 -2.22248201E-03 -1.32766606E-02  0.00000000E+00  0.00000000E+00
 -7.56128429E-02  1.19822922E-01 -1.73688146E-07  4.15029910E-01  0.00000000E+00
  6.29547403E-01 -1.31678599E-08  2.48196046E-01  0.00000000E+00 -5.09674787E-02
 -9.42268742E-04  4.67107482E-03 -2.49675372E-08  0.00000000E+00  0.00000000E+00
  1.74345265E-02 -6.57743193E-02  5.24066343E-02 -3.92622787E-01  0.00000000E+00
 -8.93758266E-02  4.74309202E-02 -3.37483834E-01  0.00000000E+00 -1.23214920E-02
 -1.04524955E-03 -4.76546251E-03  2.63899240E-03  0.00000000E+00  0.00000000E+00
  1.74345151E-02 -6.57743115E-02 -5.24065424E-02 -3.92622903E-01  0.00000000E+00
 -8.93756480E-02 -4.74308120E-02 -3.37483884E-01  0.00000000E+00 -1.23215063E-02
 -1.04526086E-03 -4.76546909E-03 -2.63900876E-03  0.00000000E+00  0.00000000E+00
  0.00000000E+00  0.00000000E+00  0.00000000E+00  0.00000000E+00  5.74299757E-01
  0.00000000E+00  0.00000000E+00  0.00000000E+00  4.78112447E-01  0.00000000E+00
  0.00000000E+00  0.00000000E+00  0.00000000E+00 -6.97094151E-09  2.57962938E-03
  0.00000000E+00  0.00000000E+00  0.00000000E+00  0.00000000E+00 -3.85940422E-01
  0.00000000E+00  0.00000000E+00  0.00000000E+00 -3.56664672E-01  0.00000000E+00
  0.00000000E+00  0.00000000E+00  0.00000000E+00 -1.04684637E-02  7.67134758E-03
  0.00000000E+00  0.00000000E+00  0.00000000E+00  0.00000000E+00 -3.85940303E-01
  0.00000000E+00  0.00000000E+00  0.00000000E+00 -3.56664506E-01  0.00000000E+00
  0.00000000E+00  0.00000000E+00  0.00000000E+00  1.04684553E-02  7.67135484E-03
 -1.24138043E-01  2.35446542E-01 -5.49372466E-07 -4.22477332E-01  0.00000000E+00
  2.05172359E+00 -3.92586552E-07 -8.76425865E-01  0.00000000E+00 -7.24233437E-02
 -5.99117254E-03  2.11406635E-02 -5.26950860E-08  0.00000000E+00  0.00000000E+00
  7.58570266E-02 -1.98181030E-01  3.88094544E-01  9.52811622E-03  0.00000000E+00
 -9.15377951E-01  7.59871669E-01 -5.00728368E-02  0.00000000E+00  4.97239368E-03
 -1.72664514E-02  5.25766831E-03  1.10948530E-02  0.00000000E+00  0.00000000E+00
  7.58571303E-02 -1.98181278E-01 -3.88095063E-01  9.52730957E-03  0.00000000E+00
 -9.15378666E-01 -7.59872317E-01 -5.00742051E-02  0.00000000E+00  4.97240994E-03
 -1.72664379E-02  5.25764050E-03 -1.10947833E-02  0.00000000E+00  0.00000000E+00
 -8.15712214E-08 -2.18243396E-07  5.29520055E-01  5.88509178E-09  0.00000000E+00
  4.72129598E-06  2.55636621E+00 -5.41731636E-07  0.00000000E+00 -4.37299106E-08
 -7.78437917E-08 -5.64954474E-08  3.99805782E-03  0.00000000E+00  0.00000000E+00
  8.30369124E-02 -2.03808531E-01  1.28398802E-01 -2.16436884E-01  0.00000000E+00
 -1.68949071E+00  8.63989889E-01 -6.46984819E-01  0.00000000E+00 -3.47964639E-02
  1.52485499E-02 -9.28395657E-03  6.44509469E-04  0.00000000E+00  0.00000000E+00
 -8.30367482E-02  2.03807910E-01  1.28398304E-01  2.16437175E-01  0.00000000E+00
  1.68948686E+00  8.63987077E-01  6.46984931E-01  0.00000000E+00  3.47962470E-02
 -1.52486368E-02  9.28394979E-03  6.44445267E-04  0.00000000E+00  0.00000000E+00
  1.49903471E-02 -1.03529102E+00  8.98481789E-06  1.57036036E-01  0.00000000E+00
  2.19681879E+00 -2.43192171E-05 -6.03730580E-01  0.00000000E+00 -4.19522472E-02
 -1.97295814E-01 -1.84745858E-01  1.46026850E-06  0.00000000E+00  0.00000000E+00
 -4.92784289E-03 -3.39110381E-01 -1.60971915E-01  1.93489360E-01  0.00000000E+00
 -6.65264701E-02  3.36542073E-01 -1.11824632E-01  0.00000000E+00 -2.38094357E-01
 -1.01374091E-01 -5.87535135E-02  8.35681720E-02  0.00000000E+00  0.00000000E+00
 -4.92800166E-03 -3.39112506E-01  1.60978267E-01  1.93489571E-01  0.00000000E+00
 -6.65468962E-02 -3.36550490E-01 -1.11830292E-01  0.00000000E+00 -2.38098028E-01
 -1.01375017E-01 -5.87533638E-02 -8.35707798E-02  0.00000000E+00  0.00000000E+00
  2.60104449E-07 -1.25347784E-05 -8.10798192E-01  6.66896617E-07  0.00000000E+00
  2.37016501E-05  2.03451075E+00 -3.90115651E-06  0.00000000E+00 -6.62491302E-07
 -2.38373808E-06 -2.26832697E-06 -1.24889258E-01  0.00000000E+00  0.00000000E+00
 -1.14440322E-02 -7.24246264E-02 -2.89151046E-01  1.60449262E-02  0.00000000E+00
 -8.45831368E-01  3.21402804E-01 -2.06078383E-01  0.00000000E+00 -1.60366076E-01
 -3.34862032E-02  1.20916712E-02  1.10422621E-01  0.00000000E+00  0.00000000E+00
  1.14437848E-02  7.24169841E-02 -2.89147156E-01 -1.60411358E-02  0.00000000E+00
  8.45832122E-01  3.21397391E-01  2.06076497E-01  0.00000000E+00  1.60360675E-01
  3.34839551E-02 -1.20931072E-02  1.10420773E-01  0.00000000E+00  0.00000000E+00
  0.00000000E+00  0.00000000E+00  0.00000000E+00  0.00000000E+00 -8.52382661E-01
  0.00000000E+00  0.00000000E+00  0.00000000E+00  1.18737460E+00  0.00000000E+00
  0.00000000E+00  0.00000000E+00  0.00000000E+00 -3.96859221E-08  4.54871617E-02
  0.00000000E+00  0.00000000E+00  0.00000000E+00  0.00000000E+00 -2.30248649E-01
  0.00000000E+00  0.00000000E+00  0.00000000E+00 -5.10393449E-02  0.00000000E+00
  0.00000000E+00  0.00000000E+00  0.00000000E+00  6.15268889E-02 -2.07004618E-02
  0.00000000E+00  0.00000000E+00  0.00000000E+00  0.00000000E+00 -2.30248586E-01
  0.00000000E+00  0.00000000E+00  0.00000000E+00 -5.10394726E-02  0.00000000E+00
  0.00000000E+00  0.00000000E+00  0.00000000E+00 -6.15267823E-02 -2.07004705E-02
  4.17079190E-03 -4.10059412E-01  1.39849210E-06 -7.69386619E-01  0.00000000E+00
 -4.84915116E-01 -3.02311060E-06  1.45030478E+00  0.00000000E+00 -2.66058258E-01
 -3.67535107E-02 -8.06449197E-02  7.30620716E-08  0.00000000E+00  0.00000000E+00
 -1.30874537E-02 -6.57173457E-02  2.01652907E-02 -1.59189158E-01  0.00000000E+00
  6.92474509E-01 -4.84785187E-01  5.49475758E-02  0.00000000E+00  8.50552835E-02
 -5.52308146E-02 -4.87735791E-02  8.09663178E-03  0.00000000E+00  0.00000000E+00
 -1.30875127E-02 -6.57175716E-02 -2.01644289E-02 -1.59189083E-01  0.00000000E+00
  6.92472396E-01  4.84784458E-01  5.49474620E-02  0.00000000E+00  8.50547909E-02
 -5.52309110E-02 -4.87735496E-02 -8.09678136E-03  0.00000000E+00  0.00000000E+00
  4.10693929E-02  3.29650106E-01  2.17691046E-07 -2.19176910E-01  0.00000000E+00
  9.04901412E-01 -2.60937419E-07 -1.84730980E-01  0.00000000E+00  3.37451948E-01
  6.93695798E-02 -3.13203349E-02 -1.54770648E-07  0.00000000E+00  0.00000000E+00
  1.57835162E-02 -1.69292348E-01 -5.15489867E-01 -4.89803343E-02  0.00000000E+00
 -1.95970876E-01  1.08359937E+00 -2.03425992E-01  0.00000000E+00 -1.23182811E-01
 -7.71043905E-02 -6.51175739E-02  1.64827078E-02  0.00000000E+00  0.00000000E+00
  1.57835436E-02 -1.69291440E-01  5.15488762E-01 -4.89807636E-02  0.00000000E+00
 -1.95972236E-01 -1.08359718E+00 -2.03426011E-01  0.00000000E+00 -1.23182400E-01
 -7.71039433E-02 -6.51172498E-02 -1.64826008E-02  0.00000000E+00  0.00000000E+00
 -2.46679137E-08 -4.20181230E-07  1.62243799E-01  2.59482422E-07  0.00000000E+00
 -1.06490718E-06 -5.32041267E-01  4.15599078E-07  0.00000000E+00 -2.76463819E-07
 -2.42546029E-07  4.93389176E-09 -1.50384811E-01  0.00000000E+00  0.00000000E+00
 -7.53842495E-03 -3.88765673E-01 -3.90035239E-01  3.84803426E-01  0.00000000E+00
  9.07905463E-01  5.23367675E-01 -3.24846495E-01  0.00000000E+00 -1.28994755E-01
 -1.67474115E-01 -1.41391898E-01  4.10918338E-03  0.00000000E+00  0.00000000E+00
  7.53837546E-03  3.88766169E-01 -3.90036452E-01 -3.84803118E-01  0.00000000E+00
 -9.07904912E-01  5.23370281E-01  3.24846591E-01  0.00000000E+00  1.28994945E-01
  1.67474358E-01  1.41392078E-01  4.10915513E-03  0.00000000E+00  0.00000000E+00
  0.00000000E+00  0.00000000E+00  0.00000000E+00  0.00000000E+00  2.78294437E-07
  0.00000000E+00  0.00000000E+00  0.00000000E+00 -8.34143614E-07  0.00000000E+00
  0.00000000E+00  0.00000000E+00  0.00000000E+00 -8.77513954E-02 -4.91733339E-10
  0.00000000E+00  0.00000000E+00  0.00000000E+00  0.00000000E+00 -6.55243425E-01
  0.00000000E+00  0.00000000E+00  0.00000000E+00  8.13518875E-01  0.00000000E+00
  0.00000000E+00  0.00000000E+00  0.00000000E+00  3.00093848E-02  5.96721398E-03
  0.00000000E+00  0.00000000E+00  0.00000000E+00  0.00000000E+00  6.55242834E-01
  0.00000000E+00  0.00000000E+00  0.00000000E+00 -8.13517615E-01  0.00000000E+00
  0.00000000E+00  0.00000000E+00  0.00000000E+00  3.00093935E-02 -5.96720763E-03
  2.51918733E-02  2.37262080E-01 -1.17860189E-07 -2.65582687E-01  0.00000000E+00
 -6.80854060E-01  5.43034779E-07  1.09668819E+00  0.00000000E+00  1.84168811E-01
  2.48206730E-02 -6.16183249E-02  2.51840815E-07  0.00000000E+00  0.00000000E+00
 -5.21100865E-03 -3.69477210E-02  1.40848889E-01  5.68105404E-01  0.00000000E+00
  4.42816137E-01 -3.09322807E-01 -9.18746947E-01  0.00000000E+00 -8.46873042E-03
  4.68694580E-03 -7.73500701E-02 -8.44434053E-03  0.00000000E+00  0.00000000E+00
 -5.21101794E-03 -3.69480848E-02 -1.40848780E-01  5.68105198E-01  0.00000000E+00
  4.42817606E-01  3.09322897E-01 -9.18745932E-01  0.00000000E+00 -8.46878252E-03
  4.68674758E-03 -7.73502160E-02  8.44434579E-03  0.00000000E+00  0.00000000E+00
  0.00000000E+00  0.00000000E+00  0.00000000E+00  0.00000000E+00 -2.84980557E-01
  0.00000000E+00  0.00000000E+00  0.00000000E+00  1.02267840E+00  0.00000000E+00
  0.00000000E+00  0.00000000E+00  0.00000000E+00  4.22504754E-08  3.62448603E-02
  0.00000000E+00  0.00000000E+00  0.00000000E+00  0.00000000E+00  6.12413719E-01
  0.00000000E+00  0.00000000E+00  0.00000000E+00 -1.02061837E+00  0.00000000E+00
  0.00000000E+00  0.00000000E+00  0.00000000E+00 -1.69580274E-02  4.57526498E-02
  0.00000000E+00  0.00000000E+00  0.00000000E+00  0.00000000E+00  6.12414469E-01
  0.00000000E+00  0.00000000E+00  0.00000000E+00 -1.02061906E+00  0.00000000E+00
  0.00000000E+00  0.00000000E+00  0.00000000E+00  1.69580435E-02  4.57526331E-02
 -2.97217410E-09 -2.14728195E-08 -1.50922280E-01 -1.11815501E-07  0.00000000E+00
  4.62441030E-07  8.67130925E-01  9.37616449E-08  0.00000000E+00 -6.44174135E-08
  5.60363056E-08  3.07261966E-08  1.45112918E-01  0.00000000E+00  0.00000000E+00
  1.84053786E-03 -3.08879279E-02  3.12288572E-01  5.08361695E-01  0.00000000E+00
 -3.69613110E-01 -4.21803331E-01 -8.09482791E-01  0.00000000E+00 -8.79056115E-02
  5.77776588E-02  3.33853049E-02 -4.76255314E-02  0.00000000E+00  0.00000000E+00
 -1.84052288E-03  3.08879583E-02  3.12289287E-01 -5.08362058E-01  0.00000000E+00
  3.69612533E-01 -4.21804412E-01  8.09483088E-01  0.00000000E+00  8.79057178E-02
 -5.77777662E-02 -3.33852491E-02 -4.76254110E-02  0.00000000E+00  0.00000000E+00
 -9.20362634E-03 -6.25522499E-01  2.03726150E-07 -9.21411022E-02  0.00000000E+00
  4.77874695E+00 -1.47801838E-06 -1.24872130E+00  0.00000000E+00  1.27184575E-01
 -4.34239264E-01  2.06778901E-01  2.00197107E-07  0.00000000E+00  0.00000000E+00
  6.49048839E-02  9.77067496E-01 -1.30110556E-01  5.17716855E-02  0.00000000E+00
 -3.48997501E+00  1.39660675E+00 -4.13202870E-01  0.00000000E+00  1.89263031E-01
  1.17915261E-01  4.74937230E-01 -1.14815272E-01  0.00000000E+00  0.00000000E+00
  6.49049772E-02  9.77069087E-01  1.30111028E-01  5.17721580E-02  0.00000000E+00
 -3.48997928E+00 -1.39660806E+00 -4.13205305E-01  0.00000000E+00  1.89263451E-01
  1.17916189E-01  4.74937244E-01  1.14815499E-01  0.00000000E+00  0.00000000E+00
  0.00000000E+00  0.00000000E+00  0.00000000E+00  0.00000000E+00  1.51210512E-07
  0.00000000E+00  0.00000000E+00  0.00000000E+00 -1.72383636E-07  0.00000000E+00
  0.00000000E+00  0.00000000E+00  0.00000000E+00  5.81837086E-01  1.44743913E-06
  0.00000000E+00  0.00000000E+00  0.00000000E+00  0.00000000E+00 -1.39586383E-01
  0.00000000E+00  0.00000000E+00  0.00000000E+00 -5.88992527E-02  0.00000000E+00
  0.00000000E+00  0.00000000E+00  0.00000000E+00 -3.21525925E-01  2.55367622E-01
  0.00000000E+00  0.00000000E+00  0.00000000E+00  0.00000000E+00  1.39586192E-01
  0.00000000E+00  0.00000000E+00  0.00000000E+00  5.88997924E-02  0.00000000E+00
  0.00000000E+00  0.00000000E+00  0.00000000E+00 -3.21526891E-01 -2.55367020E-01
 -1.89367110E-08  2.34119700E-07  1.87550615E-01  1.89863762E-07  0.00000000E+00
 -4.92710363E-06 -3.55875170E+00 -2.89567048E-07  0.00000000E+00 -2.50833582E-07
  6.36741778E-07 -2.86639358E-07  9.31320170E-02  0.00000000E+00  0.00000000E+00
 -6.45853352E-02 -1.19802996E+00  2.49076340E-01 -1.75426877E-01  0.00000000E+00
  4.30227240E+00 -1.40442587E+00  1.01651887E+00  0.00000000E+00 -3.57021990E-01
 -4.12898816E-01 -1.11133603E-01  8.43523500E-02  0.00000000E+00  0.00000000E+00
  6.45852431E-02  1.19802849E+00  2.49076162E-01  1.75427163E-01  0.00000000E+00
 -4.30226569E+00 -1.40442303E+00 -1.01651914E+00  0.00000000E+00  3.57021875E-01
  4.12898814E-01  1.11132750E-01  8.43519104E-02  0.00000000E+00  0.00000000E+00
  0.00000000E+00  0.00000000E+00  0.00000000E+00  0.00000000E+00  1.72178247E-01
  0.00000000E+00  0.00000000E+00  0.00000000E+00 -1.61467088E-01  0.00000000E+00
  0.00000000E+00  0.00000000E+00  0.00000000E+00 -1.26726087E-06  6.90539671E-01
  0.00000000E+00  0.00000000E+00  0.00000000E+00  0.00000000E+00  1.97561940E-02
  0.00000000E+00  0.00000000E+00  0.00000000E+00  1.23059565E-01  0.00000000E+00
  0.00000000E+00  0.00000000E+00  0.00000000E+00  3.14773175E-01  2.56937977E-01
  0.00000000E+00  0.00000000E+00  0.00000000E+00  0.00000000E+00  1.97555483E-02
  0.00000000E+00  0.00000000E+00  0.00000000E+00  1.23059478E-01  0.00000000E+00
  0.00000000E+00  0.00000000E+00  0.00000000E+00 -3.14771999E-01  2.56938367E-01
 -5.04450524E-04 -4.33026431E-01 -1.15414791E-07  2.04730321E-01  0.00000000E+00
  3.21792952E+00  1.51368918E-06 -1.03737575E+00  0.00000000E+00 -3.89913978E-02
  4.84008466E-01 -4.25314516E-01 -2.02704486E-07  0.00000000E+00  0.00000000E+00
  3.40952283E-02  6.68923627E-01 -1.11054437E-01  8.82919868E-02  0.00000000E+00
 -2.32342308E+00  1.03029653E+00 -1.64263469E-01  0.00000000E+00  3.71101669E-01
  1.02739968E-01 -3.63990620E-02  2.80185217E-01  0.00000000E+00  0.00000000E+00
  3.40951965E-02  6.68922742E-01  1.11054166E-01  8.82918453E-02  0.00000000E+00
 -2.32341957E+00 -1.03029531E+00 -1.64263579E-01  0.00000000E+00  3.71101840E-01
  1.02739010E-01 -3.63988318E-02 -2.80184958E-01  0.00000000E+00  0.00000000E+00
  2.47910764E-08  3.80227818E-07 -8.37009545E-03  1.09264791E-07  0.00000000E+00
 -3.56652181E-07  1.77204627E+00  9.74242040E-07  0.00000000E+00  7.79866423E-08
  9.81391673E-08 -1.38731359E-08 -3.53128837E-01  0.00000000E+00  0.00000000E+00
  2.09331732E-02  2.83831546E-01  1.24232462E-01  4.27486176E-02  0.00000000E+00
 -1.63204718E+00  4.38810907E-01 -4.20118464E-01  0.00000000E+00  1.08001524E-01
 -5.22555877E-01  5.39450998E-01 -1.48722792E-01  0.00000000E+00  0.00000000E+00
 -2.09332093E-02 -2.83831662E-01  1.24232502E-01 -4.27482832E-02  0.00000000E+00
  1.63204745E+00  4.38810985E-01  4.20118576E-01  0.00000000E+00 -1.08001164E-01
  5.22555227E-01 -5.39450859E-01 -1.48723689E-01  0.00000000E+00  0.00000000E+00
  0.00000000E+00  0.00000000E+00  0.00000000E+00  0.00000000E+00 -3.59859334E-08
  0.00000000E+00  0.00000000E+00  0.00000000E+00 -8.14601650E-08  0.00000000E+00
  0.00000000E+00  0.00000000E+00  0.00000000E+00  7.24241569E-03 -2.33303697E-07
  0.00000000E+00  0.00000000E+00  0.00000000E+00  0.00000000E+00  3.92588488E-02
  0.00000000E+00  0.00000000E+00  0.00000000E+00 -5.08545588E-02  0.00000000E+00
  0.00000000E+00  0.00000000E+00  0.00000000E+00  4.15724923E-01  5.74098911E-01
  0.00000000E+00  0.00000000E+00  0.00000000E+00  0.00000000E+00 -3.92589204E-02
  0.00000000E+00  0.00000000E+00  0.00000000E+00  5.08546369E-02  0.00000000E+00
  0.00000000E+00  0.00000000E+00  0.00000000E+00  4.15725726E-01 -5.74098508E-01
 -4.28006133E-02 -4.10876762E-01  2.45490563E-07 -9.70329985E-02  0.00000000E+00
  2.32588790E+00  2.21151227E-06 -8.99002519E-01  0.00000000E+00  2.71220820E-01
 -3.64852067E-01 -9.60819090E-02 -9.09998707E-08  0.00000000E+00  0.00000000E+00
  1.79106002E-02  2.44188821E-01  6.47873991E-02 -1.43592427E-01  0.00000000E+00
 -1.35691350E+00  5.91290873E-01  4.42120401E-02  0.00000000E+00 -1.73473752E-02
  6.04596645E-01 -4.95101067E-01 -4.89084823E-02  0.00000000E+00  0.00000000E+00
  1.79105719E-02  2.44188455E-01 -6.47868940E-02 -1.43592511E-01  0.00000000E+00
 -1.35690986E+00 -5.91290053E-01  4.42124504E-02  0.00000000E+00 -1.73478373E-02
  6.04597261E-01 -4.95101322E-01  4.89083949E-02  0.00000000E+00  0.00000000E+00
  1.43641869E-08  4.87822254E-07  1.02242270E-01  1.06947303E-07  0.00000000E+00
 -5.16952521E-07  1.75163037E+00  9.45853074E-07  0.00000000E+00  2.27530939E-07
 -1.10081538E-07  8.60561651E-08 -4.21152122E-01  0.00000000E+00  0.00000000E+00
  2.58887756E-02  4.87879615E-02  2.95856641E-01  9.19477431E-02  0.00000000E+00
 -1.31664116E+00  1.92593611E-01 -4.92812418E-01  0.00000000E+00  3.93874998E-01
 -8.59825232E-02 -2.52147477E-01  4.75862867E-01  0.00000000E+00  0.00000000E+00
 -2.58888102E-02 -4.87882424E-02  2.95856606E-01 -9.19473631E-02  0.00000000E+00
  1.31664164E+00  1.92593715E-01  4.92812357E-01  0.00000000E+00 -3.93875818E-01
  8.59826621E-02  2.52147938E-01  4.75862367E-01  0.00000000E+00  0.00000000E+00
  0.00000000E+00  0.00000000E+00  0.00000000E+00  0.00000000E+00 -1.62611121E-01
  0.00000000E+00  0.00000000E+00  0.00000000E+00 -2.19898138E-01  0.00000000E+00
  0.00000000E+00  0.00000000E+00  0.00000000E+00  1.18812079E-07 -3.19612057E-01
  0.00000000E+00  0.00000000E+00  0.00000000E+00  0.00000000E+00 -8.75806215E-02
  0.00000000E+00  0.00000000E+00  0.00000000E+00  1.61034810E-01  0.00000000E+00
  0.00000000E+00  0.00000000E+00  0.00000000E+00 -1.44771495E-01  6.71238843E-01
  0.00000000E+00  0.00000000E+00  0.00000000E+00  0.00000000E+00 -8.75805637E-02
  0.00000000E+00  0.00000000E+00  0.00000000E+00  1.61034712E-01  0.00000000E+00
  0.00000000E+00  0.00000000E+00  0.00000000E+00  1.44770884E-01  6.71239155E-01
 -9.43031587E-02 -4.32545672E-01  4.72335239E-07 -1.06474972E-03  0.00000000E+00
  2.01960386E+00  1.09883494E-06 -9.35057887E-01  0.00000000E+00  3.73569341E-01
  1.85735318E-01 -1.08971713E+00  5.91973282E-08  0.00000000E+00  0.00000000E+00
  4.14438002E-03 -2.89987212E-02  2.23840179E-01 -1.73606737E-01  0.00000000E+00
 -8.34539110E-01  3.40358699E-01  2.03079694E-01  0.00000000E+00 -1.09410076E-01
 -1.43187015E-01  1.24146455E-01 -4.32715116E-01  0.00000000E+00  0.00000000E+00
  4.14440639E-03 -2.89989871E-02 -2.23839968E-01 -1.73606896E-01  0.00000000E+00
 -8.34537287E-01 -3.40358213E-01  2.03079814E-01  0.00000000E+00 -1.09410402E-01
 -1.43186074E-01  1.24145992E-01  4.32715568E-01  0.00000000E+00  0.00000000E+00
  0.00000000E+00  0.00000000E+00  0.00000000E+00  0.00000000E+00 -1.79219576E-01
  0.00000000E+00  0.00000000E+00  0.00000000E+00 -6.21632251E-01  0.00000000E+00
  0.00000000E+00  0.00000000E+00  0.00000000E+00 -1.30732250E-07  7.69732200E-01
  0.00000000E+00  0.00000000E+00  0.00000000E+00  0.00000000E+00 -6.38753291E-02
  0.00000000E+00  0.00000000E+00  0.00000000E+00  4.23511957E-01  0.00000000E+00
  0.00000000E+00  0.00000000E+00  0.00000000E+00 -7.32090935E-01  2.77714305E-02
  0.00000000E+00  0.00000000E+00  0.00000000E+00  0.00000000E+00 -6.38753909E-02
  0.00000000E+00  0.00000000E+00  0.00000000E+00  4.23511892E-01  0.00000000E+00
  0.00000000E+00  0.00000000E+00  0.00000000E+00  7.32091004E-01  2.77723280E-02
  8.47006842E-08 -7.21564577E-07 -8.50973432E-02  6.95746832E-07  0.00000000E+00
 -2.90559328E-06 -4.98931621E-02  1.21932776E-06  0.00000000E+00 -1.18399653E-06
  5.78793624E-07  7.45894568E-07  1.23174487E+00  0.00000000E+00  0.00000000E+00
  1.69514525E-02  3.37957535E-01 -3.54332975E-01  1.04840316E-01  0.00000000E+00
 -3.32480201E-01  4.37191421E-02 -2.68313235E-01  0.00000000E+00  5.26538482E-01
 -3.59039057E-01  2.00008951E-01  3.38942355E-01  0.00000000E+00  0.00000000E+00
 -1.69514150E-02 -3.37958016E-01 -3.54332331E-01 -1.04840454E-01  0.00000000E+00
  3.32483618E-01  4.37211298E-02  2.68313326E-01  0.00000000E+00 -5.26537168E-01
  3.59038897E-01 -2.00009382E-01  3.38941827E-01  0.00000000E+00  0.00000000E+00
  9.36889926E-02  1.80533473E-01 -2.17755498E-06 -5.10499368E-01  0.00000000E+00
  2.92613886E+00 -3.58911529E-06 -1.36339450E+00  0.00000000E+00  2.26575719E-01
  9.43286332E-01  4.03114481E-02  1.52235236E-06  0.00000000E+00  0.00000000E+00
  5.05460941E-02  6.24184782E-01 -1.41203719E-02  8.53884301E-03  0.00000000E+00
 -2.47107735E+00  1.45895645E+00 -1.37407717E-01  0.00000000E+00 -8.49451058E-01
  6.05179608E-01  4.62446922E-01  8.17811845E-02  0.00000000E+00  0.00000000E+00
  5.05460992E-02  6.24187124E-01  1.41198168E-02  8.53877518E-03  0.00000000E+00
 -2.47108563E+00 -1.45896089E+00 -1.37411389E-01  0.00000000E+00 -8.49454846E-01
  6.05180602E-01  4.62448356E-01 -8.17846794E-02  0.00000000E+00  0.00000000E+00
  0.00000000E+00  0.00000000E+00  0.00000000E+00  0.00000000E+00  3.22986327E-07
  0.00000000E+00  0.00000000E+00  0.00000000E+00  3.74653640E-07  0.00000000E+00
  0.00000000E+00  0.00000000E+00  0.00000000E+00  1.16122058E+00  1.15359048E-07
  0.00000000E+00  0.00000000E+00  0.00000000E+00  0.00000000E+00 -6.85596881E-02
  0.00000000E+00  0.00000000E+00  0.00000000E+00 -2.84548398E-01  0.00000000E+00
  0.00000000E+00  0.00000000E+00  0.00000000E+00  6.43467590E-01 -4.07605709E-01
  0.00000000E+00  0.00000000E+00  0.00000000E+00  0.00000000E+00  6.85594907E-02
  0.00000000E+00  0.00000000E+00  0.00000000E+00  2.84547891E-01  0.00000000E+00
  0.00000000E+00  0.00000000E+00  0.00000000E+00  6.43466623E-01  4.07605920E-01
 -5.06008190E-07 -8.47996750E-07 -1.17947179E+00  7.73043465E-07  0.00000000E+00
 -4.65771940E-06 -1.91747883E+00  1.62861255E-06  0.00000000E+00 -6.14542577E-07
 -2.40344754E-06 -1.15128412E-06  4.86279378E-01  0.00000000E+00  0.00000000E+00
 -5.09955584E-03 -6.67033353E-01 -7.08233586E-02 -7.76591285E-03  0.00000000E+00
  2.30793396E+00 -1.22333143E+00  6.70174912E-01  0.00000000E+00  8.29883550E-01
 -1.56725696E-01 -4.04399954E-01 -5.82987938E-01  0.00000000E+00  0.00000000E+00
  5.09929637E-03  6.67031251E-01 -7.08232098E-02  7.76573777E-03  0.00000000E+00
 -2.30792410E+00 -1.22332531E+00 -6.70175121E-01  0.00000000E+00 -8.29879308E-01
  1.56722119E-01  4.04397961E-01 -5.82988453E-01  0.00000000E+00  0.00000000E+00
 -1.62201433E-01  1.08359181E+00  1.10404462E-06 -3.27118143E-01  0.00000000E+00
  2.98847834E+00  6.49409747E-07 -4.79766991E-01  0.00000000E+00  8.34214919E-01
 -9.93799988E-01 -9.14672602E-01  1.31436707E-06  0.00000000E+00  0.00000000E+00
 -1.62191216E-02  3.19895306E-01  2.31728619E-01 -1.67866174E-01  0.00000000E+00
 -1.45606349E+00  8.89052310E-01 -4.46702334E-01  0.00000000E+00 -5.09509048E-01
 -2.05878498E-01  1.78429688E-01  7.21680187E-01  0.00000000E+00  0.00000000E+00
 -1.62190874E-02  3.19894941E-01 -2.31728398E-01 -1.67866083E-01  0.00000000E+00
 -1.45606154E+00 -8.89051021E-01 -4.46702272E-01  0.00000000E+00 -5.09507729E-01
 -2.05878967E-01  1.78429277E-01 -7.21679461E-01  0.00000000E+00  0.00000000E+00
 -2.06661552E-01  7.43941842E-01 -1.48237326E-07  1.62627772E-01  0.00000000E+00
 -2.13804218E+00  4.07615002E-07  6.40101095E-01  0.00000000E+00 -1.57592397E+00
 -4.16439586E-01 -3.80239908E-01 -4.65591670E-07  0.00000000E+00  0.00000000E+00
 -2.54017038E-01  1.59030197E-01 -2.16446964E-01  1.34018860E-01  0.00000000E+00
  2.89988064E+00 -9.62888821E-01  4.09293676E-01  0.00000000E+00 -4.99161616E-01
 -7.22006140E-01 -9.39713439E-01 -4.43199589E-01  0.00000000E+00  0.00000000E+00
 -2.54017360E-01  1.59029606E-01  2.16446462E-01  1.34018756E-01  0.00000000E+00
  2.89988333E+00  9.62889295E-01  4.09294855E-01  0.00000000E+00 -4.99162564E-01
 -7.22006641E-01 -9.39714705E-01  4.43200148E-01  0.00000000E+00  0.00000000E+00
 -3.34138444E-07  5.79387916E-07 -1.97248976E-02  2.34155310E-07  0.00000000E+00
 -7.54993885E-07 -2.56065318E+00 -8.43406694E-07  0.00000000E+00 -2.05118284E-06
 -7.07673460E-07 -8.37715439E-07  9.03627677E-02  0.00000000E+00  0.00000000E+00
 -3.74566438E-01 -2.04089321E-01  1.37837219E-01 -8.22182595E-02  0.00000000E+00
  4.73183077E+00 -1.14458939E+00  7.17322354E-01  0.00000000E+00 -9.97214744E-01
 -1.22157919E+00 -1.37902584E+00 -1.82757654E-01  0.00000000E+00  0.00000000E+00
  3.74566495E-01  2.04089293E-01  1.37837867E-01  8.22187319E-02  0.00000000E+00
 -4.73182903E+00 -1.14458784E+00 -7.17322384E-01  0.00000000E+00  9.97215760E-01
  1.22157951E+00  1.37902584E+00 -1.82757005E-01  0.00000000E+00  0.00000000E+00
 -3.33683160E-01  6.21246845E-01 -2.46903108E-07  2.14256297E-01  0.00000000E+00
  3.66120286E+00  2.65097841E-06 -8.91186274E-01  0.00000000E+00 -1.81468900E+00
 -8.31217188E-01 -1.01579926E+00 -5.03597991E-07  0.00000000E+00  0.00000000E+00
  2.49285852E-01  2.38291778E-01 -3.74746530E-01  1.80258320E-01  0.00000000E+00
 -2.94101125E+00  6.11659959E-01  3.94390213E-02  0.00000000E+00  8.99193046E-01
  1.03206596E+00  7.69388195E-01 -2.78021589E-01  0.00000000E+00  0.00000000E+00
  2.49285263E-01  2.38290630E-01  3.74745881E-01  1.80258257E-01  0.00000000E+00
 -2.94100267E+00 -6.11657715E-01  3.94397701E-02  0.00000000E+00  8.99191516E-01
  1.03206441E+00  7.69386029E-01  2.78021864E-01  0.00000000E+00  0.00000000E+00
Total SCF Density                          R   N=        1035
  2.06256065E+00 -1.42934497E-01  4.96470191E-01  3.10611265E-08 -6.40731109E-08
  4.81042212E-01 -4.04550112E-02  7.08649942E-02 -1.03258427E-07  6.11809744E-01
 -6.73711273E-18  1.18013922E-17  4.78161082E-17  1.61656946E-16  4.30689369E-01
 -1.76884200E-01  4.28221235E-01 -3.84716244E-07  3.56857161E-01  5.94286555E-17
  6.34370528E-01  3.45939056E-08 -7.36026572E-08  6.07017626E-02 -7.11840424E-08
  2.30866300E-17 -1.08333528E-07  3.55231579E-02 -3.14766455E-02  6.29296719E-02
 -7.26749204E-08  2.76595073E-01  7.49206351E-17  1.81494800E-01 -4.64576944E-08
  1.30844331E-01 -5.24191449E-18  1.04798956E-17  2.30866297E-17  7.49206351E-17
  2.07945983E-01  3.02249559E-17  1.11471329E-17  3.57238841E-17  1.00404517E-01
 -1.53502192E-02  1.40550144E-03  3.23955548E-08 -1.01644183E-02 -1.69271031E-18
 -2.89367053E-02 -2.74811283E-09 -3.35718850E-03 -5.59083230E-19  5.96640231E-03
 -1.00730259E-02 -1.34488676E-02 -2.30722254E-08 -2.13824045E-02 -8.72110057E-18
 -7.77838960E-03  8.79087934E-09 -1.01938036E-02 -4.19142675E-18 -2.65514367E-03
  3.00197037E-03 -1.15361806E-02 -1.09173101E-02 -1.56536089E-08  9.07463921E-03
 -4.68102688E-18 -1.45385551E-03 -1.94784338E-09  2.75342785E-03 -2.53404306E-18
 -5.59111993E-04  1.26315438E-04  6.89839171E-04 -3.31801923E-09  6.55516278E-09
 -2.83488920E-02  1.17802239E-08 -2.38339533E-18  7.50513943E-09  6.68291677E-03
  3.61880314E-09 -1.15184363E-18  1.78492806E-09  3.84823191E-10  4.92677574E-10
  5.64081427E-03 -1.47891021E-18 -1.39957091E-18 -4.72103780E-18  1.16335201E-18
  2.79391814E-08 -1.86379411E-19  1.11292952E-18  3.52983900E-19  5.01889952E-09
  9.22348643E-19  1.61935278E-20  8.84359144E-20  1.65676024E-18  5.16923765E-03
 -3.78564236E-18 -4.33563206E-18 -2.38340812E-18 -5.63682534E-18 -2.14677693E-02
 -1.72873112E-18 -1.15184355E-18 -2.95880832E-18 -1.03748968E-02 -6.00170069E-19
  8.60837375E-19  4.50828192E-19  1.21626235E-19  5.77748550E-10  1.09550963E-03
  4.65926183E-03 -2.01581889E-04 -3.46062797E-02  2.46263025E-02  4.10110320E-18
  5.16171722E-02  1.09558870E-02 -1.04680852E-04 -1.74328639E-20 -1.18362178E-02
  1.86530520E-03  3.78866149E-03  8.88306800E-03  1.96502497E-18  9.65812452E-19
  2.08074283E+00 -8.64993019E-03  2.67556395E-03  8.53468899E-02 -7.04801128E-02
 -1.17372966E-17 -1.42011091E-01 -3.25509267E-02 -3.36538159E-03 -5.60448619E-19
  2.37176750E-02 -3.63587728E-03 -7.55902680E-03 -1.78989929E-02 -3.94982954E-18
 -1.91047617E-18 -1.91570111E-01  5.44882906E-01  7.82363134E-02 -1.96149147E-01
 -3.09188968E-01  2.24108537E-01  6.97276718E-17 -1.01422807E-01 -6.32484247E-04
  9.50009883E-02  3.14686853E-17  6.80477784E-03 -8.04888150E-03  6.52968894E-03
  3.54777904E-02  1.21699311E-17 -2.12057588E-18 -4.71158351E-02  8.86263335E-02
  5.87114348E-01 -3.03461291E-02  8.23293539E-02  1.69021187E-01  3.92512341E-02
  4.70442725E-17 -6.64031672E-02  1.12620399E-01  9.93790965E-03  2.12147977E-17
  3.36101755E-02 -2.53750386E-02 -9.40400274E-04  2.67690914E-02  1.11181450E-17
 -7.05418190E-18  1.96755227E-02 -2.97592544E-02  1.08528994E-01  7.33645699E-01
 -5.05364569E-18  1.37105916E-17  6.05537851E-17  4.70442725E-17  2.91888228E-01
 -1.10583488E-17  3.44029067E-17  2.12147977E-17  1.40943236E-01  1.49929053E-17
 -7.73139513E-18 -4.36333088E-18  9.61953367E-18  4.88604731E-02 -1.45841720E-02
  3.27663274E-18 -4.95591142E-18  9.13167384E-17  2.13730340E-16  6.59714568E-01
  4.74150641E-02 -1.42859897E-01 -3.08159239E-02 -3.27214191E-02 -5.44921094E-18
 -2.68111096E-01 -6.85428075E-02  9.86027164E-03  1.64206509E-18  2.84070089E-02
 -3.91856695E-03 -4.78570319E-03 -1.86252584E-02 -3.71524384E-18 -1.52041986E-18
 -2.59404636E-01  6.29667342E-01  2.54443686E-01 -1.40869883E-01 -2.34595481E-17
  8.23801320E-01  2.70705582E-02 -6.66416981E-02 -1.45639142E-01  1.18828624E-01
  3.72425543E-17 -1.90743508E-02  1.33976548E-02  5.20804519E-02  1.71015855E-17
  2.77801567E-03 -4.64220760E-03  2.75386556E-03  2.23082501E-02  7.76149253E-18
 -1.32519562E-18 -2.33710040E-02  4.10094154E-02  3.07869105E-01  1.11735686E-01
  6.53516788E-17  1.04279849E-01  1.71354084E-01 -5.44605004E-03  1.99118750E-02
  8.23691318E-02 -1.18849362E-02  1.98377770E-17 -9.27810641E-02  6.69481191E-02
 -1.24019809E-02  8.47021528E-18  2.34066788E-02 -1.52935694E-02 -4.71058112E-04
  1.78920507E-02  7.53596636E-18 -4.10865045E-18  9.51304773E-03 -1.01834681E-02
  8.83815464E-02  4.59159945E-01  1.34895428E-16 -6.56137134E-02  7.77625532E-02
  2.93502120E-01 -9.06949522E-19  3.31599331E-18  3.11708292E-17  1.98377770E-17
  1.57208172E-01 -1.54511510E-17  1.95775495E-17  8.47021528E-18  7.59167105E-02
  1.02951236E-17 -4.43875550E-18 -2.34868441E-18  6.72254002E-18  3.32670445E-02
 -7.87062413E-03  1.58424069E-18 -1.69588811E-18  6.14624332E-17  1.34895428E-16
  4.21032063E-01 -1.09268783E-17  4.30953802E-17  8.65595638E-17  2.71524847E-01
 -1.05775205E-02  2.44808062E-02  1.68759066E-02 -2.67402292E-02 -9.47598622E-18
  1.09292543E-02  2.44499391E-04 -1.09049218E-02 -4.24145063E-18 -3.64583572E-04
  8.10267614E-04 -9.05585353E-04 -1.90616377E-03 -8.24829346E-19  2.61788812E-19
 -1.12788886E-02 -6.43682571E-03 -4.60568842E-02 -6.29684207E-03 -8.15223282E-18
 -2.16548904E-02 -2.30086605E-02 -5.23005197E-03 -5.22363435E-18  4.26717043E-03
 -1.06072726E-03  3.49562765E-03  3.84170505E-03  1.36308237E-02  4.71644344E-18
  7.67222748E-03  4.15597819E-03  5.62990206E-03  2.11880668E-18  2.40667991E-04
 -9.49978494E-04  2.47675417E-04  1.16206657E-03  4.32506033E-19 -2.65034098E-19
 -1.13218046E-02 -9.14980765E-03  7.57129564E-03  2.21521384E-02  7.30633854E-18
 -1.28365589E-02  5.95697828E-03  1.30179619E-02  4.39457568E-18 -5.86628894E-04
  1.18767201E-03  1.95098225E-03 -3.11191925E-03 -5.80679800E-03  1.05215653E-03
  3.11096561E-18 -1.77792234E-03  1.03273170E-04 -2.69615224E-05  1.41299758E-18
 -5.72126764E-05 -1.39118417E-05  1.26968542E-04  6.07655098E-04  3.66149994E-19
 -1.28784074E-19 -1.29476867E-02 -6.17764473E-03  5.18415597E-03  8.07469383E-04
  4.47519038E-18 -4.62980899E-03  2.55148212E-03  8.93275137E-04  2.82073961E-18
 -2.69016014E-04  2.18161868E-04  2.76629345E-04  7.84485508E-03 -1.73464031E-02
 -1.82851953E-02 -1.06853104E-02 -4.27441741E-18 -1.48003365E-02 -5.03690201E-03
 -5.44075789E-03 -2.11087045E-18 -9.01863298E-04  1.38944790E-03  1.88569503E-04
 -5.20792344E-06 -1.63370148E-19  4.22244619E-19 -6.08798590E-04 -3.23077996E-04
  8.18914303E-03 -2.92619603E-02 -8.32893176E-18  9.95953769E-03  1.13832415E-03
 -1.63607516E-02 -4.83742580E-18 -6.43004452E-04 -1.04166141E-03  2.17082525E-04
  2.00582313E-03  1.55654188E-18 -3.28769672E-18 -6.68945383E-18 -5.26950286E-18
 -2.61203378E-02 -2.69267638E-18 -2.22588810E-18 -2.65991807E-18 -1.26129142E-02
 -5.48820454E-19  5.43474357E-19  4.24322097E-19 -6.03910987E-20 -2.03485759E-03
  1.30576954E-03 -1.76124656E-18 -8.45761982E-19 -2.07290202E-18 -9.89615999E-18
 -3.69409038E-02  1.06506621E-18 -1.99634425E-18 -5.75135551E-18 -2.26351544E-02
  3.17200466E-19 -3.75452599E-19 -2.04324027E-19  5.86745526E-19  2.38574261E-03
  1.08664944E-19  1.73520770E-19  9.38193520E-19  4.20222297E-18  1.01778586E-02
  1.19043419E-18  1.36131952E-18  1.76027768E-18  4.91424883E-03  2.02896764E-19
 -3.06952643E-19 -7.84818206E-20  3.84110554E-19  8.62135089E-04 -5.07741498E-04
 -4.25196730E-18 -2.74942223E-18  3.95742057E-18  6.47759775E-18  1.50487223E-02
 -3.21033487E-18  2.58281713E-18  3.93200676E-18  9.26341227E-03 -3.39874676E-19
  3.55764078E-19  1.97184011E-19 -2.55595181E-19 -9.56644402E-04  3.84487631E-04
  4.65924338E-03 -2.01548910E-04  3.46061934E-02  2.46263103E-02  4.10110450E-18
  5.16171915E-02 -1.09559026E-02 -1.04690904E-04 -1.74345379E-20 -1.18362025E-02
  1.86529219E-03  3.78865723E-03 -8.88307382E-03 -9.93632530E-19  9.65809269E-19
  3.99706413E-04 -1.67532820E-03 -1.29877738E-02 -1.48048459E-02 -2.46550212E-18
 -8.75799652E-03 -3.59692354E-03 -9.64475006E-03 -1.60617354E-18 -1.04194000E-05
  7.98484167E-04 -5.65543105E-04 -1.53464278E-03 -3.28070582E-19  6.29190019E-20
  2.08074283E+00 -8.64989565E-03  2.67550522E-03 -8.53466993E-02 -7.04801413E-02
 -1.17373013E-17 -1.42011103E-01  3.25509528E-02 -3.36535891E-03 -5.60444843E-19
  2.37176549E-02 -3.63585075E-03 -7.55901867E-03  1.78990093E-02  2.01173645E-18
 -1.91046977E-18 -1.67532585E-03  7.22916604E-03  2.81643769E-02  3.52790077E-02
  5.87513499E-18  2.23341593E-02  6.73800882E-03  2.37511126E-02  3.95535481E-18
  5.09195660E-04 -1.36681800E-03  1.47033960E-03  2.90436116E-03  6.72167175E-19
 -2.72166514E-20 -1.91570126E-01  5.44882955E-01 -7.82362474E-02  1.96148991E-01
 -3.09188649E-01 -2.24108756E-01 -4.91551784E-18  1.01422994E-01 -6.32332919E-04
 -9.50011156E-02 -1.73011157E-19 -6.80482484E-03  8.04895102E-03 -6.52967675E-03
  3.54777937E-02 -3.53448557E-19 -1.11774886E-18  1.29877913E-02 -2.81644067E-02
  1.49829091E-01  6.91698856E-02 -1.77885351E-17 -6.88905365E-02  1.16305170E-01
  6.01910383E-02 -1.30521489E-17  4.15626085E-03 -5.95651392E-05  2.40723132E-03
  3.35668290E-03  1.03699335E-18  2.35295567E-19  4.71158089E-02 -8.86262796E-02
  5.87114366E-01 -3.03461900E-02  8.23295115E-02 -1.69021304E-01  3.92508683E-02
  4.70441917E-17 -6.64030563E-02 -1.12620462E-01  9.93784741E-03  2.12148000E-17
  3.36101789E-02 -2.53750494E-02 -9.40393539E-04 -2.67689982E-02 -1.13592395E-17
 -7.05418710E-18 -1.48048202E-02  3.52789323E-02 -6.91695955E-02 -9.87723256E-02
 -5.30834403E-17  1.28038021E-01 -8.63913190E-02 -4.36947603E-02 -3.61216023E-17
  3.58808243E-03 -6.48866034E-03  8.18111432E-04  4.61718231E-03  1.08553553E-18
 -1.29039737E-18  1.96755511E-02 -2.97593050E-02 -1.08529222E-01  7.33645447E-01
 -5.05365583E-18  1.37106179E-17  4.25838565E-18  4.70441917E-17  2.91888085E-01
 -1.10583303E-17 -3.10722179E-18  2.12148000E-17  1.40943327E-01 -3.79846322E-18
 -7.73140421E-18 -4.36333849E-18 -1.28578551E-17 -4.88604508E-02 -1.45842022E-02
 -2.46549784E-18  5.87512244E-18 -4.08266866E-17 -5.30834403E-17 -2.63979708E-01
  2.13226138E-17 -3.74630151E-17 -3.61216023E-17 -2.07849863E-01  8.90931808E-19
 -1.38152634E-18 -2.24893861E-19  8.41654063E-19  1.52575009E-03 -1.25201522E-03
  3.27663748E-18 -4.95591984E-18  5.51692955E-17  2.13730312E-16  6.59714670E-01
  4.74150921E-02 -1.42859924E-01  3.08161144E-02 -3.27213888E-02 -5.44920589E-18
 -2.68111141E-01  6.85428315E-02  9.86030692E-03  1.64207097E-18  2.84069859E-02
 -3.91854079E-03 -4.78570217E-03  1.86252727E-02  2.48821588E-18 -1.52041467E-18
 -8.75799874E-03  2.23341729E-02  6.88903568E-02  1.28038010E-01  2.13226121E-17
  5.17937874E-02  2.63252101E-02  8.20231654E-02  1.36596010E-17 -7.51248299E-03
  1.95859734E-03  1.53180517E-03  7.58822216E-04  3.22742897E-19  6.22097976E-19
 -2.59404675E-01  6.29667412E-01 -2.54443468E-01 -1.40870000E-01 -2.34595677E-17
  8.23801342E-01 -2.70705363E-02  6.66416528E-02 -1.45638994E-01 -1.18828768E-01
 -2.33535482E-18  1.90744713E-02  1.33977471E-02 -5.20805405E-02 -2.44693593E-19
 -2.77804459E-03  4.64225051E-03 -2.75386254E-03  2.23082571E-02 -3.31350117E-19
 -4.22427953E-19  3.59693468E-03 -6.73802471E-03  1.16305123E-01  8.63914888E-02
 -8.68889441E-18 -2.63253277E-02  8.48424549E-02  6.46716559E-02 -6.62322882E-18
 -1.11403992E-03  1.57351245E-03  1.47275112E-03  8.62132793E-04  7.27194109E-19
  3.35178941E-19  2.33709761E-02 -4.10093635E-02  3.07869258E-01 -1.11735857E-01
  2.81362064E-17 -1.04279746E-01  1.71354238E-01 -5.44608095E-03  1.99119539E-02
 -8.23691640E-02 -1.18850837E-02  1.98377488E-17 -9.27810070E-02 -6.69481438E-02
 -1.24019847E-02  8.47022800E-18  2.34066839E-02 -1.52935816E-02 -4.71053699E-04
 -1.78919921E-02 -7.65673176E-18 -4.10865543E-18 -9.64473993E-03  2.37510770E-02
 -6.01908257E-02 -4.36947653E-02 -3.61215994E-17  8.20232039E-02 -6.46715366E-02
 -1.29330937E-02 -2.38953215E-17  3.09322721E-03 -4.39628360E-03  4.68156302E-04
  3.06743452E-03  1.06436835E-18 -1.02462511E-18  9.51305692E-03 -1.01834838E-02
 -8.83817241E-02  4.59159792E-01  1.34895422E-16 -6.56137590E-02 -7.77626798E-02
  2.93502024E-01 -9.06954670E-19  3.31600645E-18  3.73638888E-18  1.98377488E-17
  1.57208145E-01 -1.54511415E-17 -2.72064692E-18  8.47022800E-18  7.59168067E-02
 -2.49913091E-18 -4.43876333E-18 -2.34869065E-18 -8.47016134E-18 -3.32670356E-02
 -7.87064830E-03 -1.60617185E-18  3.95534888E-18 -3.30997535E-17 -3.61215994E-17
 -2.07849836E-01  1.36596074E-17 -2.81631974E-17 -2.38953215E-17 -1.56664226E-01
  1.19896913E-18 -1.17251394E-18 -4.50499096E-19  8.00946454E-19  3.55619653E-03
 -1.83211314E-03  1.58424222E-18 -1.69589073E-18  3.20254508E-17  1.34895422E-16
  4.21032202E-01 -1.09268859E-17  1.71952403E-17  8.65595657E-17  2.71524975E-01
 -1.05775077E-02  2.44807832E-02 -1.68758708E-02 -2.67402537E-02  5.69691832E-19
  1.09292437E-02 -2.44490196E-04 -1.09049352E-02  6.09378747E-19 -3.64585321E-04
  8.10271777E-04 -9.05584731E-04  1.90616165E-03 -1.89948841E-19 -2.40399565E-19
 -1.04215244E-05  5.09201243E-04 -4.15627211E-03  3.58808320E-03  3.04139911E-19
 -7.51248504E-03  1.11403735E-03  3.09323308E-03 -1.68716785E-19  1.75018024E-03
 -2.99895083E-04 -6.79590882E-06 -2.33434202E-05 -1.55455324E-19 -5.29739382E-21
 -1.12788936E-02 -6.43681792E-03  4.60568666E-02 -6.29683949E-03  6.05495923E-18
 -2.16548651E-02  2.30086623E-02 -5.23005269E-03  3.48167542E-18  4.26716811E-03
 -1.06074081E-03  3.49565660E-03 -3.84173974E-03  1.36308222E-02  4.71644576E-18
  7.67224853E-03 -4.15598887E-03  5.62990546E-03  2.11880916E-18  2.40669523E-04
 -9.49980886E-04  2.47675199E-04 -1.16206391E-03 -3.69002890E-19 -2.65034880E-19
  7.98486894E-04 -1.36682342E-03  5.95750887E-05 -6.48866207E-03 -1.38152660E-18
  1.95859533E-03 -1.57350779E-03 -4.39628593E-03 -1.17251493E-18 -2.99894338E-04
 -2.18955360E-05  1.18189566E-05  2.21107774E-05 -6.16282304E-20  2.08945945E-20
 -1.13218025E-02 -9.14980773E-03 -7.57129398E-03  2.21521596E-02  7.30634680E-18
 -1.28365731E-02 -5.95698377E-03  1.30179742E-02  4.39458113E-18 -5.86628224E-04
  1.18767376E-03  1.95097856E-03 -3.11191288E-03  5.80678920E-03  1.05215812E-03
  3.11096896E-18 -1.77792266E-03 -1.03274117E-04 -2.69615063E-05  1.41299988E-18
 -5.72118290E-05 -1.39131087E-05  1.26968178E-04 -6.07654615E-04 -3.33595879E-19
 -1.28784720E-19 -5.65542549E-04  1.47033781E-03 -2.40722900E-03  8.18111559E-04
 -2.24893814E-19  1.53180405E-03 -1.47274962E-03  4.68156653E-04 -4.50499762E-19
 -6.79572803E-06  1.18188717E-05 -5.84476907E-05 -1.09171887E-04 -1.05864310E-19
  2.07599522E-20 -1.29476832E-02 -6.17764878E-03 -5.18414520E-03  8.07473144E-04
  4.47519668E-18 -4.62981829E-03 -2.55147824E-03  8.93277160E-04  2.82074404E-18
 -2.69014987E-04  2.18161655E-04  2.76629170E-04 -7.84486075E-03  1.73464188E-02
 -1.82852051E-02  1.06852509E-02  6.53434376E-18  1.48003434E-02 -5.03690505E-03
  5.44073725E-03  3.20204957E-18  9.01861815E-04 -1.38944464E-03 -1.88569709E-04
 -5.20259998E-06 -4.03149513E-19 -5.34985458E-19  1.53464245E-03 -2.90435942E-03
  3.35667640E-03 -4.61717296E-03 -1.11965567E-18 -7.58829772E-04  8.62133260E-04
 -3.06742820E-03 -1.20775670E-18  2.33460711E-05 -2.21113805E-05  1.09171760E-04
  1.06962322E-05 -1.23844518E-19  6.25449081E-20  6.08795232E-04  3.23085197E-04
  8.18915556E-03  2.92619263E-02  1.16704128E-17 -9.95953449E-03  1.13833183E-03
  1.63607317E-02  6.89431365E-18  6.43006265E-04  1.04166169E-03 -2.17082336E-04
  2.00582074E-03 -1.05632116E-18  2.48981954E-18  5.99254803E-19  5.53925733E-18
  2.61203125E-02  2.23682704E-18  5.48261480E-19  2.65300107E-18  1.26129086E-02
 -2.48439066E-19 -5.47040973E-19 -3.91768160E-19 -5.06128498E-19 -2.03485391E-03
 -1.30576983E-03  1.83068160E-19 -2.95179355E-19  8.10058982E-20 -8.75774201E-19
 -1.52574972E-03  7.00029258E-20 -4.40046078E-19 -9.44334482E-19 -3.55619782E-03
 -1.47679939E-19  6.46582840E-20  9.08784040E-20 -9.01048808E-20 -7.83669107E-04
  2.78010256E-04 -1.55847600E-18 -7.38154713E-19  4.80043555E-18  1.01031828E-17
  3.69408814E-02 -2.25212686E-18  2.37548322E-18  5.98038263E-18  2.26351462E-02
  5.31363770E-19  4.31388369E-19  2.75250583E-19  7.43503605E-19  2.38573931E-03
  1.08661747E-19  1.73527357E-19  1.32173818E-18  4.20222442E-18  1.01778693E-02
  1.19043819E-18 -2.70138400E-19  1.76027945E-18  4.91425683E-03 -1.28673541E-19
 -3.06953593E-19 -7.84822650E-20 -4.96851367E-19 -8.62135161E-04 -5.07742691E-04
  6.29196154E-20 -2.72179816E-20 -5.13296498E-19 -1.29039768E-18 -1.25201513E-03
  6.22097410E-19 -7.41988922E-19 -1.02462586E-18 -1.83211566E-03 -1.12218017E-19
  2.08945809E-20  2.07599685E-20 -4.11036638E-20 -2.78010908E-04  9.65638012E-05
 -4.25196634E-18 -2.74942289E-18 -6.15928749E-19  6.47760516E-18  1.50487419E-02
 -3.21033910E-18 -5.25925274E-19  3.93201142E-18  9.26342643E-03  2.80440213E-20
  3.55764614E-19  1.97184222E-19  3.40968853E-19  9.56644954E-04  3.84488602E-04
Spin SCF Density                           R   N=        1035
  5.48299632E-03 -1.23103325E-02  2.98022770E-02  1.22109809E-08 -2.53636624E-08
 -7.68461786E-03 -3.51007411E-02  7.36020995E-02 -9.58485936E-08  2.10154404E-01
 -5.84544764E-18  1.22572118E-17  1.12365713E-18  3.64023300E-17  1.01211475E-02
 -4.05397691E-02  8.24694949E-02 -9.49803999E-08  2.41250777E-01  4.01763250E-17
  3.02923541E-01 -2.72605402E-09  6.37773579E-09 -9.38696675E-03 -1.48972711E-08
  4.00998935E-19 -1.57969933E-09 -1.16771930E-02 -1.53995076E-02  3.08706020E-02
 -4.23891656E-08  9.56854339E-02  1.64360775E-17  1.15208680E-01 -3.27152784E-09
  4.41818634E-02 -2.56453319E-18  5.14098796E-18  4.00994356E-19  1.64360775E-17
  3.61189965E-03  1.91860994E-17  1.25267031E-19  7.51434278E-18  1.12831002E-03
  5.64806793E-03 -1.27528479E-02  1.27534289E-08 -2.84136898E-02 -4.73182996E-18
 -3.65021013E-02  3.71769964E-09 -1.49045035E-02 -2.48209844E-18  2.70433435E-03
 -3.29185953E-03  6.82749981E-03 -6.65154188E-09  1.13745238E-02  2.56849425E-18
  1.45442928E-02 -3.92722576E-09  6.54578748E-03  1.43096668E-18 -1.97160938E-04
 -7.62081523E-04 -4.00277719E-05 -9.27209215E-04  4.30658734E-10  2.83900032E-04
  8.56385477E-19  5.99073313E-04  7.89759474E-10  1.39116309E-04  4.32216416E-19
 -2.26833669E-04  1.84175163E-04  2.68242881E-05  4.11049243E-09 -8.82349349E-09
  2.20697947E-04 -1.98271911E-08  3.11421940E-19 -2.50507803E-08 -1.67789634E-03
 -1.15155658E-08  1.57441071E-19  1.32472299E-09  3.51377873E-10 -2.33459336E-10
 -2.36725501E-04 -5.13077625E-21 -1.18867384E-19  3.67536123E-20  3.63919331E-20
 -3.08838929E-10  7.67955367E-20 -2.79425775E-19  1.78324420E-20 -3.69444106E-11
 -3.28410512E-20  2.36109069E-20  3.43882898E-21 -4.21375379E-20 -1.95623122E-05
 -6.39426630E-19  1.16432034E-18  3.11424075E-19  2.62205419E-18  2.80506959E-03
  2.89281288E-18  1.57442365E-19  1.47782721E-18  1.41812041E-03 -7.42626624E-20
 -1.90436826E-19 -4.83711621E-20 -3.39042067E-20  2.10957766E-10 -3.05382481E-04
 -1.30948818E-03  2.62763644E-03 -5.03592604E-04  7.38202550E-03  1.22935420E-18
  9.82592380E-03 -7.15813770E-04  2.99686307E-03  4.99077958E-19 -9.06826526E-04
  5.16055854E-04 -5.44561491E-05 -3.39642780E-05 -1.26373314E-20  9.05091867E-20
  3.76613303E-04  3.79891919E-03 -7.16695215E-03  1.73736282E-03 -2.38150717E-02
 -3.96600615E-18 -3.31438414E-02  7.84210764E-04 -1.01500343E-02 -1.69032026E-18
  3.45094275E-03 -1.75333169E-03  5.21928663E-05 -2.40410726E-05  2.68735276E-21
 -3.28795397E-19 -2.81362674E-03  1.12769118E-02 -2.90348616E-03  5.29655267E-03
 -5.59033638E-03  2.29576709E-02  4.07961063E-18  2.43087250E-02 -9.34521276E-03
  9.61874730E-03  1.62967952E-18 -3.41127554E-03  1.54553732E-03  2.46104274E-04
 -1.40689303E-03 -1.97712901E-19  5.72969163E-19  4.18569381E-04 -9.71640739E-04
  1.29425172E-03  2.98695775E-02 -5.49552965E-02 -6.14664306E-03 -1.65589843E-01
 -2.72557604E-17 -2.30056427E-01 -2.01106580E-02 -9.18992768E-02 -1.52695086E-17
  2.01973333E-02 -2.76784106E-03 -2.68939984E-03  1.69441998E-04 -3.10266735E-19
 -6.67800146E-19 -8.57865445E-03  3.05516522E-02 -2.40145713E-02  1.91345239E-01
  4.97428390E-18 -9.15189533E-18 -7.67231290E-19 -2.72557604E-17  2.30935948E-03
 -3.83120913E-17 -3.32126102E-18 -1.52695086E-17  2.50727241E-04  3.37224717E-18
  5.07327562E-20  1.66130019E-19  2.70838294E-19  4.53233146E-05  2.12867734E-03
 -1.42863295E-18  5.08787216E-18 -3.87877402E-18  3.20159528E-17  1.08496649E-03
  6.98313001E-03 -1.46035430E-02  6.99217161E-03 -3.77151491E-02 -6.28083403E-18
 -4.80085560E-02  9.36031421E-03 -1.65497025E-02 -2.75607911E-18  5.02578110E-03
 -2.54219086E-03  3.68954917E-04  9.94876914E-04  2.12979391E-19 -4.29729938E-19
  4.65333622E-04  5.49654913E-03  1.91398054E-03  4.82343965E-02  8.03264064E-18
 -6.62554496E-03 -3.11523348E-03  6.44893343E-03 -4.40913461E-03  1.72334140E-02
  2.78084528E-18  2.13392249E-02 -9.18673205E-03  7.37042267E-03  1.13270928E-18
 -2.90588699E-03  1.35339317E-03  6.02081731E-05 -1.34801381E-03 -2.41710329E-19
  4.08551088E-19  6.11032746E-04 -1.82291748E-03 -4.21123066E-03 -2.23062193E-02
 -4.03086005E-18  9.82338786E-04 -5.81640126E-03  2.45316526E-02 -4.64813222E-02
 -8.13283708E-03 -1.32464836E-01 -2.21711950E-17 -1.77631466E-01 -1.43052394E-02
 -7.15144751E-02 -1.20279434E-17  1.58038522E-02 -2.57115566E-03 -1.75030147E-03
 -2.74353298E-04 -3.01247636E-19 -6.01590934E-19 -5.91848552E-03  2.14293406E-02
 -1.89821728E-02  1.31004260E-01  2.14214315E-17  3.61344799E-02 -1.79523964E-02
  9.30778613E-02  4.08534084E-18 -7.74069511E-18 -1.44348411E-18 -2.21711950E-17
 -8.02493416E-04 -2.95815814E-17 -2.47701358E-18 -1.20279434E-17 -8.53095830E-04
  2.58867366E-18 -1.27996383E-19  6.87407086E-20  6.17871172E-20 -2.24634787E-04
  1.24885231E-03 -9.85625835E-19  3.56870209E-18 -3.47729510E-18  2.14214315E-17
 -2.84743066E-03  6.01759973E-18 -3.43560035E-18  1.49431705E-17 -4.01654227E-03
  3.01482565E-04 -2.79058699E-04  1.13976024E-04 -2.30250460E-03 -4.06475222E-19
 -2.58835052E-03  5.87604862E-04 -1.08182700E-03 -1.76406527E-19  4.08972851E-04
 -2.40518691E-04 -9.96216439E-06  1.06219113E-04  1.98833810E-20 -8.53136143E-20
  4.56621878E-04 -1.71704654E-03 -7.91745669E-04  3.60996295E-03  6.54043238E-19
 -2.11398294E-03 -1.08498680E-04  2.66280637E-03  5.17321882E-19  1.08815828E-04
  1.57163371E-04 -3.41367561E-04 -1.08591751E-03  4.25802147E-04  1.15111588E-19
 -1.37519371E-03 -1.37184016E-03  1.47760829E-05  1.65597949E-20 -1.62405286E-06
  1.83133182E-04 -9.71739044E-05 -1.40598024E-04 -2.94544055E-20  3.62425672E-20
 -2.03102526E-03  4.31717719E-03  1.50606373E-03 -1.19725962E-03 -1.25387635E-19
  6.06706084E-03  3.80359113E-04 -1.02340571E-03 -1.42503801E-19 -6.69762665E-05
 -1.95954819E-04 -2.18640762E-05  2.14319747E-04 -3.22661223E-04 -2.59561191E-04
  9.81592112E-21 -1.01061906E-04  1.08573518E-05 -2.68540170E-04 -2.78020226E-20
  6.12306494E-05 -6.32995947E-05  1.55765029E-05  1.79419000E-05  1.26855817E-20
  1.02420772E-20  5.19331847E-04 -1.93568220E-03 -6.86190784E-04  8.69952002E-04
  2.33671486E-19 -2.18068929E-03 -4.04208292E-04  6.22346763E-04  1.37154538E-19
  8.03492026E-05  8.48674585E-06  4.50084691E-05 -3.19488727E-04  2.57851669E-04
  6.74235533E-04  1.24615673E-03  2.11321162E-19  2.25914819E-03  1.17125686E-03
  1.08667499E-03  1.90188941E-19  1.12019182E-04 -3.18026798E-04  1.22621770E-04
  8.14267014E-05  3.47494272E-20 -6.08780823E-20  4.19783722E-04 -1.30485658E-03
  8.80870927E-04 -2.54594249E-04  2.99299422E-20 -1.96304994E-03  7.84928547E-04
  2.46472330E-04  1.07260120E-19 -1.13704547E-04  1.52971342E-04 -1.16491166E-05
 -1.15390645E-04 -5.60084813E-20  7.04161875E-20  5.76213485E-20  1.57630363E-19
 -1.19769245E-04  3.63267865E-19  1.98612627E-19  1.49250672E-19  1.95212285E-05
  2.99760281E-20 -1.07909904E-19 -3.37820467E-20 -3.26551965E-21  1.80527157E-05
 -1.94836655E-04  1.36485084E-19 -4.65451917E-19  8.92473631E-20  1.07278269E-19
  2.74907260E-04 -6.06472429E-19  1.21550427E-19  1.74144274E-19  3.84175631E-04
 -1.51527877E-20  2.45777700E-20  1.44793953E-21 -2.63304254E-20 -3.38942862E-05
  2.67182795E-20 -3.12996351E-20 -2.40107643E-19  6.58059143E-20  1.83888272E-04
 -2.80639474E-19 -2.55547799E-19 -3.20512324E-20  5.86556686E-05  1.46335793E-20
  4.16708200E-20  3.72817383E-21 -1.27897546E-20  2.66976447E-05  6.90540940E-05
 -3.07337266E-19  5.19990012E-19  2.13827852E-19 -4.80997604E-20  3.07842252E-04
  8.17224483E-19  2.12676692E-20 -8.09440239E-20  1.16185242E-04 -1.59162069E-21
 -3.33194269E-20  1.24468115E-20  2.77895658E-20 -8.25832154E-06  1.24889742E-05
 -1.30948681E-03  2.62763390E-03  5.03587770E-04  7.38202175E-03  1.22935358E-18
  9.82591639E-03  7.15815855E-04  2.99686076E-03  4.99077573E-19 -9.06825866E-04
  5.16055767E-04 -5.44563334E-05  3.39629382E-05 -1.32520108E-21  9.05091403E-20
  3.77407775E-04 -1.07853190E-03  1.37912876E-03 -6.07407455E-03 -1.01153661E-18
 -2.58338847E-03  1.55515804E-03 -4.55406136E-03 -7.58403567E-19 -1.34685318E-04
  1.28801159E-05  4.83798473E-05  7.12591704E-05  1.80692118E-20  1.02295183E-20
  3.76612642E-04  3.79891823E-03 -7.16695105E-03 -1.73734635E-03 -2.38150730E-02
 -3.96600636E-18 -3.31438370E-02 -7.84215910E-04 -1.01500334E-02 -1.69032012E-18
  3.45094184E-03 -1.75333106E-03  5.21931631E-05  2.40462211E-05  1.06955339E-20
 -3.28795229E-19 -1.07853247E-03  3.59731304E-03 -3.71951464E-03  2.36695744E-02
  3.94177597E-18  6.84211921E-03 -3.97095995E-03  1.75724563E-02  2.92640185E-18
  4.58818224E-04  1.11415106E-04 -1.78830034E-05 -3.51479216E-04 -6.08256042E-20
  1.85590134E-20 -2.81362661E-03  1.12769158E-02  2.90347691E-03 -5.29653409E-03
 -5.59033240E-03 -2.29576449E-02 -3.56682609E-18 -2.43086673E-02 -9.34523700E-03
 -9.61873531E-03 -1.57400547E-18  3.41127268E-03 -1.54553856E-03 -2.46102863E-04
 -1.40688914E-03 -2.70876012E-19 -1.00307929E-19 -1.37912820E-03  3.71950915E-03
 -2.64607300E-03  2.00165107E-02  2.87553170E-18  1.11078608E-02 -4.57382684E-03
  1.56080315E-02  2.42560163E-18  3.58187459E-05 -1.74482268E-04  9.62021208E-05
  1.02553457E-04  4.21667767E-20 -4.85191680E-20 -4.18564591E-04  9.71627604E-04
  1.29422753E-03  2.98695888E-02 -5.49553192E-02  6.14678809E-03 -1.65589869E-01
 -2.72557655E-17 -2.30056509E-01  2.01106873E-02 -9.18992744E-02 -1.52695089E-17
  2.01973426E-02 -2.76784326E-03 -2.68940139E-03 -1.69419730E-04 -3.79278784E-19
 -6.67800906E-19 -6.07408213E-03  2.36695886E-02 -2.00165584E-02  1.51729065E-01
  2.46956065E-17  1.87077434E-02 -1.16682027E-02  1.21340790E-01  1.99902287E-17
  3.76722701E-03  9.07814266E-04  1.38747755E-03 -1.62220114E-03 -7.63354347E-20
  3.58929546E-19 -8.57865499E-03  3.05516620E-02  2.40145450E-02  1.91345364E-01
  4.97428578E-18 -9.15189910E-18  1.28003564E-18 -2.72557655E-17  2.30935397E-03
 -3.83121049E-17  3.37693795E-18 -1.52695089E-17  2.50722073E-04  3.35481731E-18
  5.07322360E-20  1.66129578E-19  2.01826373E-19 -4.53253989E-05  2.12867670E-03
 -1.01153788E-18  3.94177835E-18 -3.79131356E-18  2.46956065E-17 -4.12427904E-03
  3.11546513E-18 -2.11680384E-18  1.99902287E-17 -1.56417000E-03  6.49462192E-19
  8.54003860E-20  1.52124157E-19 -2.84589575E-19  1.14889733E-04 -2.73665462E-04
 -1.42863304E-18  5.08787379E-18  4.11968252E-18  3.20159760E-17  1.08498377E-03
  6.98311230E-03 -1.46035067E-02 -6.99214319E-03 -3.77150973E-02 -6.28082540E-18
 -4.80084595E-02 -9.36031589E-03 -1.65496723E-02 -2.75607408E-18  5.02577419E-03
 -2.54219164E-03  3.68956482E-04 -9.94869732E-04 -1.18379789E-19 -4.29729837E-19
 -2.58338517E-03  6.84210691E-03 -1.11078432E-02  1.87076768E-02  3.11545402E-18
  1.70112267E-02 -1.15080146E-02  1.45892878E-02  2.42960449E-18  8.24461846E-04
 -6.05867323E-04 -2.51392001E-04  4.98393622E-04  5.07713820E-20 -1.56790812E-19
  4.65341199E-04  5.49653363E-03 -1.91401600E-03  4.82343634E-02  8.03263512E-18
 -6.62558769E-03  3.11522226E-03 -6.44891006E-03 -4.40913132E-03 -1.72333830E-02
 -2.95902993E-18 -2.13391643E-02 -9.18674878E-03 -7.37040663E-03 -1.32213247E-18
  2.90588405E-03 -1.35339498E-03 -6.02069642E-05 -1.34801082E-03 -2.07267943E-19
 -1.31250289E-19 -1.55515682E-03  3.97095340E-03 -4.57382055E-03  1.16681551E-02
  1.76948045E-18  1.15080254E-02 -6.05116371E-03  8.95005359E-03  1.50665229E-18
  7.48957425E-05 -3.04606238E-04 -5.08668445E-05  3.38439066E-04  5.80651421E-20
 -8.83202282E-20 -6.11028699E-04  1.82290626E-03 -4.21125660E-03  2.23061984E-02
  3.39860081E-18 -9.82367779E-04 -5.81642713E-03  2.45316586E-02 -4.64813349E-02
  8.13295628E-03 -1.32464832E-01 -2.21711949E-17 -1.77631503E-01  1.43052632E-02
 -7.15144665E-02 -1.20279426E-17  1.58038559E-02 -2.57115608E-03 -1.75030256E-03
  2.74370764E-04 -1.47518351E-19 -6.01591144E-19 -4.55406680E-03  1.75724656E-02
 -1.56080697E-02  1.21340772E-01  1.99902257E-17  1.45893346E-02 -8.95008988E-03
  9.56396304E-02  1.59474092E-17  2.74678641E-03  5.84981250E-04  9.21492124E-04
 -1.25086807E-03 -7.98974844E-20  2.33163045E-19 -5.91848509E-03  2.14293458E-02
  1.89821545E-02  1.31004331E-01  2.14214443E-17  3.61344508E-02  1.79523807E-02
  9.30778967E-02  4.08534183E-18 -7.74069724E-18  1.26531416E-18 -2.21711949E-17
 -8.02497625E-04 -2.95815877E-17  2.28759169E-18 -1.20279426E-17 -8.53100616E-04
  2.67506690E-18 -1.27996373E-19  6.87406226E-20  2.15516579E-19  2.24633586E-04
  1.24885264E-03 -7.58404472E-19  2.92640339E-18 -2.77292346E-18  1.99902257E-17
 -1.56416965E-03  2.42961228E-18 -1.47432043E-18  1.59474092E-17  1.45636987E-04
  4.71677457E-19  5.06658486E-20  9.73555468E-20 -2.19624814E-19  7.40816786E-05
 -1.94504447E-04 -9.85625763E-19  3.56870296E-18  2.84503630E-18  2.14214443E-17
 -2.84742292E-03  6.01759489E-18  2.54374641E-18  1.49431767E-17 -4.01654019E-03
  3.01482906E-04 -2.79059306E-04 -1.13975183E-04 -2.30250968E-03 -3.60413801E-19
 -2.58835484E-03 -5.87605941E-04 -1.08182964E-03 -1.83914751E-19  4.08973768E-04
 -2.40519299E-04 -9.96210469E-06 -1.06218326E-04 -1.54945749E-20 -1.03810269E-20
 -1.34685445E-04  4.58818371E-04 -3.58199381E-05  3.76723115E-03  6.05277215E-19
  8.24463789E-04 -7.48969472E-05  2.74678983E-03  4.43186829E-19 -9.57315222E-06
  2.20131892E-05  8.98009548E-06 -8.61630465E-05 -1.09803192E-20  3.88236715E-21
  4.56622263E-04 -1.71704774E-03  7.91745433E-04  3.60996851E-03  5.48316947E-19
 -2.11398575E-03  1.08497966E-04  2.66281033E-03  3.69571484E-19  1.08815937E-04
  1.57164640E-04 -3.41369746E-04  1.08591823E-03  4.25799958E-04  1.15111277E-19
 -1.37520177E-03  1.37184198E-03  1.47749843E-05  1.65596384E-20 -1.62378501E-06
  1.83133571E-04 -9.71741535E-05  1.40597864E-04  4.53942612E-21  3.62426153E-20
  1.28797586E-05  1.11416361E-04  1.74480531E-04  9.07818060E-04  8.54010109E-20
 -6.05866961E-04  3.04605244E-04  5.84983945E-04  5.06662879E-20  2.20133109E-05
  5.68628050E-05  3.49435709E-05 -4.69492576E-05 -1.10179328E-21  1.49930000E-20
 -2.03102740E-03  4.31718229E-03 -1.50606095E-03 -1.19725637E-03 -1.25386937E-19
  6.06706740E-03 -3.80356863E-04 -1.02340358E-03 -1.42503389E-19 -6.69759636E-05
 -1.95955190E-04 -2.18636162E-05  2.14318693E-04  3.22661193E-04 -2.59562897E-04
  9.81570198E-21 -1.01064475E-04 -1.08575439E-05 -2.68541388E-04 -2.78021937E-20
  6.12308384E-05 -6.32996310E-05  1.55764546E-05 -1.79417671E-05 -8.69184600E-21
  1.02420782E-20  4.83797118E-05 -1.78827518E-05 -9.62029513E-05  1.38747846E-03
  1.52124302E-19 -2.51391328E-04  5.08662155E-05  9.21493107E-04  9.73556992E-20
  8.98015882E-06  3.49434711E-05 -6.21894365E-06 -5.53014232E-05 -7.32221024E-21
  3.87360814E-21  5.19331991E-04 -1.93568297E-03  6.86190670E-04  8.69954033E-04
  2.33672011E-19 -2.18069019E-03  4.04208137E-04  6.22348128E-04  1.37154836E-19
  8.03492245E-05  8.48668657E-06  4.50085590E-05  3.19489763E-04 -2.57853717E-04
  6.74235645E-04 -1.24616096E-03 -1.70490508E-19 -2.25915547E-03  1.17125691E-03
 -1.08667626E-03 -1.77165013E-19 -1.12018122E-04  3.18026318E-04 -1.22621816E-04
  8.14261972E-05 -2.61836599E-21  7.62110570E-20 -7.12594962E-05  3.51480256E-04
  1.02551596E-04  1.62220628E-03  2.23824538E-19 -4.98391785E-04  3.38437596E-04
  1.25087201E-03  1.76436848E-19  8.61629792E-05  4.69491894E-05  5.53014281E-05
 -4.19836135E-05  2.73145628E-21  1.58866118E-20 -4.19784034E-04  1.30485742E-03
  8.80873278E-04  2.54602510E-04  3.84262623E-20  1.96305039E-03  7.84930066E-04
 -2.46466284E-04 -8.14607635E-20  1.13704730E-04 -1.52971272E-04  1.16490769E-05
 -1.15390091E-04  5.04028724E-20 -1.54661466E-20  1.66944158E-19 -2.24181550E-19
  1.19768773E-04 -3.89181176E-19  1.91494219E-19 -2.18103451E-19 -1.95215688E-05
 -7.33367672E-21  9.16800824E-20  3.77757279E-20  3.53965945E-20  1.80525960E-05
  1.94836507E-04 -5.66493130E-21  5.62406967E-20 -8.00999131E-21  4.32078798E-19
 -1.14889382E-04 -1.15226648E-19  5.46574217E-20  3.16164308E-19 -7.40813525E-05
  1.77177371E-20  1.00611275E-20  5.72770563E-21 -1.35141443E-20  1.15316049E-05
 -9.30709365E-06 -3.33101563E-21 -3.08473292E-20  2.04142006E-19  1.15774778E-19
 -2.74906931E-04  4.73545035E-20  1.39883543E-19 -1.45764617E-20 -3.84175510E-04
  2.27184705E-20 -2.24018046E-20  1.00920153E-20 -2.15098437E-20 -3.38942699E-05
  2.67185973E-20 -3.13002243E-20  2.80939202E-19  6.58052514E-20  1.83888497E-04
 -2.80641438E-19  2.68572306E-19 -3.20516235E-20  5.86557787E-05  4.36593413E-21
  4.16709022E-20  3.72813393E-21  2.81228315E-20 -2.66977075E-05  6.90541486E-05
  1.02294279E-20  1.85592951E-20 -1.22472417E-20  3.58930419E-19 -2.73665491E-04
 -1.56790635E-19  4.51312689E-20  2.33163715E-19 -1.94504486E-04  7.46183998E-21
  1.49929840E-20  3.87362733E-21 -1.73102344E-20  9.30709638E-06 -6.41137276E-06
 -3.07337655E-19  5.19990868E-19 -1.45472552E-19 -4.80987188E-20  3.07842900E-04
  8.17225602E-19  4.53107172E-21 -8.09433630E-20  1.16185485E-04  1.58453150E-21
 -3.33194988E-20  1.24468254E-20 -2.50164441E-20  8.25832976E-06  1.24890119E-05
Anisotropic Hyperfine tensors              R   N=          18
 -5.06669004E-01 -6.45105437E-07  9.53458933E-01 -1.23951187E-17  2.05769778E-16
 -4.46789929E-01 -6.75292736E-01 -2.87244867E-01  1.40782404E+00 -6.28566422E-17
  1.16872907E-15 -7.32531309E-01 -6.75293501E-01  2.87244596E-01  1.40782506E+00
 -7.78266283E-17 -1.55375510E-15 -7.32531563E-01
Isotropic Hyperfine splittings             R   N=           3
  4.62355918E-01  6.73019725E-02  6.73019022E-02
QEq coupling tensors                       R   N=          18
 -2.36120032E-01 -7.09529795E-07  7.31376556E-01 -5.39134127E-16  1.83967895E-16
 -4.95256524E-01 -8.17827465E-01  1.23902350E+00  7.94709324E-01  5.64562987E-15
 -2.33225417E-15  2.31181413E-02 -8.17826772E-01 -1.23902609E+00  7.94706967E-01
  7.57746317E-15  3.12039500E-15  2.31198049E-02
Mulliken Charges                           R   N=           3
  4.80513499E-01 -2.40256636E-01 -2.40256863E-01
Optimization MaxStp                        I              100
Optimization Job offset                    I                0
Optimization Num results per geometry      I                2
Optimization Num geometry variables        I                9
Opt point       1 Results for each geome   R   N=           6
 -2.05071796E+02  0.00000000E+00 -2.05072192E+02  0.00000000E+00 -2.05072206E+02
  0.00000000E+00
Opt point       1 Geometries               R   N=          27
 -2.22044605E-16  6.04531876E-01 -2.77555756E-17  2.07804848E+00 -2.64475586E-01
 -5.55111512E-16 -2.07804848E+00 -2.64489805E-01  1.11022302E-15 -1.38777878E-16
  6.16574273E-01 -5.55111512E-17  2.08949656E+00 -2.69748306E-01 -2.22044605E-16
 -2.08949656E+00 -2.69754183E-01  2.22044605E-16  3.05311332E-16  6.20546219E-01
  8.32667268E-17  2.09125168E+00 -2.71488066E-01 -2.22044605E-16 -2.09125168E+00
 -2.71489876E-01  3.33066907E-16
Opt point       1 Gradient at each geome   R   N=          27
  3.50198099E-06 -1.66222416E-02 -4.65252836E-15 -1.69390648E-02  8.31179545E-03
  2.03613168E-15  1.69355628E-02  8.31044618E-03  2.61422828E-15  1.32192515E-06
 -3.18666551E-03 -2.69098979E-16 -2.90547496E-03  1.59360906E-03  6.36914566E-16
  2.90415304E-03  1.59305646E-03 -3.68845579E-16  3.99099058E-07  1.62740001E-04
 -1.09091745E-15 -1.21332603E-04 -8.12849439E-05 -4.67372452E-16  1.20933504E-04
 -8.14550567E-05  1.55830345E-15
Optimization Number of geometries          I   N=           1
           3
ONIOM Charges                              I   N=          16
           0           0           0           0           0           0
           0           0           0           0           0           0
           0           0           0           0
ONIOM Multiplicities                       I   N=          16
           2           0           0           0           0           0
           0           0           0           0           0           0
           0           0           0           0
Atom Layers                                I   N=           3
           1           1           1
Atom Modifiers                             I   N=           3
           0           0           0
Force Field                                I                0
Int Atom Modified Types                    I   N=           3
           0           0           0
Link Atoms                                 I   N=           3
           0           0           0
Atom Modified MM Charges                   R   N=           3
  0.00000000E+00  0.00000000E+00  0.00000000E+00
Link Distances                             R   N=          12
  0.00000000E+00  0.00000000E+00  0.00000000E+00  0.00000000E+00  0.00000000E+00
  0.00000000E+00  0.00000000E+00  0.00000000E+00  0.00000000E+00  0.00000000E+00
  0.00000000E+00  0.00000000E+00
Cartesian Gradient                         R   N=           9
  3.99099058E-07  1.62740001E-04 -1.09129014E-15 -1.21332603E-04 -8.12849439E-05
 -4.67182716E-16  1.20933504E-04 -8.14550567E-05  1.55846608E-15
Dipole Moment                              R   N=           3
  6.23678459E-07  1.26699644E-01 -7.28583860E-16
Quadrupole Moment                          R   N=           6
 -1.33813773E+00  4.15737409E-01  9.22400317E-01 -4.53069872E-07  1.31561428E-14
 -5.55111512E-16
